ALGO = Normal
EDIFF = 1E-8
ENCUT = 700
ISIF = 2
ISMEAR = 0
LASPH = .TRUE.
LCHARG = .FALSE.
LEPSILON = .TRUE.
LREAL = .FALSE.
LWAVE = .FALSE.
NSW = 0
PREC = Accurate
SIGMA = 0.01
SYSTEM = SiO2

