ALGO = All
EDIFF = 1E-8
ENCUT = 600
GGA = PE
ISIF = 2
ISMEAR = 0
LASPH = .TRUE.
LCALCEPS = .TRUE.
LCHARG = .FALSE.
!LEPSILON = .TRUE.
LMIXTAU = .TRUE.
LREAL = .FALSE.
LWAVE = .FALSE.
METAGGA = TPSS
NSW = 0
PREC = Accurate
SIGMA = 0.01
SYSTEM = SiO2

