ALGO = All
EDIFF = 1E-6
ENCUT = 600
GGA = PE
ISIF = 2
ISMEAR = 0
KPAR = 4
LASPH = .TRUE.
LCALCEPS = .TRUE.
LCHARG = .FALSE.
!LEPSILON = .TRUE.
LREAL = .FALSE.
LWAVE = .FALSE.
NSW = 0
PREC = Accurate
SIGMA = 0.01
SYSTEM = SiO2

LHFCALC = .TRUE.
HFSCREEN = 0.2

