<?xml version="1.0" encoding="ISO-8859-1"?>
<modeling>
 <generator>
  <i name="program" type="string">vasp </i>
  <i name="version" type="string">6.2.0  </i>
  <i name="subversion" type="string">18Jan21 (build Mar  1 2021 20:13:55) complex                          parallel </i>
  <i name="platform" type="string">HPECrayEX_GCC </i>
  <i name="date" type="string">2026 03 06 </i>
  <i name="time" type="string">21:29:24 </i>
 </generator>
 <incar>
  <i type="string" name="SYSTEM">Pnma SnSe</i>
  <i type="string" name="PREC">Accurate</i>
  <i type="string" name="ALGO">Normal</i>
  <i type="logical" name="ADDGRID"> T  </i>
  <i type="int" name="NELM">   250</i>
  <i type="int" name="NELMIN">     5</i>
  <i type="int" name="IBRION">     6</i>
  <i name="EDIFF">      0.00000001</i>
  <i type="int" name="NSW">     1</i>
  <i type="int" name="ISIF">     2</i>
  <i name="ENCUT">    700.00000000</i>
  <i name="POTIM">      0.01000000</i>
  <i type="logical" name="LREAL"> F  </i>
  <i type="int" name="ISMEAR">     0</i>
  <i name="SIGMA">      0.01000000</i>
  <i type="logical" name="LWAVE"> F  </i>
  <i type="logical" name="LCHARG"> F  </i>
  <i type="logical" name="LASPH"> T  </i>
  <i type="string" name="GGA">PS</i>
  <i type="logical" name="LEPSILON"> T  </i>
  <i type="int" name="IVDW">    11</i>
 </incar>
 <primitive_cell>
  <structure name="primitive_cell" >
   <crystal>
    <varray name="basis" >
     <v>       4.34539863       0.00000000       0.00000000 </v>
     <v>       0.00000000       4.11936655       0.00000000 </v>
     <v>       0.00000000       0.00000000      11.35478920 </v>
    </varray>
    <i name="volume">    203.25401695 </i>
    <varray name="rec_basis" >
     <v>       0.23012848       0.00000000       0.00000000 </v>
     <v>       0.00000000       0.24275577       0.00000000 </v>
     <v>       0.00000000       0.00000000       0.08806857 </v>
    </varray>
   </crystal>
   <varray name="positions" >
    <v>       0.09903631       0.25000000       0.11539711 </v>
    <v>       0.40096369       0.25000000       0.61539711 </v>
    <v>       0.59903631       0.75000000       0.38460289 </v>
    <v>       0.90096369       0.75000000       0.88460289 </v>
    <v>       0.02605052       0.25000000       0.35675466 </v>
    <v>       0.47394948       0.25000000       0.85675466 </v>
    <v>       0.52605052       0.75000000       0.14324534 </v>
    <v>       0.97394948       0.75000000       0.64324534 </v>
   </varray>
  </structure>
  <varray name="primitive_index" >
   <v type="int" >        1 </v>
   <v type="int" >        2 </v>
   <v type="int" >        3 </v>
   <v type="int" >        4 </v>
   <v type="int" >        5 </v>
   <v type="int" >        6 </v>
   <v type="int" >        7 </v>
   <v type="int" >        8 </v>
  </varray>
 </primitive_cell>
 <kpoints>
  <generation param="Gamma">
   <v type="int" name="divisions">       8        9        3 </v>
   <v name="usershift">      0.00000000       0.00000000       0.00000000 </v>
   <v name="genvec1">      0.12500000       0.00000000       0.00000000 </v>
   <v name="genvec2">      0.00000000       0.11111111       0.00000000 </v>
   <v name="genvec3">      0.00000000       0.00000000       0.33333333 </v>
   <v name="shift">      0.00000000       0.00000000       0.00000000 </v>
  </generation>
  <varray name="kpointlist" >
   <v>       0.00000000       0.00000000       0.00000000 </v>
   <v>       0.12500000       0.00000000       0.00000000 </v>
   <v>       0.25000000       0.00000000       0.00000000 </v>
   <v>       0.37500000       0.00000000       0.00000000 </v>
   <v>       0.50000000       0.00000000       0.00000000 </v>
   <v>       0.00000000       0.11111111       0.00000000 </v>
   <v>       0.12500000       0.11111111       0.00000000 </v>
   <v>       0.25000000       0.11111111       0.00000000 </v>
   <v>       0.37500000       0.11111111       0.00000000 </v>
   <v>       0.50000000       0.11111111       0.00000000 </v>
   <v>       0.00000000       0.22222222       0.00000000 </v>
   <v>       0.12500000       0.22222222       0.00000000 </v>
   <v>       0.25000000       0.22222222       0.00000000 </v>
   <v>       0.37500000       0.22222222       0.00000000 </v>
   <v>       0.50000000       0.22222222       0.00000000 </v>
   <v>       0.00000000       0.33333333       0.00000000 </v>
   <v>       0.12500000       0.33333333       0.00000000 </v>
   <v>       0.25000000       0.33333333       0.00000000 </v>
   <v>       0.37500000       0.33333333       0.00000000 </v>
   <v>       0.50000000       0.33333333       0.00000000 </v>
   <v>       0.00000000       0.44444444       0.00000000 </v>
   <v>       0.12500000       0.44444444       0.00000000 </v>
   <v>       0.25000000       0.44444444       0.00000000 </v>
   <v>       0.37500000       0.44444444       0.00000000 </v>
   <v>       0.50000000       0.44444444       0.00000000 </v>
   <v>       0.00000000       0.00000000       0.33333333 </v>
   <v>       0.12500000       0.00000000       0.33333333 </v>
   <v>       0.25000000       0.00000000       0.33333333 </v>
   <v>       0.37500000       0.00000000       0.33333333 </v>
   <v>       0.50000000       0.00000000       0.33333333 </v>
   <v>       0.00000000       0.11111111       0.33333333 </v>
   <v>       0.12500000       0.11111111       0.33333333 </v>
   <v>       0.25000000       0.11111111       0.33333333 </v>
   <v>       0.37500000       0.11111111       0.33333333 </v>
   <v>       0.50000000       0.11111111       0.33333333 </v>
   <v>       0.00000000       0.22222222       0.33333333 </v>
   <v>       0.12500000       0.22222222       0.33333333 </v>
   <v>       0.25000000       0.22222222       0.33333333 </v>
   <v>       0.37500000       0.22222222       0.33333333 </v>
   <v>       0.50000000       0.22222222       0.33333333 </v>
   <v>       0.00000000       0.33333333       0.33333333 </v>
   <v>       0.12500000       0.33333333       0.33333333 </v>
   <v>       0.25000000       0.33333333       0.33333333 </v>
   <v>       0.37500000       0.33333333       0.33333333 </v>
   <v>       0.50000000       0.33333333       0.33333333 </v>
   <v>       0.00000000       0.44444444       0.33333333 </v>
   <v>       0.12500000       0.44444444       0.33333333 </v>
   <v>       0.25000000       0.44444444       0.33333333 </v>
   <v>       0.37500000       0.44444444       0.33333333 </v>
   <v>       0.50000000       0.44444444       0.33333333 </v>
  </varray>
  <varray name="weights" >
   <v>       0.00462963 </v>
   <v>       0.00925926 </v>
   <v>       0.00925926 </v>
   <v>       0.00925926 </v>
   <v>       0.00462963 </v>
   <v>       0.00925926 </v>
   <v>       0.01851852 </v>
   <v>       0.01851852 </v>
   <v>       0.01851852 </v>
   <v>       0.00925926 </v>
   <v>       0.00925926 </v>
   <v>       0.01851852 </v>
   <v>       0.01851852 </v>
   <v>       0.01851852 </v>
   <v>       0.00925926 </v>
   <v>       0.00925926 </v>
   <v>       0.01851852 </v>
   <v>       0.01851852 </v>
   <v>       0.01851852 </v>
   <v>       0.00925926 </v>
   <v>       0.00925926 </v>
   <v>       0.01851852 </v>
   <v>       0.01851852 </v>
   <v>       0.01851852 </v>
   <v>       0.00925926 </v>
   <v>       0.00925926 </v>
   <v>       0.01851852 </v>
   <v>       0.01851852 </v>
   <v>       0.01851852 </v>
   <v>       0.00925926 </v>
   <v>       0.01851852 </v>
   <v>       0.03703704 </v>
   <v>       0.03703704 </v>
   <v>       0.03703704 </v>
   <v>       0.01851852 </v>
   <v>       0.01851852 </v>
   <v>       0.03703704 </v>
   <v>       0.03703704 </v>
   <v>       0.03703704 </v>
   <v>       0.01851852 </v>
   <v>       0.01851852 </v>
   <v>       0.03703704 </v>
   <v>       0.03703704 </v>
   <v>       0.03703704 </v>
   <v>       0.01851852 </v>
   <v>       0.01851852 </v>
   <v>       0.03703704 </v>
   <v>       0.03703704 </v>
   <v>       0.03703704 </v>
   <v>       0.01851852 </v>
  </varray>
 </kpoints>
 <parameters>
  <separator name="general" >
   <i type="string" name="SYSTEM">Pnma SnSe</i>
   <i type="logical" name="LCOMPAT"> F  </i>
  </separator>
  <separator name="electronic" >
   <i type="string" name="PREC">accura</i>
   <i name="ENMAX">    700.00000000</i>
   <i name="ENAUG">    446.84200000</i>
   <i name="EDIFF">      0.00000001</i>
   <i type="int" name="IALGO">    38</i>
   <i type="int" name="IWAVPR">    11</i>
   <i type="int" name="NBANDS">    64</i>
   <i type="int" name="NBANDSLOW">    -1</i>
   <i type="int" name="NBANDSHIGH">    -1</i>
   <i name="NELECT">     80.00000000</i>
   <i type="int" name="TURBO">     0</i>
   <i type="int" name="IRESTART">     0</i>
   <i type="int" name="NREBOOT">     0</i>
   <i type="int" name="NMIN">     0</i>
   <i name="EREF">      0.00000000</i>
   <separator name="electronic smearing" >
    <i type="int" name="ISMEAR">     0</i>
    <i name="SIGMA">      0.01000000</i>
    <i name="KSPACING">      0.50000000</i>
    <i type="logical" name="KGAMMA"> T  </i>
    <i type="logical" name="KBLOWUP"> T  </i>
   </separator>
   <separator name="electronic projectors" >
    <i type="logical" name="LREAL"> F  </i>
    <v name="ROPT">      0.00000000      0.00000000</v>
    <i type="int" name="LMAXPAW">  -100</i>
    <i type="int" name="LMAXMIX">     2</i>
    <i type="logical" name="NLSPLINE"> F  </i>
   </separator>
   <separator name="electronic startup" >
    <i type="int" name="ISTART">     0</i>
    <i type="int" name="ICHARG">     2</i>
    <i type="int" name="INIWAV">     1</i>
   </separator>
   <separator name="electronic spin" >
    <i type="int" name="ISPIN">     1</i>
    <i type="logical" name="LNONCOLLINEAR"> F  </i>
    <v name="MAGMOM">      1.00000000      1.00000000      1.00000000      1.00000000      1.00000000      1.00000000      1.00000000      1.00000000</v>
    <i name="NUPDOWN">     -1.00000000</i>
    <i type="logical" name="LSORBIT"> F  </i>
    <v name="SAXIS">      0.00000000      0.00000000      1.00000000</v>
    <i type="logical" name="LSPIRAL"> F  </i>
    <v name="QSPIRAL">      0.00000000      0.00000000      0.00000000</v>
    <i type="logical" name="LZEROZ"> F  </i>
   </separator>
   <separator name="electronic exchange-correlation" >
    <i type="logical" name="LASPH"> T  </i>
    <i type="logical" name="LMETAGGA"> F  </i>
   </separator>
   <separator name="electronic convergence" >
    <i type="int" name="NELM">   250</i>
    <i type="int" name="NELMDL">    -5</i>
    <i type="int" name="NELMIN">     5</i>
    <i name="ENINI">    700.00000000</i>
    <separator name="electronic convergence detail" >
     <i type="logical" name="LDIAG"> T  </i>
     <i type="logical" name="LSUBROT"> F  </i>
     <i name="WEIMIN">      0.00100000</i>
     <i name="EBREAK">      0.00000000</i>
     <i name="DEPER">      0.30000000</i>
     <i type="int" name="NRMM">     4</i>
     <i name="TIME">      0.40000000</i>
    </separator>
   </separator>
   <separator name="electronic mixer" >
    <i name="AMIX">      0.40000000</i>
    <i name="BMIX">      1.00000000</i>
    <i name="AMIN">      0.10000000</i>
    <i name="AMIX_MAG">      1.60000000</i>
    <i name="BMIX_MAG">      1.00000000</i>
    <separator name="electronic mixer details" >
     <i type="int" name="IMIX">     4</i>
     <i type="logical" name="MIXFIRST"> F  </i>
     <i type="int" name="MAXMIX">   -45</i>
     <i name="WC">    100.00000000</i>
     <i type="int" name="INIMIX">     1</i>
     <i type="int" name="MIXPRE">     1</i>
     <i type="int" name="MREMOVE">     5</i>
    </separator>
   </separator>
   <separator name="electronic dipolcorrection" >
    <i type="logical" name="LDIPOL"> F  </i>
    <i type="logical" name="LMONO"> F  </i>
    <i type="int" name="IDIPOL">     0</i>
    <i name="EPSILON">      1.00000000</i>
    <v name="DIPOL">   -100.00000000   -100.00000000   -100.00000000</v>
    <i name="EFIELD">      0.00000000</i>
   </separator>
  </separator>
  <separator name="grids" >
   <i type="int" name="NGX">    40</i>
   <i type="int" name="NGY">    36</i>
   <i type="int" name="NGZ">    98</i>
   <i type="int" name="NGXF">    80</i>
   <i type="int" name="NGYF">    72</i>
   <i type="int" name="NGZF">   196</i>
   <i type="logical" name="ADDGRID"> T  </i>
  </separator>
  <separator name="ionic" >
   <i type="int" name="NSW">   133</i>
   <i type="int" name="IBRION">     6</i>
   <i type="int" name="MDALGO">     0</i>
   <i type="int" name="ISIF">     2</i>
   <i name="PSTRESS">      0.00000000</i>
   <i name="EDIFFG">      0.00000010</i>
   <i type="int" name="NFREE">     2</i>
   <i name="POTIM">      0.01000000</i>
   <i name="SMASS">     -3.00000000</i>
   <i name="SCALEE">      1.00000000</i>
  </separator>
  <separator name="ionic md" >
   <i name="TEBEG">      0.00010000</i>
   <i name="TEEND">      0.00010000</i>
   <i type="int" name="NBLOCK">     1</i>
   <i type="int" name="KBLOCK">   133</i>
   <i type="int" name="NPACO">   256</i>
   <i name="APACO">     16.00000000</i>
  </separator>
  <separator name="symmetry" >
   <i type="int" name="ISYM">     2</i>
   <i name="SYMPREC">      0.00001000</i>
  </separator>
  <separator name="dos" >
   <i type="int" name="LORBIT">     0</i>
   <v name="RWIGS">     -1.00000000     -1.00000000</v>
   <i type="int" name="NEDOS">   301</i>
   <i name="EMIN">     10.00000000</i>
   <i name="EMAX">    -10.00000000</i>
   <i name="EFERMI">      0.00000000</i>
  </separator>
  <separator name="writing" >
   <i type="int" name="NWRITE">     2</i>
   <i type="logical" name="LWAVE"> F  </i>
   <i type="logical" name="LDOWNSAMPLE"> F  </i>
   <i type="logical" name="LCHARG"> F  </i>
   <i type="logical" name="LPARD"> F  </i>
   <i type="logical" name="LVTOT"> F  </i>
   <i type="logical" name="LVHAR"> F  </i>
   <i type="logical" name="LELF"> F  </i>
   <i type="logical" name="LOPTICS"> F  </i>
   <v name="STM">      0.00000000      0.00000000      0.00000000      0.00000000      0.00000000      0.00000000      0.00000000</v>
  </separator>
  <separator name="performance" >
   <i type="int" name="NPAR">    32</i>
   <i type="int" name="NSIM">     4</i>
   <i type="int" name="NBLK">    -1</i>
   <i type="logical" name="LPLANE"> T  </i>
   <i type="logical" name="LSCALAPACK"> T  </i>
   <i type="logical" name="LSCAAWARE"> F  </i>
   <i type="logical" name="LSCALU"> F  </i>
   <i type="logical" name="LASYNC"> F  </i>
   <i type="logical" name="LORBITALREAL"> F  </i>
  </separator>
  <separator name="miscellaneous" >
   <i type="int" name="IDIOT">     3</i>
   <i type="int" name="PHON_NSTRUCT">    -1</i>
   <i type="logical" name="LMUSIC"> F  </i>
   <v name="POMASS">    118.71000000     78.96000000</v>
   <v name="DARWINR">      0.00000000      0.00000000</v>
   <v name="DARWINV">      1.00000000      1.00000000</v>
   <i type="logical" name="LCORR"> T  </i>
  </separator>
  <i type="logical" name="GGA_COMPAT"> T  </i>
  <i type="logical" name="LBERRY"> F  </i>
  <i type="int" name="ICORELEVEL">     0</i>
  <i type="logical" name="LDAU"> F  </i>
  <i type="int" name="I_CONSTRAINED_M">     0</i>
  <separator name="electronic exchange-correlation" >
   <i type="string" name="GGA">PS</i>
   <i type="int" name="VOSKOWN">     0</i>
   <i type="logical" name="LHFCALC"> F  </i>
   <i type="string" name="PRECFOCK"></i>
   <i type="logical" name="LSYMGRAD"> F  </i>
   <i type="logical" name="LHFONE"> F  </i>
   <i type="logical" name="LRHFCALC"> F  </i>
   <i type="logical" name="LTHOMAS"> F  </i>
   <i type="logical" name="LMODELHF"> F  </i>
   <i type="logical" name="LFOCKACE"> F  </i>
   <i name="ENCUT4O">     -1.00000000</i>
   <i type="int" name="EXXOEP">     0</i>
   <i type="int" name="FOURORBIT">     0</i>
   <i name="AEXX">      0.00000000</i>
   <i name="HFALPHA">      0.00000000</i>
   <i name="MCALPHA">      0.00000000</i>
   <i name="ALDAX">      1.00000000</i>
   <i name="AGGAX">      1.00000000</i>
   <i name="ALDAC">      1.00000000</i>
   <i name="AGGAC">      1.00000000</i>
   <i type="int" name="NKREDX">     1</i>
   <i type="int" name="NKREDY">     1</i>
   <i type="int" name="NKREDZ">     1</i>
   <i type="logical" name="SHIFTRED"> F  </i>
   <i type="logical" name="ODDONLY"> F  </i>
   <i type="logical" name="EVENONLY"> F  </i>
   <i type="int" name="LMAXFOCK">     0</i>
   <i type="int" name="NMAXFOCKAE">     0</i>
   <i type="logical" name="LFOCKAEDFT"> F  </i>
   <i name="HFSCREEN">      0.00000000</i>
   <i name="HFSCREENC">      0.00000000</i>
   <i type="int" name="NBANDSGWLOW">     0</i>
  </separator>
  <separator name="vdW DFT" >
   <i type="logical" name="LUSE_VDW"> F  </i>
   <i name="Zab_VDW">     -0.84910000</i>
   <i name="PARAM1">      0.12340000</i>
   <i name="PARAM2">      1.00000000</i>
   <i name="PARAM3">      0.00000000</i>
  </separator>
  <separator name="model GW" >
   <i type="int" name="MODEL_GW">     0</i>
   <i name="MODEL_EPS0">     15.24405127</i>
   <i name="MODEL_ALPHA">      1.00000000</i>
  </separator>
  <separator name="linear response parameters" >
   <i type="logical" name="LEPSILON"> T  </i>
   <i type="logical" name="LRPA"> F  </i>
   <i type="logical" name="LNABLA"> F  </i>
   <i type="logical" name="LVEL"> F  </i>
   <i type="int" name="KINTER">     0</i>
   <i name="CSHIFT">      0.10000000</i>
   <i name="OMEGAMAX">     -1.00000000</i>
   <i name="DEG_THRESHOLD">      0.00200000</i>
   <i name="RTIME">     -0.10000000</i>
   <i name="WPLASMAI">      0.00000000</i>
   <v name="DFIELD">      0.00000000      0.00000000      0.00000000</v>
   <v name="WPLASMA">      0.00000000      0.00000000      0.00000000      0.00000000      0.00000000      0.00000000      0.00000000      0.00000000      0.00000000</v>
  </separator>
  <separator name="orbital magnetization" >
   <i type="logical" name="NUCIND"> F  </i>
   <v name="MAGPOS">      0.00000000      0.00000000      0.00000000</v>
   <i type="logical" name="LNICSALL"> T  </i>
   <i type="logical" name="ORBITALMAG"> F  </i>
   <i type="logical" name="LMAGBLOCH"> F  </i>
   <i type="logical" name="LCHIMAG"> F  </i>
   <i type="logical" name="LGAUGE"> T  </i>
   <i type="int" name="MAGATOM">     0</i>
   <v name="MAGDIPOL">      0.00000000      0.00000000      0.00000000</v>
   <v name="AVECCONST">      0.00000000      0.00000000      0.00000000</v>
  </separator>
  <separator name="response functions" >
   <i type="logical" name="LFINITE_TEMPERATURE"> F  </i>
   <i type="logical" name="LADDER"> F  </i>
   <i type="logical" name="LRPAFORCE"> F  </i>
   <i type="logical" name="LFXC"> F  </i>
   <i type="logical" name="LHARTREE"> T  </i>
   <i type="int" name="IBSE">     0</i>
   <v type="int" name="KPOINT">    -1     0     0     0</v>
   <i type="logical" name="LTCTC"> F  </i>
   <i type="logical" name="LTCTE"> F  </i>
   <i type="logical" name="LTETE"> F  </i>
   <i type="logical" name="LTRIPLET"> F  </i>
   <i type="logical" name="LFXCEPS"> F  </i>
   <i type="logical" name="LFXHEG"> F  </i>
   <i type="int" name="NATURALO">     2</i>
   <i type="logical" name="LHOLEGF"> F  </i>
   <i type="logical" name="L2ORDER"> F  </i>
   <i type="logical" name="LDMP1"> F  </i>
   <i type="logical" name="LMP2LT"> F  </i>
   <i type="logical" name="LSMP2LT"> F  </i>
   <i type="logical" name="LGWLF"> F  </i>
   <i name="ENCUTGW">     -2.00000000</i>
   <i name="ENCUTGWSOFT">     -2.00000000</i>
   <i name="ENCUTLF">     -1.00000000</i>
   <i type="logical" name="LESF_SPLINES"> F  </i>
   <i type="int" name="LMAXMP2">    -1</i>
   <i name="SCISSOR">      0.00000000</i>
   <i type="int" name="NOMEGA">     0</i>
   <i type="int" name="NOMEGAR">     0</i>
   <i type="int" name="NBANDSGW">    -1</i>
   <i type="int" name="NBANDSO">    -1</i>
   <i type="int" name="NBANDSV">    -1</i>
   <i type="int" name="NELM">   250</i>
   <i type="int" name="NELMHF">     1</i>
   <i type="int" name="DIM">     3</i>
   <i type="int" name="IESPILON">     4</i>
   <i type="int" name="ANTIRES">     0</i>
   <i name="OMEGAMAX">    -30.00000000</i>
   <i name="OMEGAMIN">    -30.00000000</i>
   <i name="OMEGATL">   -200.00000000</i>
   <i type="int" name="OMEGAGRID">     0</i>
   <i name="CSHIFT">     -0.10000000</i>
   <i type="logical" name="LSELFENERGY"> F  </i>
   <i type="logical" name="LSPECTRAL"> F  </i>
   <i type="logical" name="LSPECTRALGW"> F  </i>
   <i type="logical" name="LSINGLES"> F  </i>
   <i type="logical" name="LFERMIGW"> F  </i>
   <i type="logical" name="ODDONLYGW"> F  </i>
   <i type="logical" name="EVENONLYGW"> F  </i>
   <i type="int" name="NKREDLFX">     1</i>
   <i type="int" name="NKREDLFY">     1</i>
   <i type="int" name="NKREDLFZ">     1</i>
   <i type="int" name="MAXMEM">  2800</i>
   <i type="int" name="TELESCOPE">     0</i>
   <i type="int" name="NTAUPAR">    -1</i>
   <i type="int" name="NOMEGAPAR">    -1</i>
   <i name="DAMP_NEWTON">      0.80000001</i>
   <i name="LAMBDA">      1.00000000</i>
  </separator>
  <separator name="External order field" >
   <i name="OFIELD_KAPPA">      0.00000000</i>
   <v name="OFIELD_K">      0.00000000      0.00000000      0.00000000</v>
   <i name="OFIELD_Q6_NEAR">      0.00000000</i>
   <i name="OFIELD_Q6_FAR">      0.00000000</i>
   <i name="OFIELD_A">      0.00000000</i>
  </separator>
 </parameters>
 <atominfo>
  <atoms>       8 </atoms>
  <types>       2 </types>
  <array name="atoms" >
   <dimension dim="1">ion</dimension>
   <field type="string">element</field>
   <field type="int">atomtype</field>
   <set>
    <rc><c>Sn</c><c>   1</c></rc>
    <rc><c>Sn</c><c>   1</c></rc>
    <rc><c>Sn</c><c>   1</c></rc>
    <rc><c>Sn</c><c>   1</c></rc>
    <rc><c>Se</c><c>   2</c></rc>
    <rc><c>Se</c><c>   2</c></rc>
    <rc><c>Se</c><c>   2</c></rc>
    <rc><c>Se</c><c>   2</c></rc>
   </set>
  </array>
  <array name="atomtypes" >
   <dimension dim="1">type</dimension>
   <field type="int">atomspertype</field>
   <field type="string">element</field>
   <field>mass</field>
   <field>valence</field>
   <field type="string">pseudopotential</field>
   <set>
    <rc><c>   4</c><c>Sn</c><c>    118.71000000</c><c>     14.00000000</c><c>  PAW_PBE Sn_d 06Sep2000                </c></rc>
    <rc><c>   4</c><c>Se</c><c>     78.96000000</c><c>      6.00000000</c><c>  PAW_PBE Se 06Sep2000                  </c></rc>
   </set>
  </array>
 </atominfo>
 <structure name="initialpos" >
  <crystal>
   <varray name="basis" >
    <v>       4.34539863       0.00000000       0.00000000 </v>
    <v>       0.00000000       4.11936655       0.00000000 </v>
    <v>       0.00000000       0.00000000      11.35478920 </v>
   </varray>
   <i name="volume">    203.25401695 </i>
   <varray name="rec_basis" >
    <v>       0.23012848       0.00000000       0.00000000 </v>
    <v>       0.00000000       0.24275577       0.00000000 </v>
    <v>       0.00000000       0.00000000       0.08806857 </v>
   </varray>
  </crystal>
  <varray name="positions" >
   <v>       0.09903631       0.25000000       0.11539711 </v>
   <v>       0.40096369       0.25000000       0.61539711 </v>
   <v>       0.59903631       0.75000000       0.38460289 </v>
   <v>       0.90096369       0.75000000       0.88460289 </v>
   <v>       0.02605052       0.25000000       0.35675466 </v>
   <v>       0.47394948       0.25000000       0.85675466 </v>
   <v>       0.52605052       0.75000000       0.14324534 </v>
   <v>       0.97394948       0.75000000       0.64324534 </v>
  </varray>
 </structure>
 <calculation>
  <scstep>
   <time name="dav">   11.20   10.33</time>
   <time name="total">   11.50   10.59</time>
   <energy>
    <i name="alphaZ">    217.43841536 </i>
    <i name="ewald">  -6082.73001148 </i>
    <i name="hartreedc">  -2322.10527955 </i>
    <i name="XCdc">    230.11260331 </i>
    <i name="pawpsdc">   7112.06264409 </i>
    <i name="pawaedc">  -7207.42447429 </i>
    <i name="eentropy">     -0.00026563 </i>
    <i name="bandstr">     43.09907166 </i>
    <i name="atom">   8598.20158228 </i>
    <i name="e_fr_energy">    588.65428574 </i>
    <i name="e_wo_entrp">    588.65455137 </i>
    <i name="e_0_energy">    588.65441855 </i>
   </energy>
  </scstep>
  <scstep>
   <time name="dav">    1.47    0.76</time>
   <time name="total">    1.47    0.76</time>
   <energy>
    <i name="e_fr_energy">     16.96692750 </i>
    <i name="e_wo_entrp">     16.96701192 </i>
    <i name="e_0_energy">     16.96696971 </i>
   </energy>
  </scstep>
  <scstep>
   <time name="dav">    2.16    1.21</time>
   <time name="total">    2.16    1.21</time>
   <energy>
    <i name="e_fr_energy">    -35.42228250 </i>
    <i name="e_wo_entrp">    -35.42228250 </i>
    <i name="e_0_energy">    -35.42228250 </i>
   </energy>
  </scstep>
  <scstep>
   <time name="dav">    1.79    0.90</time>
   <time name="total">    1.79    0.90</time>
   <energy>
    <i name="e_fr_energy">    -36.55516248 </i>
    <i name="e_wo_entrp">    -36.55516248 </i>
    <i name="e_0_energy">    -36.55516248 </i>
   </energy>
  </scstep>
  <scstep>
   <time name="dav">    2.36    1.18</time>
   <time name="total">    2.56    1.34</time>
   <energy>
    <i name="e_fr_energy">    -36.58365661 </i>
    <i name="e_wo_entrp">    -36.58365661 </i>
    <i name="e_0_energy">    -36.58365661 </i>
   </energy>
  </scstep>
  <scstep>
   <time name="dav">    2.17    1.09</time>
   <time name="total">    2.65    1.55</time>
   <energy>
    <i name="e_fr_energy">    -35.95367664 </i>
    <i name="e_wo_entrp">    -35.95367664 </i>
    <i name="e_0_energy">    -35.95367664 </i>
   </energy>
  </scstep>
  <scstep>
   <time name="dav">    2.27    1.14</time>
   <time name="total">    2.74    1.51</time>
   <energy>
    <i name="e_fr_energy">    -35.91907317 </i>
    <i name="e_wo_entrp">    -35.91907317 </i>
    <i name="e_0_energy">    -35.91907317 </i>
   </energy>
  </scstep>
  <scstep>
   <time name="dav">    1.60    0.81</time>
   <time name="total">    2.06    1.16</time>
   <energy>
    <i name="e_fr_energy">    -35.91399879 </i>
    <i name="e_wo_entrp">    -35.91399879 </i>
    <i name="e_0_energy">    -35.91399879 </i>
   </energy>
  </scstep>
  <scstep>
   <time name="dav">    2.08    1.05</time>
   <time name="total">    2.55    1.40</time>
   <energy>
    <i name="e_fr_energy">    -35.91403468 </i>
    <i name="e_wo_entrp">    -35.91403468 </i>
    <i name="e_0_energy">    -35.91403468 </i>
   </energy>
  </scstep>
  <scstep>
   <time name="dav">    1.66    0.83</time>
   <time name="total">    2.12    1.19</time>
   <energy>
    <i name="e_fr_energy">    -35.91403753 </i>
    <i name="e_wo_entrp">    -35.91403753 </i>
    <i name="e_0_energy">    -35.91403753 </i>
   </energy>
  </scstep>
  <scstep>
   <time name="dav">    2.11    1.06</time>
   <time name="total">    2.57    1.43</time>
   <energy>
    <i name="e_fr_energy">    -35.91405089 </i>
    <i name="e_wo_entrp">    -35.91405089 </i>
    <i name="e_0_energy">    -35.91405089 </i>
   </energy>
  </scstep>
  <scstep>
   <time name="dav">    1.77    0.89</time>
   <time name="total">    2.23    1.25</time>
   <energy>
    <i name="e_fr_energy">    -35.91404926 </i>
    <i name="e_wo_entrp">    -35.91404926 </i>
    <i name="e_0_energy">    -35.91404926 </i>
   </energy>
  </scstep>
  <scstep>
   <time name="dav">    2.25    1.13</time>
   <time name="total">    2.70    1.49</time>
   <energy>
    <i name="e_fr_energy">    -35.91404920 </i>
    <i name="e_wo_entrp">    -35.91404920 </i>
    <i name="e_0_energy">    -35.91404920 </i>
   </energy>
  </scstep>
  <scstep>
   <time name="dav">    1.82    0.91</time>
   <time name="total">    2.28    1.27</time>
   <energy>
    <i name="e_fr_energy">    -35.91404922 </i>
    <i name="e_wo_entrp">    -35.91404922 </i>
    <i name="e_0_energy">    -35.91404922 </i>
   </energy>
  </scstep>
  <scstep>
   <time name="dav">    1.86    0.93</time>
   <time name="total">    2.33    1.29</time>
   <energy>
    <i name="e_fr_energy">    -35.91404916 </i>
    <i name="e_wo_entrp">    -35.91404916 </i>
    <i name="e_0_energy">    -35.91404916 </i>
   </energy>
  </scstep>
  <scstep>
   <time name="dav">    1.36    0.71</time>
   <time name="total">    1.74    1.07</time>
   <energy>
    <i name="e_fr_energy">    -35.91404915 </i>
    <i name="e_wo_entrp">    -35.91404915 </i>
    <i name="e_0_energy">    -35.91404915 </i>
   </energy>
  </scstep>
  <scstep>
   <time name="dav">    1.48    0.74</time>
   <time name="total">    1.72    0.99</time>
   <energy>
    <i name="alphaZ">    217.43841536 </i>
    <i name="ewald">  -6082.73001148 </i>
    <i name="hartreedc">  -2303.85954569 </i>
    <i name="XCdc">    230.43065322 </i>
    <i name="pawpsdc">   8471.55177790 </i>
    <i name="pawaedc">  -8567.45039269 </i>
    <i name="eentropy">     -0.00000000 </i>
    <i name="bandstr">   -599.49652804 </i>
    <i name="atom">   8598.20158228 </i>
    <i name="e_fr_energy">    -35.91404915 </i>
    <i name="e_wo_entrp">    -35.91404915 </i>
    <i name="e_0_energy">    -35.91404915 </i>
   </energy>
  </scstep>
  <structure>
   <crystal>
    <varray name="basis" >
     <v>       4.34539863       0.00000000       0.00000000 </v>
     <v>       0.00000000       4.11936655       0.00000000 </v>
     <v>       0.00000000       0.00000000      11.35478920 </v>
    </varray>
    <i name="volume">    203.25401695 </i>
    <varray name="rec_basis" >
     <v>       0.23012848       0.00000000       0.00000000 </v>
     <v>       0.00000000       0.24275577       0.00000000 </v>
     <v>       0.00000000       0.00000000       0.08806857 </v>
    </varray>
   </crystal>
   <varray name="positions" >
    <v>       0.09903631       0.25000000       0.11539711 </v>
    <v>       0.40096369       0.25000000       0.61539711 </v>
    <v>       0.59903631       0.75000000       0.38460289 </v>
    <v>       0.90096369       0.75000000       0.88460289 </v>
    <v>       0.02605052       0.25000000       0.35675466 </v>
    <v>       0.47394948       0.25000000       0.85675466 </v>
    <v>       0.52605052       0.75000000       0.14324534 </v>
    <v>       0.97394948       0.75000000       0.64324534 </v>
   </varray>
  </structure>
  <varray name="forces" >
   <v>      -0.00771265       0.00000000       0.00377533 </v>
   <v>       0.00771265      -0.00000000       0.00377533 </v>
   <v>      -0.00771265      -0.00000000      -0.00377533 </v>
   <v>       0.00771265       0.00000000      -0.00377533 </v>
   <v>      -0.00353486       0.00000000      -0.00285365 </v>
   <v>       0.00353486      -0.00000000      -0.00285365 </v>
   <v>      -0.00353486      -0.00000000       0.00285365 </v>
   <v>       0.00353486      -0.00000000       0.00285365 </v>
  </varray>
  <varray name="stress" >
   <v>       0.00288988       0.00000000       0.00000000 </v>
   <v>      -0.00000000       0.03019178       0.00000000 </v>
   <v>       0.00000000       0.00000000      -0.51465417 </v>
  </varray>
  <scstep>
   <time name="total">    1.02    0.52</time>
   <energy>
    <i name="e_fr_energy">   -132.59256813 </i>
    <i name="e_wo_entrp">   -132.59256813 </i>
    <i name="e_0_energy">   -132.59256813 </i>
   </energy>
  </scstep>
  <scstep>
   <time name="total">    1.29    0.67</time>
   <energy>
    <i name="e_fr_energy">   -259.13329397 </i>
    <i name="e_wo_entrp">   -259.13329397 </i>
    <i name="e_0_energy">   -259.13329397 </i>
   </energy>
  </scstep>
  <scstep>
   <time name="total">    1.32    0.70</time>
   <energy>
    <i name="e_fr_energy">   -259.94464895 </i>
    <i name="e_wo_entrp">   -259.94464895 </i>
    <i name="e_0_energy">   -259.94464895 </i>
   </energy>
  </scstep>
  <scstep>
   <time name="total">    1.11    0.59</time>
   <energy>
    <i name="e_fr_energy">   -260.10190802 </i>
    <i name="e_wo_entrp">   -260.10190802 </i>
    <i name="e_0_energy">   -260.10190802 </i>
   </energy>
  </scstep>
  <scstep>
   <time name="total">    1.13    0.60</time>
   <energy>
    <i name="e_fr_energy">   -260.10548629 </i>
    <i name="e_wo_entrp">   -260.10548629 </i>
    <i name="e_0_energy">   -260.10548629 </i>
   </energy>
  </scstep>
  <scstep>
   <time name="total">    1.13    0.60</time>
   <energy>
    <i name="e_fr_energy">   -260.10775256 </i>
    <i name="e_wo_entrp">   -260.10775256 </i>
    <i name="e_0_energy">   -260.10775256 </i>
   </energy>
  </scstep>
  <scstep>
   <time name="total">    1.20    0.60</time>
   <energy>
    <i name="e_fr_energy">   -260.10793094 </i>
    <i name="e_wo_entrp">   -260.10793094 </i>
    <i name="e_0_energy">   -260.10793094 </i>
   </energy>
  </scstep>
  <scstep>
   <time name="total">    1.24    0.62</time>
   <energy>
    <i name="e_fr_energy">   -260.10794949 </i>
    <i name="e_wo_entrp">   -260.10794949 </i>
    <i name="e_0_energy">   -260.10794949 </i>
   </energy>
  </scstep>
  <scstep>
   <time name="total">    1.22    0.61</time>
   <energy>
    <i name="e_fr_energy">   -260.10794217 </i>
    <i name="e_wo_entrp">   -260.10794217 </i>
    <i name="e_0_energy">   -260.10794217 </i>
   </energy>
  </scstep>
  <scstep>
   <time name="total">    1.21    0.60</time>
   <energy>
    <i name="e_fr_energy">   -260.10794874 </i>
    <i name="e_wo_entrp">   -260.10794874 </i>
    <i name="e_0_energy">   -260.10794874 </i>
   </energy>
  </scstep>
  <scstep>
   <time name="total">    1.22    0.62</time>
   <energy>
    <i name="e_fr_energy">   -260.10794036 </i>
    <i name="e_wo_entrp">   -260.10794036 </i>
    <i name="e_0_energy">   -260.10794036 </i>
   </energy>
  </scstep>
  <scstep>
   <time name="total">    1.17    0.59</time>
   <energy>
    <i name="e_fr_energy">   -260.10794130 </i>
    <i name="e_wo_entrp">   -260.10794130 </i>
    <i name="e_0_energy">   -260.10794130 </i>
   </energy>
  </scstep>
  <scstep>
   <time name="total">    1.13    0.56</time>
   <energy>
    <i name="e_fr_energy">   -260.10794191 </i>
    <i name="e_wo_entrp">   -260.10794191 </i>
    <i name="e_0_energy">   -260.10794191 </i>
   </energy>
  </scstep>
  <scstep>
   <time name="total">    0.95    0.48</time>
   <energy>
    <i name="e_fr_energy">   -129.99575358 </i>
    <i name="e_wo_entrp">   -129.99575358 </i>
    <i name="e_0_energy">   -129.99575358 </i>
   </energy>
  </scstep>
  <scstep>
   <time name="total">    1.29    0.65</time>
   <energy>
    <i name="e_fr_energy">   -258.99379360 </i>
    <i name="e_wo_entrp">   -258.99379360 </i>
    <i name="e_0_energy">   -258.99379360 </i>
   </energy>
  </scstep>
  <scstep>
   <time name="total">    1.31    0.69</time>
   <energy>
    <i name="e_fr_energy">   -259.81818256 </i>
    <i name="e_wo_entrp">   -259.81818256 </i>
    <i name="e_0_energy">   -259.81818256 </i>
   </energy>
  </scstep>
  <scstep>
   <time name="total">    1.08    0.57</time>
   <energy>
    <i name="e_fr_energy">   -259.95530862 </i>
    <i name="e_wo_entrp">   -259.95530862 </i>
    <i name="e_0_energy">   -259.95530862 </i>
   </energy>
  </scstep>
  <scstep>
   <time name="total">    1.13    0.58</time>
   <energy>
    <i name="e_fr_energy">   -259.96624200 </i>
    <i name="e_wo_entrp">   -259.96624200 </i>
    <i name="e_0_energy">   -259.96624200 </i>
   </energy>
  </scstep>
  <scstep>
   <time name="total">    1.16    0.60</time>
   <energy>
    <i name="e_fr_energy">   -259.96955839 </i>
    <i name="e_wo_entrp">   -259.96955839 </i>
    <i name="e_0_energy">   -259.96955839 </i>
   </energy>
  </scstep>
  <scstep>
   <time name="total">    1.21    0.61</time>
   <energy>
    <i name="e_fr_energy">   -259.96955604 </i>
    <i name="e_wo_entrp">   -259.96955604 </i>
    <i name="e_0_energy">   -259.96955604 </i>
   </energy>
  </scstep>
  <scstep>
   <time name="total">    1.24    0.62</time>
   <energy>
    <i name="e_fr_energy">   -259.96954766 </i>
    <i name="e_wo_entrp">   -259.96954766 </i>
    <i name="e_0_energy">   -259.96954766 </i>
   </energy>
  </scstep>
  <scstep>
   <time name="total">    1.20    0.60</time>
   <energy>
    <i name="e_fr_energy">   -259.96952520 </i>
    <i name="e_wo_entrp">   -259.96952520 </i>
    <i name="e_0_energy">   -259.96952520 </i>
   </energy>
  </scstep>
  <scstep>
   <time name="total">    1.32    0.68</time>
   <energy>
    <i name="e_fr_energy">   -259.96957330 </i>
    <i name="e_wo_entrp">   -259.96957330 </i>
    <i name="e_0_energy">   -259.96957330 </i>
   </energy>
  </scstep>
  <scstep>
   <time name="total">    1.15    0.58</time>
   <energy>
    <i name="e_fr_energy">   -259.96953433 </i>
    <i name="e_wo_entrp">   -259.96953433 </i>
    <i name="e_0_energy">   -259.96953433 </i>
   </energy>
  </scstep>
  <scstep>
   <time name="total">    1.12    0.56</time>
   <energy>
    <i name="e_fr_energy">   -259.96955869 </i>
    <i name="e_wo_entrp">   -259.96955869 </i>
    <i name="e_0_energy">   -259.96955869 </i>
   </energy>
  </scstep>
  <scstep>
   <time name="total">    1.10    0.55</time>
   <energy>
    <i name="e_fr_energy">   -259.96956350 </i>
    <i name="e_wo_entrp">   -259.96956350 </i>
    <i name="e_0_energy">   -259.96956350 </i>
   </energy>
  </scstep>
  <scstep>
   <time name="total">    0.93    0.47</time>
   <energy>
    <i name="e_fr_energy">   -129.19164587 </i>
    <i name="e_wo_entrp">   -129.19164587 </i>
    <i name="e_0_energy">   -129.19164587 </i>
   </energy>
  </scstep>
  <scstep>
   <time name="total">    1.30    0.66</time>
   <energy>
    <i name="e_fr_energy">   -263.66085308 </i>
    <i name="e_wo_entrp">   -263.66085308 </i>
    <i name="e_0_energy">   -263.66085308 </i>
   </energy>
  </scstep>
  <scstep>
   <time name="total">    1.27    0.68</time>
   <energy>
    <i name="e_fr_energy">   -264.68990519 </i>
    <i name="e_wo_entrp">   -264.68990519 </i>
    <i name="e_0_energy">   -264.68990519 </i>
   </energy>
  </scstep>
  <scstep>
   <time name="total">    1.11    0.58</time>
   <energy>
    <i name="e_fr_energy">   -264.98520282 </i>
    <i name="e_wo_entrp">   -264.98520282 </i>
    <i name="e_0_energy">   -264.98520282 </i>
   </energy>
  </scstep>
  <scstep>
   <time name="total">    1.12    0.60</time>
   <energy>
    <i name="e_fr_energy">   -264.98542497 </i>
    <i name="e_wo_entrp">   -264.98542497 </i>
    <i name="e_0_energy">   -264.98542497 </i>
   </energy>
  </scstep>
  <scstep>
   <time name="total">    1.17    0.59</time>
   <energy>
    <i name="e_fr_energy">   -264.98936651 </i>
    <i name="e_wo_entrp">   -264.98936651 </i>
    <i name="e_0_energy">   -264.98936651 </i>
   </energy>
  </scstep>
  <scstep>
   <time name="total">    1.21    0.61</time>
   <energy>
    <i name="e_fr_energy">   -264.98958968 </i>
    <i name="e_wo_entrp">   -264.98958968 </i>
    <i name="e_0_energy">   -264.98958968 </i>
   </energy>
  </scstep>
  <scstep>
   <time name="total">    1.24    0.62</time>
   <energy>
    <i name="e_fr_energy">   -264.98953684 </i>
    <i name="e_wo_entrp">   -264.98953684 </i>
    <i name="e_0_energy">   -264.98953684 </i>
   </energy>
  </scstep>
  <scstep>
   <time name="total">    1.22    0.61</time>
   <energy>
    <i name="e_fr_energy">   -264.98953848 </i>
    <i name="e_wo_entrp">   -264.98953848 </i>
    <i name="e_0_energy">   -264.98953848 </i>
   </energy>
  </scstep>
  <scstep>
   <time name="total">    1.21    0.60</time>
   <energy>
    <i name="e_fr_energy">   -264.98955023 </i>
    <i name="e_wo_entrp">   -264.98955023 </i>
    <i name="e_0_energy">   -264.98955023 </i>
   </energy>
  </scstep>
  <scstep>
   <time name="total">    1.18    0.60</time>
   <energy>
    <i name="e_fr_energy">   -264.98955287 </i>
    <i name="e_wo_entrp">   -264.98955287 </i>
    <i name="e_0_energy">   -264.98955287 </i>
   </energy>
  </scstep>
  <scstep>
   <time name="total">    1.10    0.55</time>
   <energy>
    <i name="e_fr_energy">   -264.98954344 </i>
    <i name="e_wo_entrp">   -264.98954344 </i>
    <i name="e_0_energy">   -264.98954344 </i>
   </energy>
  </scstep>
  <scstep>
   <time name="total">    1.12    0.56</time>
   <energy>
    <i name="e_fr_energy">   -264.98956661 </i>
    <i name="e_wo_entrp">   -264.98956661 </i>
    <i name="e_0_energy">   -264.98956661 </i>
   </energy>
  </scstep>
  <kpoints>
   <generation param="Gamma">
    <v type="int" name="divisions">       8        9        3 </v>
    <v name="usershift">      0.00000000       0.00000000       0.00000000 </v>
    <v name="genvec1">      0.12500000       0.00000000       0.00000000 </v>
    <v name="genvec2">      0.00000000       0.11111111       0.00000000 </v>
    <v name="genvec3">      0.00000000       0.00000000       0.33333333 </v>
    <v name="shift">      0.00000000       0.00000000       0.00000000 </v>
   </generation>
   <varray name="kpointlist" >
    <v>       0.00000000       0.00000000       0.00000000 </v>
    <v>       0.12500000       0.00000000       0.00000000 </v>
    <v>       0.25000000       0.00000000       0.00000000 </v>
    <v>       0.37500000       0.00000000       0.00000000 </v>
    <v>       0.50000000       0.00000000       0.00000000 </v>
    <v>       0.00000000       0.11111111       0.00000000 </v>
    <v>       0.12500000       0.11111111       0.00000000 </v>
    <v>       0.25000000       0.11111111       0.00000000 </v>
    <v>       0.37500000       0.11111111       0.00000000 </v>
    <v>       0.50000000       0.11111111       0.00000000 </v>
    <v>       0.00000000       0.22222222       0.00000000 </v>
    <v>       0.12500000       0.22222222       0.00000000 </v>
    <v>       0.25000000       0.22222222       0.00000000 </v>
    <v>       0.37500000       0.22222222       0.00000000 </v>
    <v>       0.50000000       0.22222222       0.00000000 </v>
    <v>       0.00000000       0.33333333       0.00000000 </v>
    <v>       0.12500000       0.33333333       0.00000000 </v>
    <v>       0.25000000       0.33333333       0.00000000 </v>
    <v>       0.37500000       0.33333333       0.00000000 </v>
    <v>       0.50000000       0.33333333       0.00000000 </v>
    <v>       0.00000000       0.44444444       0.00000000 </v>
    <v>       0.12500000       0.44444444       0.00000000 </v>
    <v>       0.25000000       0.44444444       0.00000000 </v>
    <v>       0.37500000       0.44444444       0.00000000 </v>
    <v>       0.50000000       0.44444444       0.00000000 </v>
    <v>       0.00000000       0.00000000       0.33333333 </v>
    <v>       0.12500000       0.00000000       0.33333333 </v>
    <v>       0.25000000       0.00000000       0.33333333 </v>
    <v>       0.37500000       0.00000000       0.33333333 </v>
    <v>       0.50000000       0.00000000       0.33333333 </v>
    <v>       0.00000000       0.11111111       0.33333333 </v>
    <v>       0.12500000       0.11111111       0.33333333 </v>
    <v>       0.25000000       0.11111111       0.33333333 </v>
    <v>       0.37500000       0.11111111       0.33333333 </v>
    <v>       0.50000000       0.11111111       0.33333333 </v>
    <v>       0.00000000       0.22222222       0.33333333 </v>
    <v>       0.12500000       0.22222222       0.33333333 </v>
    <v>       0.25000000       0.22222222       0.33333333 </v>
    <v>       0.37500000       0.22222222       0.33333333 </v>
    <v>       0.50000000       0.22222222       0.33333333 </v>
    <v>       0.00000000       0.33333333       0.33333333 </v>
    <v>       0.12500000       0.33333333       0.33333333 </v>
    <v>       0.25000000       0.33333333       0.33333333 </v>
    <v>       0.37500000       0.33333333       0.33333333 </v>
    <v>       0.50000000       0.33333333       0.33333333 </v>
    <v>       0.00000000       0.44444444       0.33333333 </v>
    <v>       0.12500000       0.44444444       0.33333333 </v>
    <v>       0.25000000       0.44444444       0.33333333 </v>
    <v>       0.37500000       0.44444444       0.33333333 </v>
    <v>       0.50000000       0.44444444       0.33333333 </v>
   </varray>
   <varray name="weights" >
    <v>       0.00462963 </v>
    <v>       0.00925926 </v>
    <v>       0.00925926 </v>
    <v>       0.00925926 </v>
    <v>       0.00462963 </v>
    <v>       0.00925926 </v>
    <v>       0.01851852 </v>
    <v>       0.01851852 </v>
    <v>       0.01851852 </v>
    <v>       0.00925926 </v>
    <v>       0.00925926 </v>
    <v>       0.01851852 </v>
    <v>       0.01851852 </v>
    <v>       0.01851852 </v>
    <v>       0.00925926 </v>
    <v>       0.00925926 </v>
    <v>       0.01851852 </v>
    <v>       0.01851852 </v>
    <v>       0.01851852 </v>
    <v>       0.00925926 </v>
    <v>       0.00925926 </v>
    <v>       0.01851852 </v>
    <v>       0.01851852 </v>
    <v>       0.01851852 </v>
    <v>       0.00925926 </v>
    <v>       0.00925926 </v>
    <v>       0.01851852 </v>
    <v>       0.01851852 </v>
    <v>       0.01851852 </v>
    <v>       0.00925926 </v>
    <v>       0.01851852 </v>
    <v>       0.03703704 </v>
    <v>       0.03703704 </v>
    <v>       0.03703704 </v>
    <v>       0.01851852 </v>
    <v>       0.01851852 </v>
    <v>       0.03703704 </v>
    <v>       0.03703704 </v>
    <v>       0.03703704 </v>
    <v>       0.01851852 </v>
    <v>       0.01851852 </v>
    <v>       0.03703704 </v>
    <v>       0.03703704 </v>
    <v>       0.03703704 </v>
    <v>       0.01851852 </v>
    <v>       0.01851852 </v>
    <v>       0.03703704 </v>
    <v>       0.03703704 </v>
    <v>       0.03703704 </v>
    <v>       0.01851852 </v>
   </varray>
  </kpoints>
  <scstep>
   <time name="total">    1.59    1.09</time>
   <energy>
    <i name="e_fr_energy">     -2.24482615 </i>
    <i name="e_wo_entrp">     -2.24482615 </i>
    <i name="e_0_energy">     -2.24482615 </i>
   </energy>
  </scstep>
  <scstep>
   <time name="total">    2.26    1.39</time>
   <energy>
    <i name="e_fr_energy">    -13.86925377 </i>
    <i name="e_wo_entrp">    -13.86925377 </i>
    <i name="e_0_energy">    -13.86925377 </i>
   </energy>
  </scstep>
  <scstep>
   <time name="total">    2.17    1.39</time>
   <energy>
    <i name="e_fr_energy">    -13.34546608 </i>
    <i name="e_wo_entrp">    -13.34546608 </i>
    <i name="e_0_energy">    -13.34546608 </i>
   </energy>
  </scstep>
  <scstep>
   <time name="total">    2.17    1.39</time>
   <energy>
    <i name="e_fr_energy">    -13.51072728 </i>
    <i name="e_wo_entrp">    -13.51072728 </i>
    <i name="e_0_energy">    -13.51072728 </i>
   </energy>
  </scstep>
  <scstep>
   <time name="total">    2.16    1.40</time>
   <energy>
    <i name="e_fr_energy">    -13.71606101 </i>
    <i name="e_wo_entrp">    -13.71606101 </i>
    <i name="e_0_energy">    -13.71606101 </i>
   </energy>
  </scstep>
  <scstep>
   <time name="total">    2.21    1.39</time>
   <energy>
    <i name="e_fr_energy">    -13.76942665 </i>
    <i name="e_wo_entrp">    -13.76942665 </i>
    <i name="e_0_energy">    -13.76942665 </i>
   </energy>
  </scstep>
  <scstep>
   <time name="total">    2.24    1.40</time>
   <energy>
    <i name="e_fr_energy">    -13.77776715 </i>
    <i name="e_wo_entrp">    -13.77776715 </i>
    <i name="e_0_energy">    -13.77776715 </i>
   </energy>
  </scstep>
  <scstep>
   <time name="total">    2.22    1.40</time>
   <energy>
    <i name="e_fr_energy">    -13.77618014 </i>
    <i name="e_wo_entrp">    -13.77618014 </i>
    <i name="e_0_energy">    -13.77618014 </i>
   </energy>
  </scstep>
  <scstep>
   <time name="total">    2.31    1.44</time>
   <energy>
    <i name="e_fr_energy">    -13.78536165 </i>
    <i name="e_wo_entrp">    -13.78536165 </i>
    <i name="e_0_energy">    -13.78536165 </i>
   </energy>
  </scstep>
  <scstep>
   <time name="total">    2.25    1.41</time>
   <energy>
    <i name="e_fr_energy">    -13.77728951 </i>
    <i name="e_wo_entrp">    -13.77728951 </i>
    <i name="e_0_energy">    -13.77728951 </i>
   </energy>
  </scstep>
  <scstep>
   <time name="total">    2.24    1.40</time>
   <energy>
    <i name="e_fr_energy">    -13.78191613 </i>
    <i name="e_wo_entrp">    -13.78191613 </i>
    <i name="e_0_energy">    -13.78191613 </i>
   </energy>
  </scstep>
  <scstep>
   <time name="total">    2.25    1.41</time>
   <energy>
    <i name="e_fr_energy">    -13.78236776 </i>
    <i name="e_wo_entrp">    -13.78236776 </i>
    <i name="e_0_energy">    -13.78236776 </i>
   </energy>
  </scstep>
  <scstep>
   <time name="total">    2.25    1.41</time>
   <energy>
    <i name="e_fr_energy">    -13.78158673 </i>
    <i name="e_wo_entrp">    -13.78158673 </i>
    <i name="e_0_energy">    -13.78158673 </i>
   </energy>
  </scstep>
  <scstep>
   <time name="total">    2.16    1.36</time>
   <energy>
    <i name="e_fr_energy">    -13.78258557 </i>
    <i name="e_wo_entrp">    -13.78258557 </i>
    <i name="e_0_energy">    -13.78258557 </i>
   </energy>
  </scstep>
  <scstep>
   <time name="total">    2.17    1.37</time>
   <energy>
    <i name="e_fr_energy">    -13.77968497 </i>
    <i name="e_wo_entrp">    -13.77968497 </i>
    <i name="e_0_energy">    -13.77968497 </i>
   </energy>
  </scstep>
  <scstep>
   <time name="total">    2.12    1.34</time>
   <energy>
    <i name="e_fr_energy">    -13.78450984 </i>
    <i name="e_wo_entrp">    -13.78450984 </i>
    <i name="e_0_energy">    -13.78450984 </i>
   </energy>
  </scstep>
  <scstep>
   <time name="total">    2.10    1.33</time>
   <energy>
    <i name="e_fr_energy">    -13.78291659 </i>
    <i name="e_wo_entrp">    -13.78291659 </i>
    <i name="e_0_energy">    -13.78291659 </i>
   </energy>
  </scstep>
  <scstep>
   <time name="total">    2.08    1.32</time>
   <energy>
    <i name="e_fr_energy">    -13.78373849 </i>
    <i name="e_wo_entrp">    -13.78373849 </i>
    <i name="e_0_energy">    -13.78373849 </i>
   </energy>
  </scstep>
  <scstep>
   <time name="total">    2.08    1.32</time>
   <energy>
    <i name="e_fr_energy">    -13.78214376 </i>
    <i name="e_wo_entrp">    -13.78214376 </i>
    <i name="e_0_energy">    -13.78214376 </i>
   </energy>
  </scstep>
  <scstep>
   <time name="total">    2.07    1.32</time>
   <energy>
    <i name="e_fr_energy">    -13.78238820 </i>
    <i name="e_wo_entrp">    -13.78238820 </i>
    <i name="e_0_energy">    -13.78238820 </i>
   </energy>
  </scstep>
  <scstep>
   <time name="total">    2.10    1.33</time>
   <energy>
    <i name="e_fr_energy">    -13.78082025 </i>
    <i name="e_wo_entrp">    -13.78082025 </i>
    <i name="e_0_energy">    -13.78082025 </i>
   </energy>
  </scstep>
  <kpoints>
   <generation param="Gamma">
    <v type="int" name="divisions">       8        9        3 </v>
    <v name="usershift">      0.00000000       0.00000000       0.00000000 </v>
    <v name="genvec1">      0.12500000       0.00000000       0.00000000 </v>
    <v name="genvec2">      0.00000000       0.11111111       0.00000000 </v>
    <v name="genvec3">      0.00000000       0.00000000       0.33333333 </v>
    <v name="shift">      0.00000000       0.00000000       0.00000000 </v>
   </generation>
   <varray name="kpointlist" >
    <v>       0.00000000       0.00000000       0.00000000 </v>
    <v>       0.12500000       0.00000000       0.00000000 </v>
    <v>       0.25000000       0.00000000       0.00000000 </v>
    <v>       0.37500000       0.00000000       0.00000000 </v>
    <v>       0.50000000       0.00000000       0.00000000 </v>
    <v>       0.00000000       0.11111111       0.00000000 </v>
    <v>       0.12500000       0.11111111       0.00000000 </v>
    <v>       0.25000000       0.11111111       0.00000000 </v>
    <v>       0.37500000       0.11111111       0.00000000 </v>
    <v>       0.50000000       0.11111111       0.00000000 </v>
    <v>       0.00000000       0.22222222       0.00000000 </v>
    <v>       0.12500000       0.22222222       0.00000000 </v>
    <v>       0.25000000       0.22222222       0.00000000 </v>
    <v>       0.37500000       0.22222222       0.00000000 </v>
    <v>       0.50000000       0.22222222       0.00000000 </v>
    <v>       0.00000000       0.33333333       0.00000000 </v>
    <v>       0.12500000       0.33333333       0.00000000 </v>
    <v>       0.25000000       0.33333333       0.00000000 </v>
    <v>       0.37500000       0.33333333       0.00000000 </v>
    <v>       0.50000000       0.33333333       0.00000000 </v>
    <v>       0.00000000       0.44444444       0.00000000 </v>
    <v>       0.12500000       0.44444444       0.00000000 </v>
    <v>       0.25000000       0.44444444       0.00000000 </v>
    <v>       0.37500000       0.44444444       0.00000000 </v>
    <v>       0.50000000       0.44444444       0.00000000 </v>
    <v>       0.00000000       0.00000000       0.33333333 </v>
    <v>       0.12500000       0.00000000       0.33333333 </v>
    <v>       0.25000000       0.00000000       0.33333333 </v>
    <v>       0.37500000       0.00000000       0.33333333 </v>
    <v>       0.50000000       0.00000000       0.33333333 </v>
    <v>       0.00000000       0.11111111       0.33333333 </v>
    <v>       0.12500000       0.11111111       0.33333333 </v>
    <v>       0.25000000       0.11111111       0.33333333 </v>
    <v>       0.37500000       0.11111111       0.33333333 </v>
    <v>       0.50000000       0.11111111       0.33333333 </v>
    <v>       0.00000000       0.22222222       0.33333333 </v>
    <v>       0.12500000       0.22222222       0.33333333 </v>
    <v>       0.25000000       0.22222222       0.33333333 </v>
    <v>       0.37500000       0.22222222       0.33333333 </v>
    <v>       0.50000000       0.22222222       0.33333333 </v>
    <v>       0.00000000       0.33333333       0.33333333 </v>
    <v>       0.12500000       0.33333333       0.33333333 </v>
    <v>       0.25000000       0.33333333       0.33333333 </v>
    <v>       0.37500000       0.33333333       0.33333333 </v>
    <v>       0.50000000       0.33333333       0.33333333 </v>
    <v>       0.00000000       0.44444444       0.33333333 </v>
    <v>       0.12500000       0.44444444       0.33333333 </v>
    <v>       0.25000000       0.44444444       0.33333333 </v>
    <v>       0.37500000       0.44444444       0.33333333 </v>
    <v>       0.50000000       0.44444444       0.33333333 </v>
   </varray>
   <varray name="weights" >
    <v>       0.00462963 </v>
    <v>       0.00925926 </v>
    <v>       0.00925926 </v>
    <v>       0.00925926 </v>
    <v>       0.00462963 </v>
    <v>       0.00925926 </v>
    <v>       0.01851852 </v>
    <v>       0.01851852 </v>
    <v>       0.01851852 </v>
    <v>       0.00925926 </v>
    <v>       0.00925926 </v>
    <v>       0.01851852 </v>
    <v>       0.01851852 </v>
    <v>       0.01851852 </v>
    <v>       0.00925926 </v>
    <v>       0.00925926 </v>
    <v>       0.01851852 </v>
    <v>       0.01851852 </v>
    <v>       0.01851852 </v>
    <v>       0.00925926 </v>
    <v>       0.00925926 </v>
    <v>       0.01851852 </v>
    <v>       0.01851852 </v>
    <v>       0.01851852 </v>
    <v>       0.00925926 </v>
    <v>       0.00925926 </v>
    <v>       0.01851852 </v>
    <v>       0.01851852 </v>
    <v>       0.01851852 </v>
    <v>       0.00925926 </v>
    <v>       0.01851852 </v>
    <v>       0.03703704 </v>
    <v>       0.03703704 </v>
    <v>       0.03703704 </v>
    <v>       0.01851852 </v>
    <v>       0.01851852 </v>
    <v>       0.03703704 </v>
    <v>       0.03703704 </v>
    <v>       0.03703704 </v>
    <v>       0.01851852 </v>
    <v>       0.01851852 </v>
    <v>       0.03703704 </v>
    <v>       0.03703704 </v>
    <v>       0.03703704 </v>
    <v>       0.01851852 </v>
    <v>       0.01851852 </v>
    <v>       0.03703704 </v>
    <v>       0.03703704 </v>
    <v>       0.03703704 </v>
    <v>       0.01851852 </v>
   </varray>
  </kpoints>
  <scstep>
   <time name="total">    1.57    1.06</time>
   <energy>
    <i name="e_fr_energy">     -3.84839109 </i>
    <i name="e_wo_entrp">     -3.84839109 </i>
    <i name="e_0_energy">     -3.84839109 </i>
   </energy>
  </scstep>
  <scstep>
   <time name="total">    2.26    1.38</time>
   <energy>
    <i name="e_fr_energy">    -16.77419239 </i>
    <i name="e_wo_entrp">    -16.77419239 </i>
    <i name="e_0_energy">    -16.77419239 </i>
   </energy>
  </scstep>
  <scstep>
   <time name="total">    2.09    1.34</time>
   <energy>
    <i name="e_fr_energy">    -16.48913741 </i>
    <i name="e_wo_entrp">    -16.48913741 </i>
    <i name="e_0_energy">    -16.48913741 </i>
   </energy>
  </scstep>
  <scstep>
   <time name="total">    2.10    1.34</time>
   <energy>
    <i name="e_fr_energy">    -16.90359954 </i>
    <i name="e_wo_entrp">    -16.90359954 </i>
    <i name="e_0_energy">    -16.90359954 </i>
   </energy>
  </scstep>
  <scstep>
   <time name="total">    2.13    1.37</time>
   <energy>
    <i name="e_fr_energy">    -17.01463596 </i>
    <i name="e_wo_entrp">    -17.01463596 </i>
    <i name="e_0_energy">    -17.01463596 </i>
   </energy>
  </scstep>
  <scstep>
   <time name="total">    2.23    1.39</time>
   <energy>
    <i name="e_fr_energy">    -17.03417871 </i>
    <i name="e_wo_entrp">    -17.03417871 </i>
    <i name="e_0_energy">    -17.03417871 </i>
   </energy>
  </scstep>
  <scstep>
   <time name="total">    2.19    1.37</time>
   <energy>
    <i name="e_fr_energy">    -17.03293326 </i>
    <i name="e_wo_entrp">    -17.03293326 </i>
    <i name="e_0_energy">    -17.03293326 </i>
   </energy>
  </scstep>
  <scstep>
   <time name="total">    2.27    1.41</time>
   <energy>
    <i name="e_fr_energy">    -17.03705339 </i>
    <i name="e_wo_entrp">    -17.03705339 </i>
    <i name="e_0_energy">    -17.03705339 </i>
   </energy>
  </scstep>
  <scstep>
   <time name="total">    2.23    1.39</time>
   <energy>
    <i name="e_fr_energy">    -17.03550643 </i>
    <i name="e_wo_entrp">    -17.03550643 </i>
    <i name="e_0_energy">    -17.03550643 </i>
   </energy>
  </scstep>
  <scstep>
   <time name="total">    2.28    1.41</time>
   <energy>
    <i name="e_fr_energy">    -17.03741659 </i>
    <i name="e_wo_entrp">    -17.03741659 </i>
    <i name="e_0_energy">    -17.03741659 </i>
   </energy>
  </scstep>
  <scstep>
   <time name="total">    2.28    1.41</time>
   <energy>
    <i name="e_fr_energy">    -17.03451839 </i>
    <i name="e_wo_entrp">    -17.03451839 </i>
    <i name="e_0_energy">    -17.03451839 </i>
   </energy>
  </scstep>
  <scstep>
   <time name="total">    2.26    1.40</time>
   <energy>
    <i name="e_fr_energy">    -17.03537718 </i>
    <i name="e_wo_entrp">    -17.03537718 </i>
    <i name="e_0_energy">    -17.03537718 </i>
   </energy>
  </scstep>
  <scstep>
   <time name="total">    2.26    1.40</time>
   <energy>
    <i name="e_fr_energy">    -17.03602909 </i>
    <i name="e_wo_entrp">    -17.03602909 </i>
    <i name="e_0_energy">    -17.03602909 </i>
   </energy>
  </scstep>
  <scstep>
   <time name="total">    2.17    1.35</time>
   <energy>
    <i name="e_fr_energy">    -17.03588138 </i>
    <i name="e_wo_entrp">    -17.03588138 </i>
    <i name="e_0_energy">    -17.03588138 </i>
   </energy>
  </scstep>
  <scstep>
   <time name="total">    2.11    1.33</time>
   <energy>
    <i name="e_fr_energy">    -17.03590599 </i>
    <i name="e_wo_entrp">    -17.03590599 </i>
    <i name="e_0_energy">    -17.03590599 </i>
   </energy>
  </scstep>
  <scstep>
   <time name="total">    2.12    1.33</time>
   <energy>
    <i name="e_fr_energy">    -17.03653371 </i>
    <i name="e_wo_entrp">    -17.03653371 </i>
    <i name="e_0_energy">    -17.03653371 </i>
   </energy>
  </scstep>
  <scstep>
   <time name="total">    2.09    1.32</time>
   <energy>
    <i name="e_fr_energy">    -17.03529346 </i>
    <i name="e_wo_entrp">    -17.03529346 </i>
    <i name="e_0_energy">    -17.03529346 </i>
   </energy>
  </scstep>
  <scstep>
   <time name="total">    2.10    1.32</time>
   <energy>
    <i name="e_fr_energy">    -17.03507932 </i>
    <i name="e_wo_entrp">    -17.03507932 </i>
    <i name="e_0_energy">    -17.03507932 </i>
   </energy>
  </scstep>
  <scstep>
   <time name="total">    2.11    1.33</time>
   <energy>
    <i name="e_fr_energy">    -17.03643672 </i>
    <i name="e_wo_entrp">    -17.03643672 </i>
    <i name="e_0_energy">    -17.03643672 </i>
   </energy>
  </scstep>
  <scstep>
   <time name="total">    2.08    1.31</time>
   <energy>
    <i name="e_fr_energy">    -17.03633337 </i>
    <i name="e_wo_entrp">    -17.03633337 </i>
    <i name="e_0_energy">    -17.03633337 </i>
   </energy>
  </scstep>
  <scstep>
   <time name="total">    2.08    1.31</time>
   <energy>
    <i name="e_fr_energy">    -17.03632191 </i>
    <i name="e_wo_entrp">    -17.03632191 </i>
    <i name="e_0_energy">    -17.03632191 </i>
   </energy>
  </scstep>
  <scstep>
   <time name="total">    2.08    1.31</time>
   <energy>
    <i name="e_fr_energy">    -17.03556761 </i>
    <i name="e_wo_entrp">    -17.03556761 </i>
    <i name="e_0_energy">    -17.03556761 </i>
   </energy>
  </scstep>
  <scstep>
   <time name="total">    2.08    1.31</time>
   <energy>
    <i name="e_fr_energy">    -17.03601142 </i>
    <i name="e_wo_entrp">    -17.03601142 </i>
    <i name="e_0_energy">    -17.03601142 </i>
   </energy>
  </scstep>
  <scstep>
   <time name="total">    2.09    1.32</time>
   <energy>
    <i name="e_fr_energy">    -17.03638839 </i>
    <i name="e_wo_entrp">    -17.03638839 </i>
    <i name="e_0_energy">    -17.03638839 </i>
   </energy>
  </scstep>
  <scstep>
   <time name="total">    2.09    1.31</time>
   <energy>
    <i name="e_fr_energy">    -17.03626946 </i>
    <i name="e_wo_entrp">    -17.03626946 </i>
    <i name="e_0_energy">    -17.03626946 </i>
   </energy>
  </scstep>
  <scstep>
   <time name="total">    2.07    1.31</time>
   <energy>
    <i name="e_fr_energy">    -17.03650948 </i>
    <i name="e_wo_entrp">    -17.03650948 </i>
    <i name="e_0_energy">    -17.03650948 </i>
   </energy>
  </scstep>
  <scstep>
   <time name="total">    2.09    1.32</time>
   <energy>
    <i name="e_fr_energy">    -17.03618732 </i>
    <i name="e_wo_entrp">    -17.03618732 </i>
    <i name="e_0_energy">    -17.03618732 </i>
   </energy>
  </scstep>
  <scstep>
   <time name="total">    2.08    1.31</time>
   <energy>
    <i name="e_fr_energy">    -17.03656818 </i>
    <i name="e_wo_entrp">    -17.03656818 </i>
    <i name="e_0_energy">    -17.03656818 </i>
   </energy>
  </scstep>
  <scstep>
   <time name="total">    2.13    1.34</time>
   <energy>
    <i name="e_fr_energy">    -17.03737465 </i>
    <i name="e_wo_entrp">    -17.03737465 </i>
    <i name="e_0_energy">    -17.03737465 </i>
   </energy>
  </scstep>
  <scstep>
   <time name="total">    2.09    1.32</time>
   <energy>
    <i name="e_fr_energy">    -17.03630437 </i>
    <i name="e_wo_entrp">    -17.03630437 </i>
    <i name="e_0_energy">    -17.03630437 </i>
   </energy>
  </scstep>
  <scstep>
   <time name="total">    2.10    1.32</time>
   <energy>
    <i name="e_fr_energy">    -17.03646233 </i>
    <i name="e_wo_entrp">    -17.03646233 </i>
    <i name="e_0_energy">    -17.03646233 </i>
   </energy>
  </scstep>
  <scstep>
   <time name="total">    2.14    1.34</time>
   <energy>
    <i name="e_fr_energy">    -17.03718425 </i>
    <i name="e_wo_entrp">    -17.03718425 </i>
    <i name="e_0_energy">    -17.03718425 </i>
   </energy>
  </scstep>
  <scstep>
   <time name="total">    2.13    1.34</time>
   <energy>
    <i name="e_fr_energy">    -17.03676375 </i>
    <i name="e_wo_entrp">    -17.03676375 </i>
    <i name="e_0_energy">    -17.03676375 </i>
   </energy>
  </scstep>
  <scstep>
   <time name="total">    2.11    1.33</time>
   <energy>
    <i name="e_fr_energy">    -17.03625190 </i>
    <i name="e_wo_entrp">    -17.03625190 </i>
    <i name="e_0_energy">    -17.03625190 </i>
   </energy>
  </scstep>
  <scstep>
   <time name="total">    2.11    1.33</time>
   <energy>
    <i name="e_fr_energy">    -17.03746362 </i>
    <i name="e_wo_entrp">    -17.03746362 </i>
    <i name="e_0_energy">    -17.03746362 </i>
   </energy>
  </scstep>
  <scstep>
   <time name="total">    2.13    1.34</time>
   <energy>
    <i name="e_fr_energy">    -17.03622777 </i>
    <i name="e_wo_entrp">    -17.03622777 </i>
    <i name="e_0_energy">    -17.03622777 </i>
   </energy>
  </scstep>
  <scstep>
   <time name="total">    2.11    1.33</time>
   <energy>
    <i name="e_fr_energy">    -17.03624615 </i>
    <i name="e_wo_entrp">    -17.03624615 </i>
    <i name="e_0_energy">    -17.03624615 </i>
   </energy>
  </scstep>
  <scstep>
   <time name="total">    2.14    1.34</time>
   <energy>
    <i name="e_fr_energy">    -17.03759637 </i>
    <i name="e_wo_entrp">    -17.03759637 </i>
    <i name="e_0_energy">    -17.03759637 </i>
   </energy>
  </scstep>
  <scstep>
   <time name="total">    2.13    1.34</time>
   <energy>
    <i name="e_fr_energy">    -17.03730756 </i>
    <i name="e_wo_entrp">    -17.03730756 </i>
    <i name="e_0_energy">    -17.03730756 </i>
   </energy>
  </scstep>
  <scstep>
   <time name="total">    2.14    1.34</time>
   <energy>
    <i name="e_fr_energy">    -17.03672334 </i>
    <i name="e_wo_entrp">    -17.03672334 </i>
    <i name="e_0_energy">    -17.03672334 </i>
   </energy>
  </scstep>
  <scstep>
   <time name="total">    2.13    1.34</time>
   <energy>
    <i name="e_fr_energy">    -17.03640636 </i>
    <i name="e_wo_entrp">    -17.03640636 </i>
    <i name="e_0_energy">    -17.03640636 </i>
   </energy>
  </scstep>
  <scstep>
   <time name="total">    2.15    1.35</time>
   <energy>
    <i name="e_fr_energy">    -17.03711422 </i>
    <i name="e_wo_entrp">    -17.03711422 </i>
    <i name="e_0_energy">    -17.03711422 </i>
   </energy>
  </scstep>
  <scstep>
   <time name="total">    2.14    1.34</time>
   <energy>
    <i name="e_fr_energy">    -17.03725577 </i>
    <i name="e_wo_entrp">    -17.03725577 </i>
    <i name="e_0_energy">    -17.03725577 </i>
   </energy>
  </scstep>
  <scstep>
   <time name="total">    2.12    1.34</time>
   <energy>
    <i name="e_fr_energy">    -17.03601263 </i>
    <i name="e_wo_entrp">    -17.03601263 </i>
    <i name="e_0_energy">    -17.03601263 </i>
   </energy>
  </scstep>
  <scstep>
   <time name="total">    2.14    1.34</time>
   <energy>
    <i name="e_fr_energy">    -17.03728798 </i>
    <i name="e_wo_entrp">    -17.03728798 </i>
    <i name="e_0_energy">    -17.03728798 </i>
   </energy>
  </scstep>
  <scstep>
   <time name="total">    2.14    1.34</time>
   <energy>
    <i name="e_fr_energy">    -17.03707708 </i>
    <i name="e_wo_entrp">    -17.03707708 </i>
    <i name="e_0_energy">    -17.03707708 </i>
   </energy>
  </scstep>
  <scstep>
   <time name="total">    2.12    1.33</time>
   <energy>
    <i name="e_fr_energy">    -17.03673051 </i>
    <i name="e_wo_entrp">    -17.03673051 </i>
    <i name="e_0_energy">    -17.03673051 </i>
   </energy>
  </scstep>
  <scstep>
   <time name="total">    2.15    1.35</time>
   <energy>
    <i name="e_fr_energy">    -17.03713694 </i>
    <i name="e_wo_entrp">    -17.03713694 </i>
    <i name="e_0_energy">    -17.03713694 </i>
   </energy>
  </scstep>
  <scstep>
   <time name="total">    2.12    1.33</time>
   <energy>
    <i name="e_fr_energy">    -17.03726887 </i>
    <i name="e_wo_entrp">    -17.03726887 </i>
    <i name="e_0_energy">    -17.03726887 </i>
   </energy>
  </scstep>
  <scstep>
   <time name="total">    2.13    1.34</time>
   <energy>
    <i name="e_fr_energy">    -17.03694226 </i>
    <i name="e_wo_entrp">    -17.03694226 </i>
    <i name="e_0_energy">    -17.03694226 </i>
   </energy>
  </scstep>
  <scstep>
   <time name="total">    2.12    1.34</time>
   <energy>
    <i name="e_fr_energy">    -17.03584119 </i>
    <i name="e_wo_entrp">    -17.03584119 </i>
    <i name="e_0_energy">    -17.03584119 </i>
   </energy>
  </scstep>
  <scstep>
   <time name="total">    2.14    1.34</time>
   <energy>
    <i name="e_fr_energy">    -17.03600779 </i>
    <i name="e_wo_entrp">    -17.03600779 </i>
    <i name="e_0_energy">    -17.03600779 </i>
   </energy>
  </scstep>
  <scstep>
   <time name="total">    2.15    1.35</time>
   <energy>
    <i name="e_fr_energy">    -17.03603169 </i>
    <i name="e_wo_entrp">    -17.03603169 </i>
    <i name="e_0_energy">    -17.03603169 </i>
   </energy>
  </scstep>
  <scstep>
   <time name="total">    2.14    1.34</time>
   <energy>
    <i name="e_fr_energy">    -17.03656865 </i>
    <i name="e_wo_entrp">    -17.03656865 </i>
    <i name="e_0_energy">    -17.03656865 </i>
   </energy>
  </scstep>
  <scstep>
   <time name="total">    2.16    1.36</time>
   <energy>
    <i name="e_fr_energy">    -17.03629045 </i>
    <i name="e_wo_entrp">    -17.03629045 </i>
    <i name="e_0_energy">    -17.03629045 </i>
   </energy>
  </scstep>
  <scstep>
   <time name="total">    2.14    1.34</time>
   <energy>
    <i name="e_fr_energy">    -17.03663502 </i>
    <i name="e_wo_entrp">    -17.03663502 </i>
    <i name="e_0_energy">    -17.03663502 </i>
   </energy>
  </scstep>
  <scstep>
   <time name="total">    2.17    1.36</time>
   <energy>
    <i name="e_fr_energy">    -17.03694935 </i>
    <i name="e_wo_entrp">    -17.03694935 </i>
    <i name="e_0_energy">    -17.03694935 </i>
   </energy>
  </scstep>
  <scstep>
   <time name="total">    2.17    1.36</time>
   <energy>
    <i name="e_fr_energy">    -17.03702750 </i>
    <i name="e_wo_entrp">    -17.03702750 </i>
    <i name="e_0_energy">    -17.03702750 </i>
   </energy>
  </scstep>
  <scstep>
   <time name="total">    2.14    1.34</time>
   <energy>
    <i name="e_fr_energy">    -17.03709949 </i>
    <i name="e_wo_entrp">    -17.03709949 </i>
    <i name="e_0_energy">    -17.03709949 </i>
   </energy>
  </scstep>
  <scstep>
   <time name="total">    2.15    1.35</time>
   <energy>
    <i name="e_fr_energy">    -17.03482772 </i>
    <i name="e_wo_entrp">    -17.03482772 </i>
    <i name="e_0_energy">    -17.03482772 </i>
   </energy>
  </scstep>
  <scstep>
   <time name="total">    2.15    1.35</time>
   <energy>
    <i name="e_fr_energy">    -17.03719160 </i>
    <i name="e_wo_entrp">    -17.03719160 </i>
    <i name="e_0_energy">    -17.03719160 </i>
   </energy>
  </scstep>
  <scstep>
   <time name="total">    2.15    1.35</time>
   <energy>
    <i name="e_fr_energy">    -17.03686689 </i>
    <i name="e_wo_entrp">    -17.03686689 </i>
    <i name="e_0_energy">    -17.03686689 </i>
   </energy>
  </scstep>
  <scstep>
   <time name="total">    2.15    1.35</time>
   <energy>
    <i name="e_fr_energy">    -17.03628627 </i>
    <i name="e_wo_entrp">    -17.03628627 </i>
    <i name="e_0_energy">    -17.03628627 </i>
   </energy>
  </scstep>
  <scstep>
   <time name="total">    2.15    1.35</time>
   <energy>
    <i name="e_fr_energy">    -17.03609658 </i>
    <i name="e_wo_entrp">    -17.03609658 </i>
    <i name="e_0_energy">    -17.03609658 </i>
   </energy>
  </scstep>
  <scstep>
   <time name="total">    2.14    1.34</time>
   <energy>
    <i name="e_fr_energy">    -17.03717794 </i>
    <i name="e_wo_entrp">    -17.03717794 </i>
    <i name="e_0_energy">    -17.03717794 </i>
   </energy>
  </scstep>
  <scstep>
   <time name="total">    2.15    1.35</time>
   <energy>
    <i name="e_fr_energy">    -17.03648206 </i>
    <i name="e_wo_entrp">    -17.03648206 </i>
    <i name="e_0_energy">    -17.03648206 </i>
   </energy>
  </scstep>
  <scstep>
   <time name="total">    2.15    1.35</time>
   <energy>
    <i name="e_fr_energy">    -17.03777946 </i>
    <i name="e_wo_entrp">    -17.03777946 </i>
    <i name="e_0_energy">    -17.03777946 </i>
   </energy>
  </scstep>
  <scstep>
   <time name="total">    2.15    1.35</time>
   <energy>
    <i name="e_fr_energy">    -17.03664615 </i>
    <i name="e_wo_entrp">    -17.03664615 </i>
    <i name="e_0_energy">    -17.03664615 </i>
   </energy>
  </scstep>
  <scstep>
   <time name="total">    2.14    1.34</time>
   <energy>
    <i name="e_fr_energy">    -17.03691336 </i>
    <i name="e_wo_entrp">    -17.03691336 </i>
    <i name="e_0_energy">    -17.03691336 </i>
   </energy>
  </scstep>
  <scstep>
   <time name="total">    2.16    1.36</time>
   <energy>
    <i name="e_fr_energy">    -17.03722051 </i>
    <i name="e_wo_entrp">    -17.03722051 </i>
    <i name="e_0_energy">    -17.03722051 </i>
   </energy>
  </scstep>
  <scstep>
   <time name="total">    2.14    1.35</time>
   <energy>
    <i name="e_fr_energy">    -17.03847242 </i>
    <i name="e_wo_entrp">    -17.03847242 </i>
    <i name="e_0_energy">    -17.03847242 </i>
   </energy>
  </scstep>
  <scstep>
   <time name="total">    2.18    1.37</time>
   <energy>
    <i name="e_fr_energy">    -17.03661103 </i>
    <i name="e_wo_entrp">    -17.03661103 </i>
    <i name="e_0_energy">    -17.03661103 </i>
   </energy>
  </scstep>
  <scstep>
   <time name="total">    2.17    1.36</time>
   <energy>
    <i name="e_fr_energy">    -17.03676430 </i>
    <i name="e_wo_entrp">    -17.03676430 </i>
    <i name="e_0_energy">    -17.03676430 </i>
   </energy>
  </scstep>
  <scstep>
   <time name="total">    2.16    1.35</time>
   <energy>
    <i name="e_fr_energy">    -17.03615888 </i>
    <i name="e_wo_entrp">    -17.03615888 </i>
    <i name="e_0_energy">    -17.03615888 </i>
   </energy>
  </scstep>
  <scstep>
   <time name="total">    2.17    1.36</time>
   <energy>
    <i name="e_fr_energy">    -17.03704122 </i>
    <i name="e_wo_entrp">    -17.03704122 </i>
    <i name="e_0_energy">    -17.03704122 </i>
   </energy>
  </scstep>
  <scstep>
   <time name="total">    2.16    1.35</time>
   <energy>
    <i name="e_fr_energy">    -17.03770515 </i>
    <i name="e_wo_entrp">    -17.03770515 </i>
    <i name="e_0_energy">    -17.03770515 </i>
   </energy>
  </scstep>
  <scstep>
   <time name="total">    2.15    1.35</time>
   <energy>
    <i name="e_fr_energy">    -17.03693601 </i>
    <i name="e_wo_entrp">    -17.03693601 </i>
    <i name="e_0_energy">    -17.03693601 </i>
   </energy>
  </scstep>
  <scstep>
   <time name="total">    2.17    1.36</time>
   <energy>
    <i name="e_fr_energy">    -17.03730239 </i>
    <i name="e_wo_entrp">    -17.03730239 </i>
    <i name="e_0_energy">    -17.03730239 </i>
   </energy>
  </scstep>
  <scstep>
   <time name="total">    2.17    1.36</time>
   <energy>
    <i name="e_fr_energy">    -17.03823639 </i>
    <i name="e_wo_entrp">    -17.03823639 </i>
    <i name="e_0_energy">    -17.03823639 </i>
   </energy>
  </scstep>
  <scstep>
   <time name="total">    2.15    1.35</time>
   <energy>
    <i name="e_fr_energy">    -17.03666036 </i>
    <i name="e_wo_entrp">    -17.03666036 </i>
    <i name="e_0_energy">    -17.03666036 </i>
   </energy>
  </scstep>
  <scstep>
   <time name="total">    2.16    1.35</time>
   <energy>
    <i name="e_fr_energy">    -17.03550369 </i>
    <i name="e_wo_entrp">    -17.03550369 </i>
    <i name="e_0_energy">    -17.03550369 </i>
   </energy>
  </scstep>
  <scstep>
   <time name="total">    2.17    1.36</time>
   <energy>
    <i name="e_fr_energy">    -17.03592822 </i>
    <i name="e_wo_entrp">    -17.03592822 </i>
    <i name="e_0_energy">    -17.03592822 </i>
   </energy>
  </scstep>
  <scstep>
   <time name="total">    2.15    1.35</time>
   <energy>
    <i name="e_fr_energy">    -17.03702129 </i>
    <i name="e_wo_entrp">    -17.03702129 </i>
    <i name="e_0_energy">    -17.03702129 </i>
   </energy>
  </scstep>
  <scstep>
   <time name="total">    2.16    1.35</time>
   <energy>
    <i name="e_fr_energy">    -17.03545220 </i>
    <i name="e_wo_entrp">    -17.03545220 </i>
    <i name="e_0_energy">    -17.03545220 </i>
   </energy>
  </scstep>
  <scstep>
   <time name="total">    2.17    1.36</time>
   <energy>
    <i name="e_fr_energy">    -17.03681973 </i>
    <i name="e_wo_entrp">    -17.03681973 </i>
    <i name="e_0_energy">    -17.03681973 </i>
   </energy>
  </scstep>
  <scstep>
   <time name="total">    2.14    1.34</time>
   <energy>
    <i name="e_fr_energy">    -17.03659992 </i>
    <i name="e_wo_entrp">    -17.03659992 </i>
    <i name="e_0_energy">    -17.03659992 </i>
   </energy>
  </scstep>
  <scstep>
   <time name="total">    2.16    1.35</time>
   <energy>
    <i name="e_fr_energy">    -17.03691176 </i>
    <i name="e_wo_entrp">    -17.03691176 </i>
    <i name="e_0_energy">    -17.03691176 </i>
   </energy>
  </scstep>
  <scstep>
   <time name="total">    2.16    1.36</time>
   <energy>
    <i name="e_fr_energy">    -17.03780475 </i>
    <i name="e_wo_entrp">    -17.03780475 </i>
    <i name="e_0_energy">    -17.03780475 </i>
   </energy>
  </scstep>
  <kpoints>
   <generation param="Gamma">
    <v type="int" name="divisions">       8        9        3 </v>
    <v name="usershift">      0.00000000       0.00000000       0.00000000 </v>
    <v name="genvec1">      0.12500000       0.00000000       0.00000000 </v>
    <v name="genvec2">      0.00000000       0.11111111       0.00000000 </v>
    <v name="genvec3">      0.00000000       0.00000000       0.33333333 </v>
    <v name="shift">      0.00000000       0.00000000       0.00000000 </v>
   </generation>
   <varray name="kpointlist" >
    <v>       0.00000000       0.00000000       0.00000000 </v>
    <v>       0.12500000       0.00000000       0.00000000 </v>
    <v>       0.25000000       0.00000000       0.00000000 </v>
    <v>       0.37500000       0.00000000       0.00000000 </v>
    <v>       0.50000000       0.00000000       0.00000000 </v>
    <v>       0.00000000       0.11111111       0.00000000 </v>
    <v>       0.12500000       0.11111111       0.00000000 </v>
    <v>       0.25000000       0.11111111       0.00000000 </v>
    <v>       0.37500000       0.11111111       0.00000000 </v>
    <v>       0.50000000       0.11111111       0.00000000 </v>
    <v>       0.00000000       0.22222222       0.00000000 </v>
    <v>       0.12500000       0.22222222       0.00000000 </v>
    <v>       0.25000000       0.22222222       0.00000000 </v>
    <v>       0.37500000       0.22222222       0.00000000 </v>
    <v>       0.50000000       0.22222222       0.00000000 </v>
    <v>       0.00000000       0.33333333       0.00000000 </v>
    <v>       0.12500000       0.33333333       0.00000000 </v>
    <v>       0.25000000       0.33333333       0.00000000 </v>
    <v>       0.37500000       0.33333333       0.00000000 </v>
    <v>       0.50000000       0.33333333       0.00000000 </v>
    <v>       0.00000000       0.44444444       0.00000000 </v>
    <v>       0.12500000       0.44444444       0.00000000 </v>
    <v>       0.25000000       0.44444444       0.00000000 </v>
    <v>       0.37500000       0.44444444       0.00000000 </v>
    <v>       0.50000000       0.44444444       0.00000000 </v>
    <v>       0.00000000       0.00000000       0.33333333 </v>
    <v>       0.12500000       0.00000000       0.33333333 </v>
    <v>       0.25000000       0.00000000       0.33333333 </v>
    <v>       0.37500000       0.00000000       0.33333333 </v>
    <v>       0.50000000       0.00000000       0.33333333 </v>
    <v>       0.00000000       0.11111111       0.33333333 </v>
    <v>       0.12500000       0.11111111       0.33333333 </v>
    <v>       0.25000000       0.11111111       0.33333333 </v>
    <v>       0.37500000       0.11111111       0.33333333 </v>
    <v>       0.50000000       0.11111111       0.33333333 </v>
    <v>       0.00000000       0.22222222       0.33333333 </v>
    <v>       0.12500000       0.22222222       0.33333333 </v>
    <v>       0.25000000       0.22222222       0.33333333 </v>
    <v>       0.37500000       0.22222222       0.33333333 </v>
    <v>       0.50000000       0.22222222       0.33333333 </v>
    <v>       0.00000000       0.33333333       0.33333333 </v>
    <v>       0.12500000       0.33333333       0.33333333 </v>
    <v>       0.25000000       0.33333333       0.33333333 </v>
    <v>       0.37500000       0.33333333       0.33333333 </v>
    <v>       0.50000000       0.33333333       0.33333333 </v>
    <v>       0.00000000       0.44444444       0.33333333 </v>
    <v>       0.12500000       0.44444444       0.33333333 </v>
    <v>       0.25000000       0.44444444       0.33333333 </v>
    <v>       0.37500000       0.44444444       0.33333333 </v>
    <v>       0.50000000       0.44444444       0.33333333 </v>
   </varray>
   <varray name="weights" >
    <v>       0.00462963 </v>
    <v>       0.00925926 </v>
    <v>       0.00925926 </v>
    <v>       0.00925926 </v>
    <v>       0.00462963 </v>
    <v>       0.00925926 </v>
    <v>       0.01851852 </v>
    <v>       0.01851852 </v>
    <v>       0.01851852 </v>
    <v>       0.00925926 </v>
    <v>       0.00925926 </v>
    <v>       0.01851852 </v>
    <v>       0.01851852 </v>
    <v>       0.01851852 </v>
    <v>       0.00925926 </v>
    <v>       0.00925926 </v>
    <v>       0.01851852 </v>
    <v>       0.01851852 </v>
    <v>       0.01851852 </v>
    <v>       0.00925926 </v>
    <v>       0.00925926 </v>
    <v>       0.01851852 </v>
    <v>       0.01851852 </v>
    <v>       0.01851852 </v>
    <v>       0.00925926 </v>
    <v>       0.00925926 </v>
    <v>       0.01851852 </v>
    <v>       0.01851852 </v>
    <v>       0.01851852 </v>
    <v>       0.00925926 </v>
    <v>       0.01851852 </v>
    <v>       0.03703704 </v>
    <v>       0.03703704 </v>
    <v>       0.03703704 </v>
    <v>       0.01851852 </v>
    <v>       0.01851852 </v>
    <v>       0.03703704 </v>
    <v>       0.03703704 </v>
    <v>       0.03703704 </v>
    <v>       0.01851852 </v>
    <v>       0.01851852 </v>
    <v>       0.03703704 </v>
    <v>       0.03703704 </v>
    <v>       0.03703704 </v>
    <v>       0.01851852 </v>
    <v>       0.01851852 </v>
    <v>       0.03703704 </v>
    <v>       0.03703704 </v>
    <v>       0.03703704 </v>
    <v>       0.01851852 </v>
   </varray>
  </kpoints>
  <scstep>
   <time name="total">    1.56    1.06</time>
   <energy>
    <i name="e_fr_energy">     -4.13501649 </i>
    <i name="e_wo_entrp">     -4.13501649 </i>
    <i name="e_0_energy">     -4.13501649 </i>
   </energy>
  </scstep>
  <scstep>
   <time name="total">    2.25    1.38</time>
   <energy>
    <i name="e_fr_energy">    -15.57990434 </i>
    <i name="e_wo_entrp">    -15.57990434 </i>
    <i name="e_0_energy">    -15.57990434 </i>
   </energy>
  </scstep>
  <scstep>
   <time name="total">    2.14    1.37</time>
   <energy>
    <i name="e_fr_energy">    -15.15541361 </i>
    <i name="e_wo_entrp">    -15.15541361 </i>
    <i name="e_0_energy">    -15.15541361 </i>
   </energy>
  </scstep>
  <scstep>
   <time name="total">    2.15    1.36</time>
   <energy>
    <i name="e_fr_energy">    -15.31103182 </i>
    <i name="e_wo_entrp">    -15.31103182 </i>
    <i name="e_0_energy">    -15.31103182 </i>
   </energy>
  </scstep>
  <scstep>
   <time name="total">    2.17    1.36</time>
   <energy>
    <i name="e_fr_energy">    -15.46479128 </i>
    <i name="e_wo_entrp">    -15.46479128 </i>
    <i name="e_0_energy">    -15.46479128 </i>
   </energy>
  </scstep>
  <scstep>
   <time name="total">    2.21    1.38</time>
   <energy>
    <i name="e_fr_energy">    -15.53779828 </i>
    <i name="e_wo_entrp">    -15.53779828 </i>
    <i name="e_0_energy">    -15.53779828 </i>
   </energy>
  </scstep>
  <scstep>
   <time name="total">    2.24    1.39</time>
   <energy>
    <i name="e_fr_energy">    -15.53878080 </i>
    <i name="e_wo_entrp">    -15.53878080 </i>
    <i name="e_0_energy">    -15.53878080 </i>
   </energy>
  </scstep>
  <scstep>
   <time name="total">    2.20    1.38</time>
   <energy>
    <i name="e_fr_energy">    -15.54135802 </i>
    <i name="e_wo_entrp">    -15.54135802 </i>
    <i name="e_0_energy">    -15.54135802 </i>
   </energy>
  </scstep>
  <scstep>
   <time name="total">    2.25    1.40</time>
   <energy>
    <i name="e_fr_energy">    -15.53847480 </i>
    <i name="e_wo_entrp">    -15.53847480 </i>
    <i name="e_0_energy">    -15.53847480 </i>
   </energy>
  </scstep>
  <scstep>
   <time name="total">    2.21    1.38</time>
   <energy>
    <i name="e_fr_energy">    -15.53918130 </i>
    <i name="e_wo_entrp">    -15.53918130 </i>
    <i name="e_0_energy">    -15.53918130 </i>
   </energy>
  </scstep>
  <scstep>
   <time name="total">    2.22    1.39</time>
   <energy>
    <i name="e_fr_energy">    -15.53688258 </i>
    <i name="e_wo_entrp">    -15.53688258 </i>
    <i name="e_0_energy">    -15.53688258 </i>
   </energy>
  </scstep>
  <scstep>
   <time name="total">    2.26    1.41</time>
   <energy>
    <i name="e_fr_energy">    -15.54097382 </i>
    <i name="e_wo_entrp">    -15.54097382 </i>
    <i name="e_0_energy">    -15.54097382 </i>
   </energy>
  </scstep>
  <scstep>
   <time name="total">    2.21    1.38</time>
   <energy>
    <i name="e_fr_energy">    -15.53801877 </i>
    <i name="e_wo_entrp">    -15.53801877 </i>
    <i name="e_0_energy">    -15.53801877 </i>
   </energy>
  </scstep>
  <scstep>
   <time name="total">    2.22    1.39</time>
   <energy>
    <i name="e_fr_energy">    -15.54273135 </i>
    <i name="e_wo_entrp">    -15.54273135 </i>
    <i name="e_0_energy">    -15.54273135 </i>
   </energy>
  </scstep>
  <scstep>
   <time name="total">    2.15    1.35</time>
   <energy>
    <i name="e_fr_energy">    -15.53712440 </i>
    <i name="e_wo_entrp">    -15.53712440 </i>
    <i name="e_0_energy">    -15.53712440 </i>
   </energy>
  </scstep>
  <scstep>
   <time name="total">    2.12    1.34</time>
   <energy>
    <i name="e_fr_energy">    -15.53786934 </i>
    <i name="e_wo_entrp">    -15.53786934 </i>
    <i name="e_0_energy">    -15.53786934 </i>
   </energy>
  </scstep>
  <scstep>
   <time name="total">    2.09    1.32</time>
   <energy>
    <i name="e_fr_energy">    -15.53661629 </i>
    <i name="e_wo_entrp">    -15.53661629 </i>
    <i name="e_0_energy">    -15.53661629 </i>
   </energy>
  </scstep>
  <kpoints>
   <generation param="Gamma">
    <v type="int" name="divisions">       8        9        3 </v>
    <v name="usershift">      0.00000000       0.00000000       0.00000000 </v>
    <v name="genvec1">      0.12500000       0.00000000       0.00000000 </v>
    <v name="genvec2">      0.00000000       0.11111111       0.00000000 </v>
    <v name="genvec3">      0.00000000       0.00000000       0.33333333 </v>
    <v name="shift">      0.00000000       0.00000000       0.00000000 </v>
   </generation>
   <varray name="kpointlist" >
    <v>       0.00000000       0.00000000       0.00000000 </v>
    <v>       0.12500000       0.00000000       0.00000000 </v>
    <v>       0.25000000       0.00000000       0.00000000 </v>
    <v>       0.37500000       0.00000000       0.00000000 </v>
    <v>       0.50000000       0.00000000       0.00000000 </v>
    <v>       0.00000000       0.11111111       0.00000000 </v>
    <v>       0.12500000       0.11111111       0.00000000 </v>
    <v>       0.25000000       0.11111111       0.00000000 </v>
    <v>       0.37500000       0.11111111       0.00000000 </v>
    <v>       0.50000000       0.11111111       0.00000000 </v>
    <v>       0.00000000       0.22222222       0.00000000 </v>
    <v>       0.12500000       0.22222222       0.00000000 </v>
    <v>       0.25000000       0.22222222       0.00000000 </v>
    <v>       0.37500000       0.22222222       0.00000000 </v>
    <v>       0.50000000       0.22222222       0.00000000 </v>
    <v>       0.00000000       0.33333333       0.00000000 </v>
    <v>       0.12500000       0.33333333       0.00000000 </v>
    <v>       0.25000000       0.33333333       0.00000000 </v>
    <v>       0.37500000       0.33333333       0.00000000 </v>
    <v>       0.50000000       0.33333333       0.00000000 </v>
    <v>       0.00000000       0.44444444       0.00000000 </v>
    <v>       0.12500000       0.44444444       0.00000000 </v>
    <v>       0.25000000       0.44444444       0.00000000 </v>
    <v>       0.37500000       0.44444444       0.00000000 </v>
    <v>       0.50000000       0.44444444       0.00000000 </v>
    <v>       0.00000000       0.00000000       0.33333333 </v>
    <v>       0.12500000       0.00000000       0.33333333 </v>
    <v>       0.25000000       0.00000000       0.33333333 </v>
    <v>       0.37500000       0.00000000       0.33333333 </v>
    <v>       0.50000000       0.00000000       0.33333333 </v>
    <v>       0.00000000       0.11111111       0.33333333 </v>
    <v>       0.12500000       0.11111111       0.33333333 </v>
    <v>       0.25000000       0.11111111       0.33333333 </v>
    <v>       0.37500000       0.11111111       0.33333333 </v>
    <v>       0.50000000       0.11111111       0.33333333 </v>
    <v>       0.00000000       0.22222222       0.33333333 </v>
    <v>       0.12500000       0.22222222       0.33333333 </v>
    <v>       0.25000000       0.22222222       0.33333333 </v>
    <v>       0.37500000       0.22222222       0.33333333 </v>
    <v>       0.50000000       0.22222222       0.33333333 </v>
    <v>       0.00000000       0.33333333       0.33333333 </v>
    <v>       0.12500000       0.33333333       0.33333333 </v>
    <v>       0.25000000       0.33333333       0.33333333 </v>
    <v>       0.37500000       0.33333333       0.33333333 </v>
    <v>       0.50000000       0.33333333       0.33333333 </v>
    <v>       0.00000000       0.44444444       0.33333333 </v>
    <v>       0.12500000       0.44444444       0.33333333 </v>
    <v>       0.25000000       0.44444444       0.33333333 </v>
    <v>       0.37500000       0.44444444       0.33333333 </v>
    <v>       0.50000000       0.44444444       0.33333333 </v>
   </varray>
   <varray name="weights" >
    <v>       0.00462963 </v>
    <v>       0.00925926 </v>
    <v>       0.00925926 </v>
    <v>       0.00925926 </v>
    <v>       0.00462963 </v>
    <v>       0.00925926 </v>
    <v>       0.01851852 </v>
    <v>       0.01851852 </v>
    <v>       0.01851852 </v>
    <v>       0.00925926 </v>
    <v>       0.00925926 </v>
    <v>       0.01851852 </v>
    <v>       0.01851852 </v>
    <v>       0.01851852 </v>
    <v>       0.00925926 </v>
    <v>       0.00925926 </v>
    <v>       0.01851852 </v>
    <v>       0.01851852 </v>
    <v>       0.01851852 </v>
    <v>       0.00925926 </v>
    <v>       0.00925926 </v>
    <v>       0.01851852 </v>
    <v>       0.01851852 </v>
    <v>       0.01851852 </v>
    <v>       0.00925926 </v>
    <v>       0.00925926 </v>
    <v>       0.01851852 </v>
    <v>       0.01851852 </v>
    <v>       0.01851852 </v>
    <v>       0.00925926 </v>
    <v>       0.01851852 </v>
    <v>       0.03703704 </v>
    <v>       0.03703704 </v>
    <v>       0.03703704 </v>
    <v>       0.01851852 </v>
    <v>       0.01851852 </v>
    <v>       0.03703704 </v>
    <v>       0.03703704 </v>
    <v>       0.03703704 </v>
    <v>       0.01851852 </v>
    <v>       0.01851852 </v>
    <v>       0.03703704 </v>
    <v>       0.03703704 </v>
    <v>       0.03703704 </v>
    <v>       0.01851852 </v>
    <v>       0.01851852 </v>
    <v>       0.03703704 </v>
    <v>       0.03703704 </v>
    <v>       0.03703704 </v>
    <v>       0.01851852 </v>
   </varray>
  </kpoints>
  <varray name="dielectric_dft" >
   <v>      24.37233113       0.00000000       0.00000000 </v>
   <v>       0.00000000      29.79617951       0.00000000 </v>
   <v>       0.00000000       0.00000000      27.66749257 </v>
  </varray>
  <varray name="epsilon" >
   <v>      24.37233113       0.00000000       0.00000000 </v>
   <v>       0.00000000      29.79617951       0.00000000 </v>
   <v>       0.00000000       0.00000000      27.66749257 </v>
  </varray>
  <kpoints>
   <generation param="Gamma">
    <v type="int" name="divisions">       8        9        3 </v>
    <v name="usershift">      0.00000000       0.00000000       0.00000000 </v>
    <v name="genvec1">      0.12500000       0.00000000       0.00000000 </v>
    <v name="genvec2">      0.00000000       0.11111111       0.00000000 </v>
    <v name="genvec3">      0.00000000       0.00000000       0.33333333 </v>
    <v name="shift">      0.00000000       0.00000000       0.00000000 </v>
   </generation>
   <varray name="kpointlist" >
    <v>       0.00000000       0.00000000       0.00000000 </v>
    <v>       0.12500000       0.00000000       0.00000000 </v>
    <v>       0.25000000       0.00000000       0.00000000 </v>
    <v>       0.37500000       0.00000000       0.00000000 </v>
    <v>       0.50000000       0.00000000       0.00000000 </v>
    <v>       0.00000000       0.11111111       0.00000000 </v>
    <v>       0.12500000       0.11111111       0.00000000 </v>
    <v>       0.25000000       0.11111111       0.00000000 </v>
    <v>       0.37500000       0.11111111       0.00000000 </v>
    <v>       0.50000000       0.11111111       0.00000000 </v>
    <v>       0.00000000       0.22222222       0.00000000 </v>
    <v>       0.12500000       0.22222222       0.00000000 </v>
    <v>       0.25000000       0.22222222       0.00000000 </v>
    <v>       0.37500000       0.22222222       0.00000000 </v>
    <v>       0.50000000       0.22222222       0.00000000 </v>
    <v>       0.00000000       0.33333333       0.00000000 </v>
    <v>       0.12500000       0.33333333       0.00000000 </v>
    <v>       0.25000000       0.33333333       0.00000000 </v>
    <v>       0.37500000       0.33333333       0.00000000 </v>
    <v>       0.50000000       0.33333333       0.00000000 </v>
    <v>       0.00000000       0.44444444       0.00000000 </v>
    <v>       0.12500000       0.44444444       0.00000000 </v>
    <v>       0.25000000       0.44444444       0.00000000 </v>
    <v>       0.37500000       0.44444444       0.00000000 </v>
    <v>       0.50000000       0.44444444       0.00000000 </v>
    <v>       0.00000000       0.00000000       0.33333333 </v>
    <v>       0.12500000       0.00000000       0.33333333 </v>
    <v>       0.25000000       0.00000000       0.33333333 </v>
    <v>       0.37500000       0.00000000       0.33333333 </v>
    <v>       0.50000000       0.00000000       0.33333333 </v>
    <v>       0.00000000       0.11111111       0.33333333 </v>
    <v>       0.12500000       0.11111111       0.33333333 </v>
    <v>       0.25000000       0.11111111       0.33333333 </v>
    <v>       0.37500000       0.11111111       0.33333333 </v>
    <v>       0.50000000       0.11111111       0.33333333 </v>
    <v>       0.00000000       0.22222222       0.33333333 </v>
    <v>       0.12500000       0.22222222       0.33333333 </v>
    <v>       0.25000000       0.22222222       0.33333333 </v>
    <v>       0.37500000       0.22222222       0.33333333 </v>
    <v>       0.50000000       0.22222222       0.33333333 </v>
    <v>       0.00000000       0.33333333       0.33333333 </v>
    <v>       0.12500000       0.33333333       0.33333333 </v>
    <v>       0.25000000       0.33333333       0.33333333 </v>
    <v>       0.37500000       0.33333333       0.33333333 </v>
    <v>       0.50000000       0.33333333       0.33333333 </v>
    <v>       0.00000000       0.44444444       0.33333333 </v>
    <v>       0.12500000       0.44444444       0.33333333 </v>
    <v>       0.25000000       0.44444444       0.33333333 </v>
    <v>       0.37500000       0.44444444       0.33333333 </v>
    <v>       0.50000000       0.44444444       0.33333333 </v>
   </varray>
   <varray name="weights" >
    <v>       0.00462963 </v>
    <v>       0.00925926 </v>
    <v>       0.00925926 </v>
    <v>       0.00925926 </v>
    <v>       0.00462963 </v>
    <v>       0.00925926 </v>
    <v>       0.01851852 </v>
    <v>       0.01851852 </v>
    <v>       0.01851852 </v>
    <v>       0.00925926 </v>
    <v>       0.00925926 </v>
    <v>       0.01851852 </v>
    <v>       0.01851852 </v>
    <v>       0.01851852 </v>
    <v>       0.00925926 </v>
    <v>       0.00925926 </v>
    <v>       0.01851852 </v>
    <v>       0.01851852 </v>
    <v>       0.01851852 </v>
    <v>       0.00925926 </v>
    <v>       0.00925926 </v>
    <v>       0.01851852 </v>
    <v>       0.01851852 </v>
    <v>       0.01851852 </v>
    <v>       0.00925926 </v>
    <v>       0.00925926 </v>
    <v>       0.01851852 </v>
    <v>       0.01851852 </v>
    <v>       0.01851852 </v>
    <v>       0.00925926 </v>
    <v>       0.01851852 </v>
    <v>       0.03703704 </v>
    <v>       0.03703704 </v>
    <v>       0.03703704 </v>
    <v>       0.01851852 </v>
    <v>       0.01851852 </v>
    <v>       0.03703704 </v>
    <v>       0.03703704 </v>
    <v>       0.03703704 </v>
    <v>       0.01851852 </v>
    <v>       0.01851852 </v>
    <v>       0.03703704 </v>
    <v>       0.03703704 </v>
    <v>       0.03703704 </v>
    <v>       0.01851852 </v>
    <v>       0.01851852 </v>
    <v>       0.03703704 </v>
    <v>       0.03703704 </v>
    <v>       0.03703704 </v>
    <v>       0.01851852 </v>
   </varray>
  </kpoints>
  <array name="born_charges" >
   <dimension dim="1">ion</dimension>
   <set>
    <v>       3.99367974       0.00000000      -0.59161490 </v>
    <v>       0.00000000       4.57201183       0.00000000 </v>
    <v>       0.08588802       0.00000000       4.23598491 </v>
   </set>
   <set>
    <v>       3.99367974       0.00000000       0.59161490 </v>
    <v>       0.00000000       4.57201183       0.00000000 </v>
    <v>      -0.08588802       0.00000000       4.23598491 </v>
   </set>
   <set>
    <v>       3.99367974       0.00000000       0.59161490 </v>
    <v>       0.00000000       4.57201183       0.00000000 </v>
    <v>      -0.08588802       0.00000000       4.23598491 </v>
   </set>
   <set>
    <v>       3.99367974       0.00000000      -0.59161490 </v>
    <v>       0.00000000       4.57201183       0.00000000 </v>
    <v>       0.08588802       0.00000000       4.23598491 </v>
   </set>
   <set>
    <v>      -3.99367974      -0.00000000       0.57791881 </v>
    <v>       0.00000000      -4.57201183       0.00000000 </v>
    <v>       0.69179839       0.00000000      -4.23598491 </v>
   </set>
   <set>
    <v>      -3.99367974       0.00000000      -0.57791881 </v>
    <v>       0.00000000      -4.57201183       0.00000000 </v>
    <v>      -0.69179839       0.00000000      -4.23598491 </v>
   </set>
   <set>
    <v>      -3.99367974      -0.00000000      -0.57791881 </v>
    <v>       0.00000000      -4.57201183       0.00000000 </v>
    <v>      -0.69179839       0.00000000      -4.23598491 </v>
   </set>
   <set>
    <v>      -3.99367974       0.00000000       0.57791881 </v>
    <v>       0.00000000      -4.57201183       0.00000000 </v>
    <v>       0.69179839       0.00000000      -4.23598491 </v>
   </set>
  </array>
  <energy>
   <i name="e_fr_energy">    -37.43192897 </i>
   <i name="e_wo_entrp">    -37.43192897 </i>
   <i name="e_0_energy">    -37.43192897 </i>
  </energy>
  <kpoints>
   <generation param="Gamma">
    <v type="int" name="divisions">       8        9        3 </v>
    <v name="usershift">      0.00000000       0.00000000       0.00000000 </v>
    <v name="genvec1">      0.12500000       0.00000000       0.00000000 </v>
    <v name="genvec2">      0.00000000       0.11111111       0.00000000 </v>
    <v name="genvec3">      0.00000000       0.00000000       0.33333333 </v>
    <v name="shift">      0.00000000       0.00000000       0.00000000 </v>
   </generation>
   <varray name="kpointlist" >
    <v>       0.00000000       0.00000000       0.00000000 </v>
    <v>       0.12500000       0.00000000       0.00000000 </v>
    <v>       0.25000000       0.00000000       0.00000000 </v>
    <v>       0.37500000       0.00000000       0.00000000 </v>
    <v>       0.50000000       0.00000000       0.00000000 </v>
    <v>       0.00000000       0.11111111       0.00000000 </v>
    <v>       0.12500000       0.11111111       0.00000000 </v>
    <v>       0.25000000       0.11111111       0.00000000 </v>
    <v>       0.37500000       0.11111111       0.00000000 </v>
    <v>       0.50000000       0.11111111       0.00000000 </v>
    <v>       0.00000000       0.22222222       0.00000000 </v>
    <v>       0.12500000       0.22222222       0.00000000 </v>
    <v>       0.25000000       0.22222222       0.00000000 </v>
    <v>       0.37500000       0.22222222       0.00000000 </v>
    <v>       0.50000000       0.22222222       0.00000000 </v>
    <v>       0.00000000       0.33333333       0.00000000 </v>
    <v>       0.12500000       0.33333333       0.00000000 </v>
    <v>       0.25000000       0.33333333       0.00000000 </v>
    <v>       0.37500000       0.33333333       0.00000000 </v>
    <v>       0.50000000       0.33333333       0.00000000 </v>
    <v>       0.00000000       0.44444444       0.00000000 </v>
    <v>       0.12500000       0.44444444       0.00000000 </v>
    <v>       0.25000000       0.44444444       0.00000000 </v>
    <v>       0.37500000       0.44444444       0.00000000 </v>
    <v>       0.50000000       0.44444444       0.00000000 </v>
    <v>       0.00000000       0.00000000       0.33333333 </v>
    <v>       0.12500000       0.00000000       0.33333333 </v>
    <v>       0.12500000       0.00000000      -0.33333333 </v>
    <v>       0.25000000       0.00000000       0.33333333 </v>
    <v>       0.25000000       0.00000000      -0.33333333 </v>
    <v>       0.37500000       0.00000000       0.33333333 </v>
    <v>       0.37500000       0.00000000      -0.33333333 </v>
    <v>       0.50000000       0.00000000       0.33333333 </v>
    <v>       0.00000000       0.11111111       0.33333333 </v>
    <v>       0.12500000       0.11111111       0.33333333 </v>
    <v>       0.12500000      -0.11111111      -0.33333333 </v>
    <v>       0.25000000       0.11111111       0.33333333 </v>
    <v>       0.25000000      -0.11111111      -0.33333333 </v>
    <v>       0.37500000       0.11111111       0.33333333 </v>
    <v>       0.37500000      -0.11111111      -0.33333333 </v>
    <v>       0.50000000       0.11111111       0.33333333 </v>
    <v>       0.00000000       0.22222222       0.33333333 </v>
    <v>       0.12500000       0.22222222       0.33333333 </v>
    <v>       0.12500000      -0.22222222      -0.33333333 </v>
    <v>       0.25000000       0.22222222       0.33333333 </v>
    <v>       0.25000000      -0.22222222      -0.33333333 </v>
    <v>       0.37500000       0.22222222       0.33333333 </v>
    <v>       0.37500000      -0.22222222      -0.33333333 </v>
    <v>       0.50000000       0.22222222       0.33333333 </v>
    <v>       0.00000000       0.33333333       0.33333333 </v>
    <v>       0.12500000       0.33333333       0.33333333 </v>
    <v>       0.12500000      -0.33333333      -0.33333333 </v>
    <v>       0.25000000       0.33333333       0.33333333 </v>
    <v>       0.25000000      -0.33333333      -0.33333333 </v>
    <v>       0.37500000       0.33333333       0.33333333 </v>
    <v>       0.37500000      -0.33333333      -0.33333333 </v>
    <v>       0.50000000       0.33333333       0.33333333 </v>
    <v>       0.00000000       0.44444444       0.33333333 </v>
    <v>       0.12500000       0.44444444       0.33333333 </v>
    <v>       0.12500000      -0.44444444      -0.33333333 </v>
    <v>       0.25000000       0.44444444       0.33333333 </v>
    <v>       0.25000000      -0.44444444      -0.33333333 </v>
    <v>       0.37500000       0.44444444       0.33333333 </v>
    <v>       0.37500000      -0.44444444      -0.33333333 </v>
    <v>       0.50000000       0.44444444       0.33333333 </v>
   </varray>
   <varray name="weights" >
    <v>       0.00462963 </v>
    <v>       0.00925926 </v>
    <v>       0.00925926 </v>
    <v>       0.00925926 </v>
    <v>       0.00462963 </v>
    <v>       0.00925926 </v>
    <v>       0.01851852 </v>
    <v>       0.01851852 </v>
    <v>       0.01851852 </v>
    <v>       0.00925926 </v>
    <v>       0.00925926 </v>
    <v>       0.01851852 </v>
    <v>       0.01851852 </v>
    <v>       0.01851852 </v>
    <v>       0.00925926 </v>
    <v>       0.00925926 </v>
    <v>       0.01851852 </v>
    <v>       0.01851852 </v>
    <v>       0.01851852 </v>
    <v>       0.00925926 </v>
    <v>       0.00925926 </v>
    <v>       0.01851852 </v>
    <v>       0.01851852 </v>
    <v>       0.01851852 </v>
    <v>       0.00925926 </v>
    <v>       0.00925926 </v>
    <v>       0.00925926 </v>
    <v>       0.00925926 </v>
    <v>       0.00925926 </v>
    <v>       0.00925926 </v>
    <v>       0.00925926 </v>
    <v>       0.00925926 </v>
    <v>       0.00925926 </v>
    <v>       0.01851852 </v>
    <v>       0.01851852 </v>
    <v>       0.01851852 </v>
    <v>       0.01851852 </v>
    <v>       0.01851852 </v>
    <v>       0.01851852 </v>
    <v>       0.01851852 </v>
    <v>       0.01851852 </v>
    <v>       0.01851852 </v>
    <v>       0.01851852 </v>
    <v>       0.01851852 </v>
    <v>       0.01851852 </v>
    <v>       0.01851852 </v>
    <v>       0.01851852 </v>
    <v>       0.01851852 </v>
    <v>       0.01851852 </v>
    <v>       0.01851852 </v>
    <v>       0.01851852 </v>
    <v>       0.01851852 </v>
    <v>       0.01851852 </v>
    <v>       0.01851852 </v>
    <v>       0.01851852 </v>
    <v>       0.01851852 </v>
    <v>       0.01851852 </v>
    <v>       0.01851852 </v>
    <v>       0.01851852 </v>
    <v>       0.01851852 </v>
    <v>       0.01851852 </v>
    <v>       0.01851852 </v>
    <v>       0.01851852 </v>
    <v>       0.01851852 </v>
    <v>       0.01851852 </v>
   </varray>
  </kpoints>
  <time name="totalsc">  411.76  259.54</time>
 </calculation>
 <calculation>
  <scstep>
   <time name="dav">    2.15    1.08</time>
   <time name="total">    2.70    1.45</time>
   <energy>
    <i name="alphaZ">    217.43841536 </i>
    <i name="ewald">  -6082.60119906 </i>
    <i name="hartreedc">  -2303.91552985 </i>
    <i name="XCdc">    230.43256175 </i>
    <i name="pawpsdc">   8471.54860345 </i>
    <i name="pawaedc">  -8567.44722380 </i>
    <i name="eentropy">     -0.00000000 </i>
    <i name="bandstr">   -599.57004384 </i>
    <i name="atom">   8598.20158228 </i>
    <i name="e_fr_energy">    -35.91283371 </i>
    <i name="e_wo_entrp">    -35.91283371 </i>
    <i name="e_0_energy">    -35.91283371 </i>
   </energy>
  </scstep>
  <scstep>
   <time name="dav">    3.07    1.54</time>
   <time name="total">    3.55    1.90</time>
   <energy>
    <i name="e_fr_energy">    -35.91358305 </i>
    <i name="e_wo_entrp">    -35.91358305 </i>
    <i name="e_0_energy">    -35.91358305 </i>
   </energy>
  </scstep>
  <scstep>
   <time name="dav">    2.66    1.33</time>
   <time name="total">    3.02    1.69</time>
   <energy>
    <i name="e_fr_energy">    -35.91360807 </i>
    <i name="e_wo_entrp">    -35.91360807 </i>
    <i name="e_0_energy">    -35.91360807 </i>
   </energy>
  </scstep>
  <scstep>
   <time name="dav">    3.30    1.66</time>
   <time name="total">    3.78    2.02</time>
   <energy>
    <i name="e_fr_energy">    -35.91360895 </i>
    <i name="e_wo_entrp">    -35.91360895 </i>
    <i name="e_0_energy">    -35.91360895 </i>
   </energy>
  </scstep>
  <scstep>
   <time name="dav">    2.50    1.25</time>
   <time name="total">    2.94    1.61</time>
   <energy>
    <i name="e_fr_energy">    -35.91360910 </i>
    <i name="e_wo_entrp">    -35.91360910 </i>
    <i name="e_0_energy">    -35.91360910 </i>
   </energy>
  </scstep>
  <scstep>
   <time name="dav">    2.94    1.48</time>
   <time name="total">    3.41    1.83</time>
   <energy>
    <i name="e_fr_energy">    -35.91360911 </i>
    <i name="e_wo_entrp">    -35.91360911 </i>
    <i name="e_0_energy">    -35.91360911 </i>
   </energy>
  </scstep>
  <scstep>
   <time name="dav">    2.07    1.04</time>
   <time name="total">    2.53    1.39</time>
   <energy>
    <i name="e_fr_energy">    -35.91360909 </i>
    <i name="e_wo_entrp">    -35.91360909 </i>
    <i name="e_0_energy">    -35.91360909 </i>
   </energy>
  </scstep>
  <scstep>
   <time name="dav">    1.92    0.96</time>
   <time name="total">    2.16    1.21</time>
   <energy>
    <i name="alphaZ">    217.43841536 </i>
    <i name="ewald">  -6082.60119906 </i>
    <i name="hartreedc">  -2303.97945281 </i>
    <i name="XCdc">    230.43513572 </i>
    <i name="pawpsdc">   8473.81415102 </i>
    <i name="pawaedc">  -8569.73004525 </i>
    <i name="eentropy">     -0.00000000 </i>
    <i name="bandstr">   -599.49219636 </i>
    <i name="atom">   8598.20158228 </i>
    <i name="e_fr_energy">    -35.91360909 </i>
    <i name="e_wo_entrp">    -35.91360909 </i>
    <i name="e_0_energy">    -35.91360909 </i>
   </energy>
  </scstep>
  <structure>
   <crystal>
    <varray name="basis" >
     <v>       4.34539863       0.00000000       0.00000000 </v>
     <v>       0.00000000       4.11936655       0.00000000 </v>
     <v>       0.00000000       0.00000000      11.35478920 </v>
    </varray>
    <i name="volume">    203.25401695 </i>
    <varray name="rec_basis" >
     <v>       0.23012848       0.00000000       0.00000000 </v>
     <v>       0.00000000       0.24275577       0.00000000 </v>
     <v>       0.00000000       0.00000000       0.08806857 </v>
    </varray>
   </crystal>
   <varray name="positions" >
    <v>       0.10133759       0.25000000       0.11539711 </v>
    <v>       0.40096369       0.25000000       0.61539711 </v>
    <v>       0.59903631       0.75000000       0.38460289 </v>
    <v>       0.90096369       0.75000000       0.88460289 </v>
    <v>       0.02605052       0.25000000       0.35675466 </v>
    <v>       0.47394948       0.25000000       0.85675466 </v>
    <v>       0.52605052       0.75000000       0.14324534 </v>
    <v>       0.97394948       0.75000000       0.64324534 </v>
   </varray>
  </structure>
  <varray name="forces" >
   <v>      -0.03728728       0.00000000      -0.00385492 </v>
   <v>       0.00623594       0.00000000       0.00248297 </v>
   <v>      -0.00417155       0.00000000      -0.00070882 </v>
   <v>       0.00936664       0.00000000      -0.00037342 </v>
   <v>      -0.00449332       0.00000000      -0.00249289 </v>
   <v>       0.00429832       0.00000000      -0.00211769 </v>
   <v>       0.02231810       0.00000000       0.00509221 </v>
   <v>       0.00373315       0.00000000       0.00197255 </v>
  </varray>
  <varray name="stress" >
   <v>       0.46264916       0.00000000       0.08950486 </v>
   <v>       0.00000000       0.28641522       0.00000000 </v>
   <v>       0.08950475       0.00000000      -0.47781597 </v>
  </varray>
  <energy>
   <i name="e_fr_energy">    -37.43170640 </i>
   <i name="e_wo_entrp">    -37.43170640 </i>
   <i name="e_0_energy">    -37.43170640 </i>
  </energy>
  <kpoints>
   <generation param="Gamma">
    <v type="int" name="divisions">       8        9        3 </v>
    <v name="usershift">      0.00000000       0.00000000       0.00000000 </v>
    <v name="genvec1">      0.12500000       0.00000000       0.00000000 </v>
    <v name="genvec2">      0.00000000       0.11111111       0.00000000 </v>
    <v name="genvec3">      0.00000000       0.00000000       0.33333333 </v>
    <v name="shift">      0.00000000       0.00000000       0.00000000 </v>
   </generation>
   <varray name="kpointlist" >
    <v>       0.00000000       0.00000000       0.00000000 </v>
    <v>       0.12500000       0.00000000       0.00000000 </v>
    <v>       0.25000000       0.00000000       0.00000000 </v>
    <v>       0.37500000       0.00000000       0.00000000 </v>
    <v>       0.50000000       0.00000000       0.00000000 </v>
    <v>       0.00000000       0.11111111       0.00000000 </v>
    <v>       0.12500000       0.11111111       0.00000000 </v>
    <v>       0.25000000       0.11111111       0.00000000 </v>
    <v>       0.37500000       0.11111111       0.00000000 </v>
    <v>       0.50000000       0.11111111       0.00000000 </v>
    <v>       0.00000000       0.22222222       0.00000000 </v>
    <v>       0.12500000       0.22222222       0.00000000 </v>
    <v>       0.25000000       0.22222222       0.00000000 </v>
    <v>       0.37500000       0.22222222       0.00000000 </v>
    <v>       0.50000000       0.22222222       0.00000000 </v>
    <v>       0.00000000       0.33333333       0.00000000 </v>
    <v>       0.12500000       0.33333333       0.00000000 </v>
    <v>       0.25000000       0.33333333       0.00000000 </v>
    <v>       0.37500000       0.33333333       0.00000000 </v>
    <v>       0.50000000       0.33333333       0.00000000 </v>
    <v>       0.00000000       0.44444444       0.00000000 </v>
    <v>       0.12500000       0.44444444       0.00000000 </v>
    <v>       0.25000000       0.44444444       0.00000000 </v>
    <v>       0.37500000       0.44444444       0.00000000 </v>
    <v>       0.50000000       0.44444444       0.00000000 </v>
    <v>       0.00000000       0.00000000       0.33333333 </v>
    <v>       0.12500000       0.00000000       0.33333333 </v>
    <v>       0.12500000       0.00000000      -0.33333333 </v>
    <v>       0.25000000       0.00000000       0.33333333 </v>
    <v>       0.25000000       0.00000000      -0.33333333 </v>
    <v>       0.37500000       0.00000000       0.33333333 </v>
    <v>       0.37500000       0.00000000      -0.33333333 </v>
    <v>       0.50000000       0.00000000       0.33333333 </v>
    <v>       0.00000000       0.11111111       0.33333333 </v>
    <v>       0.12500000       0.11111111       0.33333333 </v>
    <v>       0.12500000      -0.11111111      -0.33333333 </v>
    <v>       0.25000000       0.11111111       0.33333333 </v>
    <v>       0.25000000      -0.11111111      -0.33333333 </v>
    <v>       0.37500000       0.11111111       0.33333333 </v>
    <v>       0.37500000      -0.11111111      -0.33333333 </v>
    <v>       0.50000000       0.11111111       0.33333333 </v>
    <v>       0.00000000       0.22222222       0.33333333 </v>
    <v>       0.12500000       0.22222222       0.33333333 </v>
    <v>       0.12500000      -0.22222222      -0.33333333 </v>
    <v>       0.25000000       0.22222222       0.33333333 </v>
    <v>       0.25000000      -0.22222222      -0.33333333 </v>
    <v>       0.37500000       0.22222222       0.33333333 </v>
    <v>       0.37500000      -0.22222222      -0.33333333 </v>
    <v>       0.50000000       0.22222222       0.33333333 </v>
    <v>       0.00000000       0.33333333       0.33333333 </v>
    <v>       0.12500000       0.33333333       0.33333333 </v>
    <v>       0.12500000      -0.33333333      -0.33333333 </v>
    <v>       0.25000000       0.33333333       0.33333333 </v>
    <v>       0.25000000      -0.33333333      -0.33333333 </v>
    <v>       0.37500000       0.33333333       0.33333333 </v>
    <v>       0.37500000      -0.33333333      -0.33333333 </v>
    <v>       0.50000000       0.33333333       0.33333333 </v>
    <v>       0.00000000       0.44444444       0.33333333 </v>
    <v>       0.12500000       0.44444444       0.33333333 </v>
    <v>       0.12500000      -0.44444444      -0.33333333 </v>
    <v>       0.25000000       0.44444444       0.33333333 </v>
    <v>       0.25000000      -0.44444444      -0.33333333 </v>
    <v>       0.37500000       0.44444444       0.33333333 </v>
    <v>       0.37500000      -0.44444444      -0.33333333 </v>
    <v>       0.50000000       0.44444444       0.33333333 </v>
   </varray>
   <varray name="weights" >
    <v>       0.00462963 </v>
    <v>       0.00925926 </v>
    <v>       0.00925926 </v>
    <v>       0.00925926 </v>
    <v>       0.00462963 </v>
    <v>       0.00925926 </v>
    <v>       0.01851852 </v>
    <v>       0.01851852 </v>
    <v>       0.01851852 </v>
    <v>       0.00925926 </v>
    <v>       0.00925926 </v>
    <v>       0.01851852 </v>
    <v>       0.01851852 </v>
    <v>       0.01851852 </v>
    <v>       0.00925926 </v>
    <v>       0.00925926 </v>
    <v>       0.01851852 </v>
    <v>       0.01851852 </v>
    <v>       0.01851852 </v>
    <v>       0.00925926 </v>
    <v>       0.00925926 </v>
    <v>       0.01851852 </v>
    <v>       0.01851852 </v>
    <v>       0.01851852 </v>
    <v>       0.00925926 </v>
    <v>       0.00925926 </v>
    <v>       0.00925926 </v>
    <v>       0.00925926 </v>
    <v>       0.00925926 </v>
    <v>       0.00925926 </v>
    <v>       0.00925926 </v>
    <v>       0.00925926 </v>
    <v>       0.00925926 </v>
    <v>       0.01851852 </v>
    <v>       0.01851852 </v>
    <v>       0.01851852 </v>
    <v>       0.01851852 </v>
    <v>       0.01851852 </v>
    <v>       0.01851852 </v>
    <v>       0.01851852 </v>
    <v>       0.01851852 </v>
    <v>       0.01851852 </v>
    <v>       0.01851852 </v>
    <v>       0.01851852 </v>
    <v>       0.01851852 </v>
    <v>       0.01851852 </v>
    <v>       0.01851852 </v>
    <v>       0.01851852 </v>
    <v>       0.01851852 </v>
    <v>       0.01851852 </v>
    <v>       0.01851852 </v>
    <v>       0.01851852 </v>
    <v>       0.01851852 </v>
    <v>       0.01851852 </v>
    <v>       0.01851852 </v>
    <v>       0.01851852 </v>
    <v>       0.01851852 </v>
    <v>       0.01851852 </v>
    <v>       0.01851852 </v>
    <v>       0.01851852 </v>
    <v>       0.01851852 </v>
    <v>       0.01851852 </v>
    <v>       0.01851852 </v>
    <v>       0.01851852 </v>
    <v>       0.01851852 </v>
   </varray>
  </kpoints>
  <time name="totalsc">   31.09   19.34</time>
 </calculation>
 <calculation>
  <scstep>
   <time name="dav">    2.20    1.10</time>
   <time name="total">    2.74    1.47</time>
   <energy>
    <i name="alphaZ">    217.43841536 </i>
    <i name="ewald">  -6082.84572230 </i>
    <i name="hartreedc">  -2303.88198113 </i>
    <i name="XCdc">    230.43155995 </i>
    <i name="pawpsdc">   8473.81381857 </i>
    <i name="pawaedc">  -8569.72971253 </i>
    <i name="eentropy">     -0.00000000 </i>
    <i name="bandstr">   -599.33925951 </i>
    <i name="atom">   8598.20158228 </i>
    <i name="e_fr_energy">    -35.91129931 </i>
    <i name="e_wo_entrp">    -35.91129931 </i>
    <i name="e_0_energy">    -35.91129931 </i>
   </energy>
  </scstep>
  <scstep>
   <time name="dav">    2.92    1.47</time>
   <time name="total">    3.40    1.83</time>
   <energy>
    <i name="e_fr_energy">    -35.91412168 </i>
    <i name="e_wo_entrp">    -35.91412168 </i>
    <i name="e_0_energy">    -35.91412168 </i>
   </energy>
  </scstep>
  <scstep>
   <time name="dav">    2.71    1.36</time>
   <time name="total">    3.18    1.72</time>
   <energy>
    <i name="e_fr_energy">    -35.91419587 </i>
    <i name="e_wo_entrp">    -35.91419587 </i>
    <i name="e_0_energy">    -35.91419587 </i>
   </energy>
  </scstep>
  <scstep>
   <time name="dav">    2.98    1.50</time>
   <time name="total">    3.46    1.85</time>
   <energy>
    <i name="e_fr_energy">    -35.91419847 </i>
    <i name="e_wo_entrp">    -35.91419847 </i>
    <i name="e_0_energy">    -35.91419847 </i>
   </energy>
  </scstep>
  <scstep>
   <time name="dav">    3.06    1.54</time>
   <time name="total">    3.53    1.89</time>
   <energy>
    <i name="e_fr_energy">    -35.91419834 </i>
    <i name="e_wo_entrp">    -35.91419834 </i>
    <i name="e_0_energy">    -35.91419834 </i>
   </energy>
  </scstep>
  <scstep>
   <time name="dav">    3.05    1.53</time>
   <time name="total">    3.52    1.89</time>
   <energy>
    <i name="e_fr_energy">    -35.91419837 </i>
    <i name="e_wo_entrp">    -35.91419837 </i>
    <i name="e_0_energy">    -35.91419837 </i>
   </energy>
  </scstep>
  <scstep>
   <time name="dav">    2.58    1.30</time>
   <time name="total">    3.05    1.65</time>
   <energy>
    <i name="e_fr_energy">    -35.91419839 </i>
    <i name="e_wo_entrp">    -35.91419839 </i>
    <i name="e_0_energy">    -35.91419839 </i>
   </energy>
  </scstep>
  <scstep>
   <time name="dav">    2.06    1.03</time>
   <time name="total">    2.31    1.28</time>
   <energy>
    <i name="alphaZ">    217.43841536 </i>
    <i name="ewald">  -6082.84572230 </i>
    <i name="hartreedc">  -2303.75089647 </i>
    <i name="XCdc">    230.42631196 </i>
    <i name="pawpsdc">   8469.34491980 </i>
    <i name="pawaedc">  -8565.22667334 </i>
    <i name="eentropy">     -0.00000000 </i>
    <i name="bandstr">   -599.50213570 </i>
    <i name="atom">   8598.20158228 </i>
    <i name="e_fr_energy">    -35.91419840 </i>
    <i name="e_wo_entrp">    -35.91419840 </i>
    <i name="e_0_energy">    -35.91419840 </i>
   </energy>
  </scstep>
  <structure>
   <crystal>
    <varray name="basis" >
     <v>       4.34539863       0.00000000       0.00000000 </v>
     <v>       0.00000000       4.11936655       0.00000000 </v>
     <v>       0.00000000       0.00000000      11.35478920 </v>
    </varray>
    <i name="volume">    203.25401695 </i>
    <varray name="rec_basis" >
     <v>       0.23012848       0.00000000       0.00000000 </v>
     <v>       0.00000000       0.24275577       0.00000000 </v>
     <v>       0.00000000       0.00000000       0.08806857 </v>
    </varray>
   </crystal>
   <varray name="positions" >
    <v>       0.09673502       0.25000000       0.11539711 </v>
    <v>       0.40096369       0.25000000       0.61539711 </v>
    <v>       0.59903631       0.75000000       0.38460289 </v>
    <v>       0.90096369       0.75000000       0.88460289 </v>
    <v>       0.02605052       0.25000000       0.35675466 </v>
    <v>       0.47394948       0.25000000       0.85675466 </v>
    <v>       0.52605052       0.75000000       0.14324534 </v>
    <v>       0.97394948       0.75000000       0.64324534 </v>
   </varray>
  </structure>
  <varray name="forces" >
   <v>       0.02025472       0.00000000       0.01116552 </v>
   <v>       0.00919542       0.00000000       0.00503525 </v>
   <v>      -0.01120283       0.00000000      -0.00678398 </v>
   <v>       0.00616708       0.00000000      -0.00718361 </v>
   <v>      -0.00245002       0.00000000      -0.00323321 </v>
   <v>       0.00278808       0.00000000      -0.00359152 </v>
   <v>      -0.02811471       0.00000000       0.00084943 </v>
   <v>       0.00336225       0.00000000       0.00374212 </v>
  </varray>
  <varray name="stress" >
   <v>      -0.44934261       0.00000000      -0.08617779 </v>
   <v>       0.00000000      -0.21020861       0.00000000 </v>
   <v>      -0.08617755       0.00000000      -0.54964059 </v>
  </varray>
  <energy>
   <i name="e_fr_energy">    -37.43186359 </i>
   <i name="e_wo_entrp">    -37.43186359 </i>
   <i name="e_0_energy">    -37.43186359 </i>
  </energy>
  <kpoints>
   <generation param="Gamma">
    <v type="int" name="divisions">       8        9        3 </v>
    <v name="usershift">      0.00000000       0.00000000       0.00000000 </v>
    <v name="genvec1">      0.12500000       0.00000000       0.00000000 </v>
    <v name="genvec2">      0.00000000       0.11111111       0.00000000 </v>
    <v name="genvec3">      0.00000000       0.00000000       0.33333333 </v>
    <v name="shift">      0.00000000       0.00000000       0.00000000 </v>
   </generation>
   <varray name="kpointlist" >
    <v>       0.00000000       0.00000000       0.00000000 </v>
    <v>       0.12500000       0.00000000       0.00000000 </v>
    <v>       0.25000000       0.00000000       0.00000000 </v>
    <v>       0.37500000       0.00000000       0.00000000 </v>
    <v>       0.50000000       0.00000000       0.00000000 </v>
    <v>       0.00000000       0.11111111       0.00000000 </v>
    <v>       0.12500000       0.11111111       0.00000000 </v>
    <v>      -0.12500000       0.11111111       0.00000000 </v>
    <v>       0.25000000       0.11111111       0.00000000 </v>
    <v>      -0.25000000       0.11111111       0.00000000 </v>
    <v>       0.37500000       0.11111111       0.00000000 </v>
    <v>      -0.37500000       0.11111111       0.00000000 </v>
    <v>       0.50000000       0.11111111       0.00000000 </v>
    <v>       0.00000000       0.22222222       0.00000000 </v>
    <v>       0.12500000       0.22222222       0.00000000 </v>
    <v>      -0.12500000       0.22222222       0.00000000 </v>
    <v>       0.25000000       0.22222222       0.00000000 </v>
    <v>      -0.25000000       0.22222222       0.00000000 </v>
    <v>       0.37500000       0.22222222       0.00000000 </v>
    <v>      -0.37500000       0.22222222       0.00000000 </v>
    <v>       0.50000000       0.22222222       0.00000000 </v>
    <v>       0.00000000       0.33333333       0.00000000 </v>
    <v>       0.12500000       0.33333333       0.00000000 </v>
    <v>      -0.12500000       0.33333333       0.00000000 </v>
    <v>       0.25000000       0.33333333       0.00000000 </v>
    <v>      -0.25000000       0.33333333       0.00000000 </v>
    <v>       0.37500000       0.33333333       0.00000000 </v>
    <v>      -0.37500000       0.33333333       0.00000000 </v>
    <v>       0.50000000       0.33333333       0.00000000 </v>
    <v>       0.00000000       0.44444444       0.00000000 </v>
    <v>       0.12500000       0.44444444       0.00000000 </v>
    <v>      -0.12500000       0.44444444       0.00000000 </v>
    <v>       0.25000000       0.44444444       0.00000000 </v>
    <v>      -0.25000000       0.44444444       0.00000000 </v>
    <v>       0.37500000       0.44444444       0.00000000 </v>
    <v>      -0.37500000       0.44444444       0.00000000 </v>
    <v>       0.50000000       0.44444444       0.00000000 </v>
    <v>       0.00000000       0.00000000       0.33333333 </v>
    <v>       0.12500000       0.00000000       0.33333333 </v>
    <v>       0.12500000       0.00000000      -0.33333333 </v>
    <v>       0.25000000       0.00000000       0.33333333 </v>
    <v>       0.25000000       0.00000000      -0.33333333 </v>
    <v>       0.37500000       0.00000000       0.33333333 </v>
    <v>       0.37500000       0.00000000      -0.33333333 </v>
    <v>       0.50000000       0.00000000       0.33333333 </v>
    <v>       0.00000000       0.11111111       0.33333333 </v>
    <v>       0.00000000       0.11111111      -0.33333333 </v>
    <v>       0.12500000       0.11111111       0.33333333 </v>
    <v>      -0.12500000       0.11111111      -0.33333333 </v>
    <v>       0.12500000      -0.11111111      -0.33333333 </v>
    <v>      -0.12500000      -0.11111111       0.33333333 </v>
    <v>       0.25000000       0.11111111       0.33333333 </v>
    <v>      -0.25000000       0.11111111      -0.33333333 </v>
    <v>       0.25000000      -0.11111111      -0.33333333 </v>
    <v>      -0.25000000      -0.11111111       0.33333333 </v>
    <v>       0.37500000       0.11111111       0.33333333 </v>
    <v>      -0.37500000       0.11111111      -0.33333333 </v>
    <v>       0.37500000      -0.11111111      -0.33333333 </v>
    <v>      -0.37500000      -0.11111111       0.33333333 </v>
    <v>       0.50000000       0.11111111       0.33333333 </v>
    <v>       0.50000000       0.11111111      -0.33333333 </v>
    <v>       0.00000000       0.22222222       0.33333333 </v>
    <v>       0.00000000       0.22222222      -0.33333333 </v>
    <v>       0.12500000       0.22222222       0.33333333 </v>
    <v>      -0.12500000       0.22222222      -0.33333333 </v>
    <v>       0.12500000      -0.22222222      -0.33333333 </v>
    <v>      -0.12500000      -0.22222222       0.33333333 </v>
    <v>       0.25000000       0.22222222       0.33333333 </v>
    <v>      -0.25000000       0.22222222      -0.33333333 </v>
    <v>       0.25000000      -0.22222222      -0.33333333 </v>
    <v>      -0.25000000      -0.22222222       0.33333333 </v>
    <v>       0.37500000       0.22222222       0.33333333 </v>
    <v>      -0.37500000       0.22222222      -0.33333333 </v>
    <v>       0.37500000      -0.22222222      -0.33333333 </v>
    <v>      -0.37500000      -0.22222222       0.33333333 </v>
    <v>       0.50000000       0.22222222       0.33333333 </v>
    <v>       0.50000000       0.22222222      -0.33333333 </v>
    <v>       0.00000000       0.33333333       0.33333333 </v>
    <v>       0.00000000       0.33333333      -0.33333333 </v>
    <v>       0.12500000       0.33333333       0.33333333 </v>
    <v>      -0.12500000       0.33333333      -0.33333333 </v>
    <v>       0.12500000      -0.33333333      -0.33333333 </v>
    <v>      -0.12500000      -0.33333333       0.33333333 </v>
    <v>       0.25000000       0.33333333       0.33333333 </v>
    <v>      -0.25000000       0.33333333      -0.33333333 </v>
    <v>       0.25000000      -0.33333333      -0.33333333 </v>
    <v>      -0.25000000      -0.33333333       0.33333333 </v>
    <v>       0.37500000       0.33333333       0.33333333 </v>
    <v>      -0.37500000       0.33333333      -0.33333333 </v>
    <v>       0.37500000      -0.33333333      -0.33333333 </v>
    <v>      -0.37500000      -0.33333333       0.33333333 </v>
    <v>       0.50000000       0.33333333       0.33333333 </v>
    <v>       0.50000000       0.33333333      -0.33333333 </v>
    <v>       0.00000000       0.44444444       0.33333333 </v>
    <v>       0.00000000       0.44444444      -0.33333333 </v>
    <v>       0.12500000       0.44444444       0.33333333 </v>
    <v>      -0.12500000       0.44444444      -0.33333333 </v>
    <v>       0.12500000      -0.44444444      -0.33333333 </v>
    <v>      -0.12500000      -0.44444444       0.33333333 </v>
    <v>       0.25000000       0.44444444       0.33333333 </v>
    <v>      -0.25000000       0.44444444      -0.33333333 </v>
    <v>       0.25000000      -0.44444444      -0.33333333 </v>
    <v>      -0.25000000      -0.44444444       0.33333333 </v>
    <v>       0.37500000       0.44444444       0.33333333 </v>
    <v>      -0.37500000       0.44444444      -0.33333333 </v>
    <v>       0.37500000      -0.44444444      -0.33333333 </v>
    <v>      -0.37500000      -0.44444444       0.33333333 </v>
    <v>       0.50000000       0.44444444       0.33333333 </v>
    <v>       0.50000000       0.44444444      -0.33333333 </v>
   </varray>
   <varray name="weights" >
    <v>       0.00462963 </v>
    <v>       0.00925926 </v>
    <v>       0.00925926 </v>
    <v>       0.00925926 </v>
    <v>       0.00462963 </v>
    <v>       0.00925926 </v>
    <v>       0.00925926 </v>
    <v>       0.00925926 </v>
    <v>       0.00925926 </v>
    <v>       0.00925926 </v>
    <v>       0.00925926 </v>
    <v>       0.00925926 </v>
    <v>       0.00925926 </v>
    <v>       0.00925926 </v>
    <v>       0.00925926 </v>
    <v>       0.00925926 </v>
    <v>       0.00925926 </v>
    <v>       0.00925926 </v>
    <v>       0.00925926 </v>
    <v>       0.00925926 </v>
    <v>       0.00925926 </v>
    <v>       0.00925926 </v>
    <v>       0.00925926 </v>
    <v>       0.00925926 </v>
    <v>       0.00925926 </v>
    <v>       0.00925926 </v>
    <v>       0.00925926 </v>
    <v>       0.00925926 </v>
    <v>       0.00925926 </v>
    <v>       0.00925926 </v>
    <v>       0.00925926 </v>
    <v>       0.00925926 </v>
    <v>       0.00925926 </v>
    <v>       0.00925926 </v>
    <v>       0.00925926 </v>
    <v>       0.00925926 </v>
    <v>       0.00925926 </v>
    <v>       0.00925926 </v>
    <v>       0.00925926 </v>
    <v>       0.00925926 </v>
    <v>       0.00925926 </v>
    <v>       0.00925926 </v>
    <v>       0.00925926 </v>
    <v>       0.00925926 </v>
    <v>       0.00925926 </v>
    <v>       0.00925926 </v>
    <v>       0.00925926 </v>
    <v>       0.00925926 </v>
    <v>       0.00925926 </v>
    <v>       0.00925926 </v>
    <v>       0.00925926 </v>
    <v>       0.00925926 </v>
    <v>       0.00925926 </v>
    <v>       0.00925926 </v>
    <v>       0.00925926 </v>
    <v>       0.00925926 </v>
    <v>       0.00925926 </v>
    <v>       0.00925926 </v>
    <v>       0.00925926 </v>
    <v>       0.00925926 </v>
    <v>       0.00925926 </v>
    <v>       0.00925926 </v>
    <v>       0.00925926 </v>
    <v>       0.00925926 </v>
    <v>       0.00925926 </v>
    <v>       0.00925926 </v>
    <v>       0.00925926 </v>
    <v>       0.00925926 </v>
    <v>       0.00925926 </v>
    <v>       0.00925926 </v>
    <v>       0.00925926 </v>
    <v>       0.00925926 </v>
    <v>       0.00925926 </v>
    <v>       0.00925926 </v>
    <v>       0.00925926 </v>
    <v>       0.00925926 </v>
    <v>       0.00925926 </v>
    <v>       0.00925926 </v>
    <v>       0.00925926 </v>
    <v>       0.00925926 </v>
    <v>       0.00925926 </v>
    <v>       0.00925926 </v>
    <v>       0.00925926 </v>
    <v>       0.00925926 </v>
    <v>       0.00925926 </v>
    <v>       0.00925926 </v>
    <v>       0.00925926 </v>
    <v>       0.00925926 </v>
    <v>       0.00925926 </v>
    <v>       0.00925926 </v>
    <v>       0.00925926 </v>
    <v>       0.00925926 </v>
    <v>       0.00925926 </v>
    <v>       0.00925926 </v>
    <v>       0.00925926 </v>
    <v>       0.00925926 </v>
    <v>       0.00925926 </v>
    <v>       0.00925926 </v>
    <v>       0.00925926 </v>
    <v>       0.00925926 </v>
    <v>       0.00925926 </v>
    <v>       0.00925926 </v>
    <v>       0.00925926 </v>
    <v>       0.00925926 </v>
    <v>       0.00925926 </v>
    <v>       0.00925926 </v>
    <v>       0.00925926 </v>
    <v>       0.00925926 </v>
    <v>       0.00925926 </v>
   </varray>
  </kpoints>
  <time name="totalsc">   32.60   19.41</time>
 </calculation>
 <calculation>
  <scstep>
   <time name="dav">    3.25    1.63</time>
   <time name="total">    3.71    2.00</time>
   <energy>
    <i name="alphaZ">    217.43841536 </i>
    <i name="ewald">  -6082.72152339 </i>
    <i name="hartreedc">  -2303.80391654 </i>
    <i name="XCdc">    230.42820131 </i>
    <i name="pawpsdc">   8469.34334546 </i>
    <i name="pawaedc">  -8565.22513673 </i>
    <i name="eentropy">     -0.00000000 </i>
    <i name="bandstr">   -599.57315459 </i>
    <i name="atom">   8598.20158228 </i>
    <i name="e_fr_energy">    -35.91218685 </i>
    <i name="e_wo_entrp">    -35.91218685 </i>
    <i name="e_0_energy">    -35.91218685 </i>
   </energy>
  </scstep>
  <scstep>
   <time name="dav">    4.16    2.08</time>
   <time name="total">    4.60    2.46</time>
   <energy>
    <i name="e_fr_energy">    -35.91388704 </i>
    <i name="e_wo_entrp">    -35.91388704 </i>
    <i name="e_0_energy">    -35.91388704 </i>
   </energy>
  </scstep>
  <scstep>
   <time name="dav">    4.54    2.34</time>
   <time name="total">    4.90    2.70</time>
   <energy>
    <i name="e_fr_energy">    -35.91393565 </i>
    <i name="e_wo_entrp">    -35.91393565 </i>
    <i name="e_0_energy">    -35.91393565 </i>
   </energy>
  </scstep>
  <scstep>
   <time name="dav">    4.96    2.48</time>
   <time name="total">    5.38    2.85</time>
   <energy>
    <i name="e_fr_energy">    -35.91393837 </i>
    <i name="e_wo_entrp">    -35.91393837 </i>
    <i name="e_0_energy">    -35.91393837 </i>
   </energy>
  </scstep>
  <scstep>
   <time name="dav">    5.24    2.63</time>
   <time name="total">    5.66    3.00</time>
   <energy>
    <i name="e_fr_energy">    -35.91393860 </i>
    <i name="e_wo_entrp">    -35.91393860 </i>
    <i name="e_0_energy">    -35.91393860 </i>
   </energy>
  </scstep>
  <scstep>
   <time name="dav">    4.03    2.02</time>
   <time name="total">    4.40    2.39</time>
   <energy>
    <i name="e_fr_energy">    -35.91393858 </i>
    <i name="e_wo_entrp">    -35.91393858 </i>
    <i name="e_0_energy">    -35.91393858 </i>
   </energy>
  </scstep>
  <scstep>
   <time name="dav">    4.02    2.03</time>
   <time name="total">    4.38    2.40</time>
   <energy>
    <i name="e_fr_energy">    -35.91393856 </i>
    <i name="e_wo_entrp">    -35.91393856 </i>
    <i name="e_0_energy">    -35.91393856 </i>
   </energy>
  </scstep>
  <scstep>
   <time name="dav">    3.28    1.65</time>
   <time name="total">    3.52    1.89</time>
   <energy>
    <i name="alphaZ">    217.43841536 </i>
    <i name="ewald">  -6082.72152339 </i>
    <i name="hartreedc">  -2303.86698177 </i>
    <i name="XCdc">    230.43072517 </i>
    <i name="pawpsdc">   8471.58662630 </i>
    <i name="pawaedc">  -8567.48560334 </i>
    <i name="eentropy">     -0.00000000 </i>
    <i name="bandstr">   -599.49717916 </i>
    <i name="atom">   8598.20158228 </i>
    <i name="e_fr_energy">    -35.91393855 </i>
    <i name="e_wo_entrp">    -35.91393855 </i>
    <i name="e_0_energy">    -35.91393855 </i>
   </energy>
  </scstep>
  <structure>
   <crystal>
    <varray name="basis" >
     <v>       4.34539863       0.00000000       0.00000000 </v>
     <v>       0.00000000       4.11936655       0.00000000 </v>
     <v>       0.00000000       0.00000000      11.35478920 </v>
    </varray>
    <i name="volume">    203.25401695 </i>
    <varray name="rec_basis" >
     <v>       0.23012848       0.00000000       0.00000000 </v>
     <v>       0.00000000       0.24275577       0.00000000 </v>
     <v>       0.00000000       0.00000000       0.08806857 </v>
    </varray>
   </crystal>
   <varray name="positions" >
    <v>       0.09903631       0.25242756       0.11539711 </v>
    <v>       0.40096369       0.25000000       0.61539711 </v>
    <v>       0.59903631       0.75000000       0.38460289 </v>
    <v>       0.90096369       0.75000000       0.88460289 </v>
    <v>       0.02605052       0.25000000       0.35675466 </v>
    <v>       0.47394948       0.25000000       0.85675466 </v>
    <v>       0.52605052       0.75000000       0.14324534 </v>
    <v>       0.97394948       0.75000000       0.64324534 </v>
   </varray>
  </structure>
  <varray name="forces" >
   <v>      -0.00819797      -0.02137646       0.00372100 </v>
   <v>       0.00772115       0.00045932       0.00375596 </v>
   <v>      -0.00771649       0.00079482      -0.00374742 </v>
   <v>       0.00770213       0.00402968      -0.00382196 </v>
   <v>      -0.00351698      -0.00126639      -0.00285949 </v>
   <v>       0.00353108      -0.00159941      -0.00285929 </v>
   <v>      -0.00305640       0.01896148       0.00293397 </v>
   <v>       0.00353348      -0.00000305       0.00287722 </v>
  </varray>
  <varray name="stress" >
   <v>       0.00888410       0.24853644       0.00160851 </v>
   <v>       0.24853741       0.03873033       0.02471422 </v>
   <v>       0.00160699       0.02471541      -0.51268401 </v>
  </varray>
  <energy>
   <i name="e_fr_energy">    -37.43182225 </i>
   <i name="e_wo_entrp">    -37.43182225 </i>
   <i name="e_0_energy">    -37.43182225 </i>
  </energy>
  <kpoints>
   <generation param="Gamma">
    <v type="int" name="divisions">       8        9        3 </v>
    <v name="usershift">      0.00000000       0.00000000       0.00000000 </v>
    <v name="genvec1">      0.12500000       0.00000000       0.00000000 </v>
    <v name="genvec2">      0.00000000       0.11111111       0.00000000 </v>
    <v name="genvec3">      0.00000000       0.00000000       0.33333333 </v>
    <v name="shift">      0.00000000       0.00000000       0.00000000 </v>
   </generation>
   <varray name="kpointlist" >
    <v>       0.00000000       0.00000000       0.00000000 </v>
    <v>       0.12500000       0.00000000       0.00000000 </v>
    <v>       0.25000000       0.00000000       0.00000000 </v>
    <v>       0.37500000       0.00000000       0.00000000 </v>
    <v>       0.50000000       0.00000000       0.00000000 </v>
    <v>       0.00000000       0.11111111       0.00000000 </v>
    <v>       0.12500000       0.11111111       0.00000000 </v>
    <v>      -0.12500000       0.11111111       0.00000000 </v>
    <v>       0.25000000       0.11111111       0.00000000 </v>
    <v>      -0.25000000       0.11111111       0.00000000 </v>
    <v>       0.37500000       0.11111111       0.00000000 </v>
    <v>      -0.37500000       0.11111111       0.00000000 </v>
    <v>       0.50000000       0.11111111       0.00000000 </v>
    <v>       0.00000000       0.22222222       0.00000000 </v>
    <v>       0.12500000       0.22222222       0.00000000 </v>
    <v>      -0.12500000       0.22222222       0.00000000 </v>
    <v>       0.25000000       0.22222222       0.00000000 </v>
    <v>      -0.25000000       0.22222222       0.00000000 </v>
    <v>       0.37500000       0.22222222       0.00000000 </v>
    <v>      -0.37500000       0.22222222       0.00000000 </v>
    <v>       0.50000000       0.22222222       0.00000000 </v>
    <v>       0.00000000       0.33333333       0.00000000 </v>
    <v>       0.12500000       0.33333333       0.00000000 </v>
    <v>      -0.12500000       0.33333333       0.00000000 </v>
    <v>       0.25000000       0.33333333       0.00000000 </v>
    <v>      -0.25000000       0.33333333       0.00000000 </v>
    <v>       0.37500000       0.33333333       0.00000000 </v>
    <v>      -0.37500000       0.33333333       0.00000000 </v>
    <v>       0.50000000       0.33333333       0.00000000 </v>
    <v>       0.00000000       0.44444444       0.00000000 </v>
    <v>       0.12500000       0.44444444       0.00000000 </v>
    <v>      -0.12500000       0.44444444       0.00000000 </v>
    <v>       0.25000000       0.44444444       0.00000000 </v>
    <v>      -0.25000000       0.44444444       0.00000000 </v>
    <v>       0.37500000       0.44444444       0.00000000 </v>
    <v>      -0.37500000       0.44444444       0.00000000 </v>
    <v>       0.50000000       0.44444444       0.00000000 </v>
    <v>       0.00000000       0.00000000       0.33333333 </v>
    <v>       0.12500000       0.00000000       0.33333333 </v>
    <v>       0.12500000       0.00000000      -0.33333333 </v>
    <v>       0.25000000       0.00000000       0.33333333 </v>
    <v>       0.25000000       0.00000000      -0.33333333 </v>
    <v>       0.37500000       0.00000000       0.33333333 </v>
    <v>       0.37500000       0.00000000      -0.33333333 </v>
    <v>       0.50000000       0.00000000       0.33333333 </v>
    <v>       0.00000000       0.11111111       0.33333333 </v>
    <v>       0.00000000       0.11111111      -0.33333333 </v>
    <v>       0.12500000       0.11111111       0.33333333 </v>
    <v>      -0.12500000       0.11111111      -0.33333333 </v>
    <v>       0.12500000      -0.11111111      -0.33333333 </v>
    <v>      -0.12500000      -0.11111111       0.33333333 </v>
    <v>       0.25000000       0.11111111       0.33333333 </v>
    <v>      -0.25000000       0.11111111      -0.33333333 </v>
    <v>       0.25000000      -0.11111111      -0.33333333 </v>
    <v>      -0.25000000      -0.11111111       0.33333333 </v>
    <v>       0.37500000       0.11111111       0.33333333 </v>
    <v>      -0.37500000       0.11111111      -0.33333333 </v>
    <v>       0.37500000      -0.11111111      -0.33333333 </v>
    <v>      -0.37500000      -0.11111111       0.33333333 </v>
    <v>       0.50000000       0.11111111       0.33333333 </v>
    <v>       0.50000000       0.11111111      -0.33333333 </v>
    <v>       0.00000000       0.22222222       0.33333333 </v>
    <v>       0.00000000       0.22222222      -0.33333333 </v>
    <v>       0.12500000       0.22222222       0.33333333 </v>
    <v>      -0.12500000       0.22222222      -0.33333333 </v>
    <v>       0.12500000      -0.22222222      -0.33333333 </v>
    <v>      -0.12500000      -0.22222222       0.33333333 </v>
    <v>       0.25000000       0.22222222       0.33333333 </v>
    <v>      -0.25000000       0.22222222      -0.33333333 </v>
    <v>       0.25000000      -0.22222222      -0.33333333 </v>
    <v>      -0.25000000      -0.22222222       0.33333333 </v>
    <v>       0.37500000       0.22222222       0.33333333 </v>
    <v>      -0.37500000       0.22222222      -0.33333333 </v>
    <v>       0.37500000      -0.22222222      -0.33333333 </v>
    <v>      -0.37500000      -0.22222222       0.33333333 </v>
    <v>       0.50000000       0.22222222       0.33333333 </v>
    <v>       0.50000000       0.22222222      -0.33333333 </v>
    <v>       0.00000000       0.33333333       0.33333333 </v>
    <v>       0.00000000       0.33333333      -0.33333333 </v>
    <v>       0.12500000       0.33333333       0.33333333 </v>
    <v>      -0.12500000       0.33333333      -0.33333333 </v>
    <v>       0.12500000      -0.33333333      -0.33333333 </v>
    <v>      -0.12500000      -0.33333333       0.33333333 </v>
    <v>       0.25000000       0.33333333       0.33333333 </v>
    <v>      -0.25000000       0.33333333      -0.33333333 </v>
    <v>       0.25000000      -0.33333333      -0.33333333 </v>
    <v>      -0.25000000      -0.33333333       0.33333333 </v>
    <v>       0.37500000       0.33333333       0.33333333 </v>
    <v>      -0.37500000       0.33333333      -0.33333333 </v>
    <v>       0.37500000      -0.33333333      -0.33333333 </v>
    <v>      -0.37500000      -0.33333333       0.33333333 </v>
    <v>       0.50000000       0.33333333       0.33333333 </v>
    <v>       0.50000000       0.33333333      -0.33333333 </v>
    <v>       0.00000000       0.44444444       0.33333333 </v>
    <v>       0.00000000       0.44444444      -0.33333333 </v>
    <v>       0.12500000       0.44444444       0.33333333 </v>
    <v>      -0.12500000       0.44444444      -0.33333333 </v>
    <v>       0.12500000      -0.44444444      -0.33333333 </v>
    <v>      -0.12500000      -0.44444444       0.33333333 </v>
    <v>       0.25000000       0.44444444       0.33333333 </v>
    <v>      -0.25000000       0.44444444      -0.33333333 </v>
    <v>       0.25000000      -0.44444444      -0.33333333 </v>
    <v>      -0.25000000      -0.44444444       0.33333333 </v>
    <v>       0.37500000       0.44444444       0.33333333 </v>
    <v>      -0.37500000       0.44444444      -0.33333333 </v>
    <v>       0.37500000      -0.44444444      -0.33333333 </v>
    <v>      -0.37500000      -0.44444444       0.33333333 </v>
    <v>       0.50000000       0.44444444       0.33333333 </v>
    <v>       0.50000000       0.44444444      -0.33333333 </v>
   </varray>
   <varray name="weights" >
    <v>       0.00462963 </v>
    <v>       0.00925926 </v>
    <v>       0.00925926 </v>
    <v>       0.00925926 </v>
    <v>       0.00462963 </v>
    <v>       0.00925926 </v>
    <v>       0.00925926 </v>
    <v>       0.00925926 </v>
    <v>       0.00925926 </v>
    <v>       0.00925926 </v>
    <v>       0.00925926 </v>
    <v>       0.00925926 </v>
    <v>       0.00925926 </v>
    <v>       0.00925926 </v>
    <v>       0.00925926 </v>
    <v>       0.00925926 </v>
    <v>       0.00925926 </v>
    <v>       0.00925926 </v>
    <v>       0.00925926 </v>
    <v>       0.00925926 </v>
    <v>       0.00925926 </v>
    <v>       0.00925926 </v>
    <v>       0.00925926 </v>
    <v>       0.00925926 </v>
    <v>       0.00925926 </v>
    <v>       0.00925926 </v>
    <v>       0.00925926 </v>
    <v>       0.00925926 </v>
    <v>       0.00925926 </v>
    <v>       0.00925926 </v>
    <v>       0.00925926 </v>
    <v>       0.00925926 </v>
    <v>       0.00925926 </v>
    <v>       0.00925926 </v>
    <v>       0.00925926 </v>
    <v>       0.00925926 </v>
    <v>       0.00925926 </v>
    <v>       0.00925926 </v>
    <v>       0.00925926 </v>
    <v>       0.00925926 </v>
    <v>       0.00925926 </v>
    <v>       0.00925926 </v>
    <v>       0.00925926 </v>
    <v>       0.00925926 </v>
    <v>       0.00925926 </v>
    <v>       0.00925926 </v>
    <v>       0.00925926 </v>
    <v>       0.00925926 </v>
    <v>       0.00925926 </v>
    <v>       0.00925926 </v>
    <v>       0.00925926 </v>
    <v>       0.00925926 </v>
    <v>       0.00925926 </v>
    <v>       0.00925926 </v>
    <v>       0.00925926 </v>
    <v>       0.00925926 </v>
    <v>       0.00925926 </v>
    <v>       0.00925926 </v>
    <v>       0.00925926 </v>
    <v>       0.00925926 </v>
    <v>       0.00925926 </v>
    <v>       0.00925926 </v>
    <v>       0.00925926 </v>
    <v>       0.00925926 </v>
    <v>       0.00925926 </v>
    <v>       0.00925926 </v>
    <v>       0.00925926 </v>
    <v>       0.00925926 </v>
    <v>       0.00925926 </v>
    <v>       0.00925926 </v>
    <v>       0.00925926 </v>
    <v>       0.00925926 </v>
    <v>       0.00925926 </v>
    <v>       0.00925926 </v>
    <v>       0.00925926 </v>
    <v>       0.00925926 </v>
    <v>       0.00925926 </v>
    <v>       0.00925926 </v>
    <v>       0.00925926 </v>
    <v>       0.00925926 </v>
    <v>       0.00925926 </v>
    <v>       0.00925926 </v>
    <v>       0.00925926 </v>
    <v>       0.00925926 </v>
    <v>       0.00925926 </v>
    <v>       0.00925926 </v>
    <v>       0.00925926 </v>
    <v>       0.00925926 </v>
    <v>       0.00925926 </v>
    <v>       0.00925926 </v>
    <v>       0.00925926 </v>
    <v>       0.00925926 </v>
    <v>       0.00925926 </v>
    <v>       0.00925926 </v>
    <v>       0.00925926 </v>
    <v>       0.00925926 </v>
    <v>       0.00925926 </v>
    <v>       0.00925926 </v>
    <v>       0.00925926 </v>
    <v>       0.00925926 </v>
    <v>       0.00925926 </v>
    <v>       0.00925926 </v>
    <v>       0.00925926 </v>
    <v>       0.00925926 </v>
    <v>       0.00925926 </v>
    <v>       0.00925926 </v>
    <v>       0.00925926 </v>
    <v>       0.00925926 </v>
    <v>       0.00925926 </v>
   </varray>
  </kpoints>
  <time name="totalsc">   46.18   27.52</time>
 </calculation>
 <calculation>
  <scstep>
   <time name="dav">    3.41    1.71</time>
   <time name="total">    3.87    2.07</time>
   <energy>
    <i name="alphaZ">    217.43841536 </i>
    <i name="ewald">  -6082.72152339 </i>
    <i name="hartreedc">  -2303.86945271 </i>
    <i name="XCdc">    230.43083271 </i>
    <i name="pawpsdc">   8471.58772773 </i>
    <i name="pawaedc">  -8567.48671471 </i>
    <i name="eentropy">     -0.00000000 </i>
    <i name="bandstr">   -599.49231181 </i>
    <i name="atom">   8598.20158228 </i>
    <i name="e_fr_energy">    -35.91144453 </i>
    <i name="e_wo_entrp">    -35.91144453 </i>
    <i name="e_0_energy">    -35.91144453 </i>
   </energy>
  </scstep>
  <scstep>
   <time name="dav">    4.05    2.12</time>
   <time name="total">    4.41    2.49</time>
   <energy>
    <i name="e_fr_energy">    -35.91388510 </i>
    <i name="e_wo_entrp">    -35.91388510 </i>
    <i name="e_0_energy">    -35.91388510 </i>
   </energy>
  </scstep>
  <scstep>
   <time name="dav">    4.60    2.31</time>
   <time name="total">    4.97    2.68</time>
   <energy>
    <i name="e_fr_energy">    -35.91393437 </i>
    <i name="e_wo_entrp">    -35.91393437 </i>
    <i name="e_0_energy">    -35.91393437 </i>
   </energy>
  </scstep>
  <scstep>
   <time name="dav">    4.44    2.29</time>
   <time name="total">    4.80    2.66</time>
   <energy>
    <i name="e_fr_energy">    -35.91393845 </i>
    <i name="e_wo_entrp">    -35.91393845 </i>
    <i name="e_0_energy">    -35.91393845 </i>
   </energy>
  </scstep>
  <scstep>
   <time name="dav">    4.30    2.16</time>
   <time name="total">    4.75    2.52</time>
   <energy>
    <i name="e_fr_energy">    -35.91393857 </i>
    <i name="e_wo_entrp">    -35.91393857 </i>
    <i name="e_0_energy">    -35.91393857 </i>
   </energy>
  </scstep>
  <scstep>
   <time name="dav">    4.66    2.35</time>
   <time name="total">    5.03    2.72</time>
   <energy>
    <i name="e_fr_energy">    -35.91393855 </i>
    <i name="e_wo_entrp">    -35.91393855 </i>
    <i name="e_0_energy">    -35.91393855 </i>
   </energy>
  </scstep>
  <scstep>
   <time name="dav">    3.52    1.77</time>
   <time name="total">    3.77    2.01</time>
   <energy>
    <i name="alphaZ">    217.43841536 </i>
    <i name="ewald">  -6082.72152339 </i>
    <i name="hartreedc">  -2303.86713993 </i>
    <i name="XCdc">    230.43073358 </i>
    <i name="pawpsdc">   8471.58804693 </i>
    <i name="pawaedc">  -8567.48696582 </i>
    <i name="eentropy">     -0.00000000 </i>
    <i name="bandstr">   -599.49708756 </i>
    <i name="atom">   8598.20158228 </i>
    <i name="e_fr_energy">    -35.91393855 </i>
    <i name="e_wo_entrp">    -35.91393855 </i>
    <i name="e_0_energy">    -35.91393855 </i>
   </energy>
  </scstep>
  <structure>
   <crystal>
    <varray name="basis" >
     <v>       4.34539863       0.00000000       0.00000000 </v>
     <v>       0.00000000       4.11936655       0.00000000 </v>
     <v>       0.00000000       0.00000000      11.35478920 </v>
    </varray>
    <i name="volume">    203.25401695 </i>
    <varray name="rec_basis" >
     <v>       0.23012848       0.00000000       0.00000000 </v>
     <v>       0.00000000       0.24275577       0.00000000 </v>
     <v>       0.00000000       0.00000000       0.08806857 </v>
    </varray>
   </crystal>
   <varray name="positions" >
    <v>       0.09903631       0.24757244       0.11539711 </v>
    <v>       0.40096369       0.25000000       0.61539711 </v>
    <v>       0.59903631       0.75000000       0.38460289 </v>
    <v>       0.90096369       0.75000000       0.88460289 </v>
    <v>       0.02605052       0.25000000       0.35675466 </v>
    <v>       0.47394948       0.25000000       0.85675466 </v>
    <v>       0.52605052       0.75000000       0.14324534 </v>
    <v>       0.97394948       0.75000000       0.64324534 </v>
   </varray>
  </structure>
  <varray name="forces" >
   <v>      -0.00825405       0.02140266       0.00369311 </v>
   <v>       0.00771936      -0.00046615       0.00376577 </v>
   <v>      -0.00770286      -0.00080303      -0.00373377 </v>
   <v>       0.00770494      -0.00402912      -0.00384672 </v>
   <v>      -0.00350608       0.00125790      -0.00285173 </v>
   <v>       0.00354191       0.00159258      -0.00285111 </v>
   <v>      -0.00304844      -0.01895094       0.00294002 </v>
   <v>       0.00354523      -0.00000391       0.00288443 </v>
  </varray>
  <varray name="stress" >
   <v>       0.00585620      -0.24870262       0.00141895 </v>
   <v>      -0.24870294       0.03564862      -0.02497259 </v>
   <v>       0.00141882      -0.02497184      -0.51532615 </v>
  </varray>
  <energy>
   <i name="e_fr_energy">    -37.43182225 </i>
   <i name="e_wo_entrp">    -37.43182225 </i>
   <i name="e_0_energy">    -37.43182225 </i>
  </energy>
  <kpoints>
   <generation param="Gamma">
    <v type="int" name="divisions">       8        9        3 </v>
    <v name="usershift">      0.00000000       0.00000000       0.00000000 </v>
    <v name="genvec1">      0.12500000       0.00000000       0.00000000 </v>
    <v name="genvec2">      0.00000000       0.11111111       0.00000000 </v>
    <v name="genvec3">      0.00000000       0.00000000       0.33333333 </v>
    <v name="shift">      0.00000000       0.00000000       0.00000000 </v>
   </generation>
   <varray name="kpointlist" >
    <v>       0.00000000       0.00000000       0.00000000 </v>
    <v>       0.12500000       0.00000000       0.00000000 </v>
    <v>       0.25000000       0.00000000       0.00000000 </v>
    <v>       0.37500000       0.00000000       0.00000000 </v>
    <v>       0.50000000       0.00000000       0.00000000 </v>
    <v>       0.00000000       0.11111111       0.00000000 </v>
    <v>       0.12500000       0.11111111       0.00000000 </v>
    <v>       0.25000000       0.11111111       0.00000000 </v>
    <v>       0.37500000       0.11111111       0.00000000 </v>
    <v>       0.50000000       0.11111111       0.00000000 </v>
    <v>       0.00000000       0.22222222       0.00000000 </v>
    <v>       0.12500000       0.22222222       0.00000000 </v>
    <v>       0.25000000       0.22222222       0.00000000 </v>
    <v>       0.37500000       0.22222222       0.00000000 </v>
    <v>       0.50000000       0.22222222       0.00000000 </v>
    <v>       0.00000000       0.33333333       0.00000000 </v>
    <v>       0.12500000       0.33333333       0.00000000 </v>
    <v>       0.25000000       0.33333333       0.00000000 </v>
    <v>       0.37500000       0.33333333       0.00000000 </v>
    <v>       0.50000000       0.33333333       0.00000000 </v>
    <v>       0.00000000       0.44444444       0.00000000 </v>
    <v>       0.12500000       0.44444444       0.00000000 </v>
    <v>       0.25000000       0.44444444       0.00000000 </v>
    <v>       0.37500000       0.44444444       0.00000000 </v>
    <v>       0.50000000       0.44444444       0.00000000 </v>
    <v>       0.00000000       0.00000000       0.33333333 </v>
    <v>       0.12500000       0.00000000       0.33333333 </v>
    <v>       0.12500000       0.00000000      -0.33333333 </v>
    <v>       0.25000000       0.00000000       0.33333333 </v>
    <v>       0.25000000       0.00000000      -0.33333333 </v>
    <v>       0.37500000       0.00000000       0.33333333 </v>
    <v>       0.37500000       0.00000000      -0.33333333 </v>
    <v>       0.50000000       0.00000000       0.33333333 </v>
    <v>       0.00000000       0.11111111       0.33333333 </v>
    <v>       0.12500000       0.11111111       0.33333333 </v>
    <v>       0.12500000      -0.11111111      -0.33333333 </v>
    <v>       0.25000000       0.11111111       0.33333333 </v>
    <v>       0.25000000      -0.11111111      -0.33333333 </v>
    <v>       0.37500000       0.11111111       0.33333333 </v>
    <v>       0.37500000      -0.11111111      -0.33333333 </v>
    <v>       0.50000000       0.11111111       0.33333333 </v>
    <v>       0.00000000       0.22222222       0.33333333 </v>
    <v>       0.12500000       0.22222222       0.33333333 </v>
    <v>       0.12500000      -0.22222222      -0.33333333 </v>
    <v>       0.25000000       0.22222222       0.33333333 </v>
    <v>       0.25000000      -0.22222222      -0.33333333 </v>
    <v>       0.37500000       0.22222222       0.33333333 </v>
    <v>       0.37500000      -0.22222222      -0.33333333 </v>
    <v>       0.50000000       0.22222222       0.33333333 </v>
    <v>       0.00000000       0.33333333       0.33333333 </v>
    <v>       0.12500000       0.33333333       0.33333333 </v>
    <v>       0.12500000      -0.33333333      -0.33333333 </v>
    <v>       0.25000000       0.33333333       0.33333333 </v>
    <v>       0.25000000      -0.33333333      -0.33333333 </v>
    <v>       0.37500000       0.33333333       0.33333333 </v>
    <v>       0.37500000      -0.33333333      -0.33333333 </v>
    <v>       0.50000000       0.33333333       0.33333333 </v>
    <v>       0.00000000       0.44444444       0.33333333 </v>
    <v>       0.12500000       0.44444444       0.33333333 </v>
    <v>       0.12500000      -0.44444444      -0.33333333 </v>
    <v>       0.25000000       0.44444444       0.33333333 </v>
    <v>       0.25000000      -0.44444444      -0.33333333 </v>
    <v>       0.37500000       0.44444444       0.33333333 </v>
    <v>       0.37500000      -0.44444444      -0.33333333 </v>
    <v>       0.50000000       0.44444444       0.33333333 </v>
   </varray>
   <varray name="weights" >
    <v>       0.00462963 </v>
    <v>       0.00925926 </v>
    <v>       0.00925926 </v>
    <v>       0.00925926 </v>
    <v>       0.00462963 </v>
    <v>       0.00925926 </v>
    <v>       0.01851852 </v>
    <v>       0.01851852 </v>
    <v>       0.01851852 </v>
    <v>       0.00925926 </v>
    <v>       0.00925926 </v>
    <v>       0.01851852 </v>
    <v>       0.01851852 </v>
    <v>       0.01851852 </v>
    <v>       0.00925926 </v>
    <v>       0.00925926 </v>
    <v>       0.01851852 </v>
    <v>       0.01851852 </v>
    <v>       0.01851852 </v>
    <v>       0.00925926 </v>
    <v>       0.00925926 </v>
    <v>       0.01851852 </v>
    <v>       0.01851852 </v>
    <v>       0.01851852 </v>
    <v>       0.00925926 </v>
    <v>       0.00925926 </v>
    <v>       0.00925926 </v>
    <v>       0.00925926 </v>
    <v>       0.00925926 </v>
    <v>       0.00925926 </v>
    <v>       0.00925926 </v>
    <v>       0.00925926 </v>
    <v>       0.00925926 </v>
    <v>       0.01851852 </v>
    <v>       0.01851852 </v>
    <v>       0.01851852 </v>
    <v>       0.01851852 </v>
    <v>       0.01851852 </v>
    <v>       0.01851852 </v>
    <v>       0.01851852 </v>
    <v>       0.01851852 </v>
    <v>       0.01851852 </v>
    <v>       0.01851852 </v>
    <v>       0.01851852 </v>
    <v>       0.01851852 </v>
    <v>       0.01851852 </v>
    <v>       0.01851852 </v>
    <v>       0.01851852 </v>
    <v>       0.01851852 </v>
    <v>       0.01851852 </v>
    <v>       0.01851852 </v>
    <v>       0.01851852 </v>
    <v>       0.01851852 </v>
    <v>       0.01851852 </v>
    <v>       0.01851852 </v>
    <v>       0.01851852 </v>
    <v>       0.01851852 </v>
    <v>       0.01851852 </v>
    <v>       0.01851852 </v>
    <v>       0.01851852 </v>
    <v>       0.01851852 </v>
    <v>       0.01851852 </v>
    <v>       0.01851852 </v>
    <v>       0.01851852 </v>
    <v>       0.01851852 </v>
   </varray>
  </kpoints>
  <time name="totalsc">   40.84   24.64</time>
 </calculation>
 <calculation>
  <scstep>
   <time name="dav">    2.04    1.03</time>
   <time name="total">    2.58    1.38</time>
   <energy>
    <i name="alphaZ">    217.43841536 </i>
    <i name="ewald">  -6082.70222971 </i>
    <i name="hartreedc">  -2303.80275920 </i>
    <i name="XCdc">    230.43247424 </i>
    <i name="pawpsdc">   8471.58926957 </i>
    <i name="pawaedc">  -8567.48820819 </i>
    <i name="eentropy">     -0.00000000 </i>
    <i name="bandstr">   -599.58077321 </i>
    <i name="atom">   8598.20158228 </i>
    <i name="e_fr_energy">    -35.91222887 </i>
    <i name="e_wo_entrp">    -35.91222887 </i>
    <i name="e_0_energy">    -35.91222887 </i>
   </energy>
  </scstep>
  <scstep>
   <time name="dav">    2.78    1.40</time>
   <time name="total">    3.25    1.76</time>
   <energy>
    <i name="e_fr_energy">    -35.91386420 </i>
    <i name="e_wo_entrp">    -35.91386420 </i>
    <i name="e_0_energy">    -35.91386420 </i>
   </energy>
  </scstep>
  <scstep>
   <time name="dav">    2.37    1.19</time>
   <time name="total">    2.84    1.55</time>
   <energy>
    <i name="e_fr_energy">    -35.91391169 </i>
    <i name="e_wo_entrp">    -35.91391169 </i>
    <i name="e_0_energy">    -35.91391169 </i>
   </energy>
  </scstep>
  <scstep>
   <time name="dav">    3.09    1.55</time>
   <time name="total">    3.57    1.91</time>
   <energy>
    <i name="e_fr_energy">    -35.91390979 </i>
    <i name="e_wo_entrp">    -35.91390979 </i>
    <i name="e_0_energy">    -35.91390979 </i>
   </energy>
  </scstep>
  <scstep>
   <time name="dav">    3.06    1.54</time>
   <time name="total">    3.53    1.89</time>
   <energy>
    <i name="e_fr_energy">    -35.91390787 </i>
    <i name="e_wo_entrp">    -35.91390787 </i>
    <i name="e_0_energy">    -35.91390787 </i>
   </energy>
  </scstep>
  <scstep>
   <time name="dav">    2.15    1.08</time>
   <time name="total">    2.63    1.44</time>
   <energy>
    <i name="e_fr_energy">    -35.91390776 </i>
    <i name="e_wo_entrp">    -35.91390776 </i>
    <i name="e_0_energy">    -35.91390776 </i>
   </energy>
  </scstep>
  <scstep>
   <time name="dav">    2.94    1.47</time>
   <time name="total">    3.42    1.83</time>
   <energy>
    <i name="e_fr_energy">    -35.91390765 </i>
    <i name="e_wo_entrp">    -35.91390765 </i>
    <i name="e_0_energy">    -35.91390765 </i>
   </energy>
  </scstep>
  <scstep>
   <time name="dav">    1.72    0.86</time>
   <time name="total">    2.15    1.22</time>
   <energy>
    <i name="e_fr_energy">    -35.91390762 </i>
    <i name="e_wo_entrp">    -35.91390762 </i>
    <i name="e_0_energy">    -35.91390762 </i>
   </energy>
  </scstep>
  <scstep>
   <time name="dav">    1.86    0.99</time>
   <time name="total">    2.22    1.35</time>
   <energy>
    <i name="e_fr_energy">    -35.91390757 </i>
    <i name="e_wo_entrp">    -35.91390757 </i>
    <i name="e_0_energy">    -35.91390757 </i>
   </energy>
  </scstep>
  <scstep>
   <time name="dav">    1.38    0.69</time>
   <time name="total">    1.62    0.94</time>
   <energy>
    <i name="alphaZ">    217.43841536 </i>
    <i name="ewald">  -6082.70222971 </i>
    <i name="hartreedc">  -2303.89501914 </i>
    <i name="XCdc">    230.43637887 </i>
    <i name="pawpsdc">   8474.06240571 </i>
    <i name="pawaedc">  -8569.98057881 </i>
    <i name="eentropy">     -0.00000000 </i>
    <i name="bandstr">   -599.47486211 </i>
    <i name="atom">   8598.20158228 </i>
    <i name="e_fr_energy">    -35.91390756 </i>
    <i name="e_wo_entrp">    -35.91390756 </i>
    <i name="e_0_energy">    -35.91390756 </i>
   </energy>
  </scstep>
  <structure>
   <crystal>
    <varray name="basis" >
     <v>       4.34539863       0.00000000       0.00000000 </v>
     <v>       0.00000000       4.11936655       0.00000000 </v>
     <v>       0.00000000       0.00000000      11.35478920 </v>
    </varray>
    <i name="volume">    203.25401695 </i>
    <varray name="rec_basis" >
     <v>       0.23012848       0.00000000       0.00000000 </v>
     <v>       0.00000000       0.24275577       0.00000000 </v>
     <v>       0.00000000       0.00000000       0.08806857 </v>
    </varray>
   </crystal>
   <varray name="positions" >
    <v>       0.09903631       0.25000000       0.11627780 </v>
    <v>       0.40096369       0.25000000       0.61539711 </v>
    <v>       0.59903631       0.75000000       0.38460289 </v>
    <v>       0.90096369       0.75000000       0.88460289 </v>
    <v>       0.02605052       0.25000000       0.35675466 </v>
    <v>       0.47394948       0.25000000       0.85675466 </v>
    <v>       0.52605052       0.75000000       0.14324534 </v>
    <v>       0.97394948       0.75000000       0.64324534 </v>
   </varray>
  </structure>
  <varray name="forces" >
   <v>      -0.01509378       0.00000000      -0.04367260 </v>
   <v>       0.00897740       0.00000000       0.01373781 </v>
   <v>      -0.01075833       0.00000000      -0.00149253 </v>
   <v>       0.01108026       0.00000000       0.00485498 </v>
   <v>      -0.00199296       0.00000000       0.02937815 </v>
   <v>       0.00114745       0.00000000      -0.00745581 </v>
   <v>       0.00204127       0.00000000       0.00767363 </v>
   <v>       0.00459869       0.00000000      -0.00302364 </v>
  </varray>
  <varray name="stress" >
   <v>       0.22483394       0.00000000      -0.01406660 </v>
   <v>       0.00000000       0.23413111       0.00000000 </v>
   <v>      -0.01406624       0.00000000       0.07340075 </v>
  </varray>
  <energy>
   <i name="e_fr_energy">    -37.43173202 </i>
   <i name="e_wo_entrp">    -37.43173202 </i>
   <i name="e_0_energy">    -37.43173202 </i>
  </energy>
  <kpoints>
   <generation param="Gamma">
    <v type="int" name="divisions">       8        9        3 </v>
    <v name="usershift">      0.00000000       0.00000000       0.00000000 </v>
    <v name="genvec1">      0.12500000       0.00000000       0.00000000 </v>
    <v name="genvec2">      0.00000000       0.11111111       0.00000000 </v>
    <v name="genvec3">      0.00000000       0.00000000       0.33333333 </v>
    <v name="shift">      0.00000000       0.00000000       0.00000000 </v>
   </generation>
   <varray name="kpointlist" >
    <v>       0.00000000       0.00000000       0.00000000 </v>
    <v>       0.12500000       0.00000000       0.00000000 </v>
    <v>       0.25000000       0.00000000       0.00000000 </v>
    <v>       0.37500000       0.00000000       0.00000000 </v>
    <v>       0.50000000       0.00000000       0.00000000 </v>
    <v>       0.00000000       0.11111111       0.00000000 </v>
    <v>       0.12500000       0.11111111       0.00000000 </v>
    <v>       0.25000000       0.11111111       0.00000000 </v>
    <v>       0.37500000       0.11111111       0.00000000 </v>
    <v>       0.50000000       0.11111111       0.00000000 </v>
    <v>       0.00000000       0.22222222       0.00000000 </v>
    <v>       0.12500000       0.22222222       0.00000000 </v>
    <v>       0.25000000       0.22222222       0.00000000 </v>
    <v>       0.37500000       0.22222222       0.00000000 </v>
    <v>       0.50000000       0.22222222       0.00000000 </v>
    <v>       0.00000000       0.33333333       0.00000000 </v>
    <v>       0.12500000       0.33333333       0.00000000 </v>
    <v>       0.25000000       0.33333333       0.00000000 </v>
    <v>       0.37500000       0.33333333       0.00000000 </v>
    <v>       0.50000000       0.33333333       0.00000000 </v>
    <v>       0.00000000       0.44444444       0.00000000 </v>
    <v>       0.12500000       0.44444444       0.00000000 </v>
    <v>       0.25000000       0.44444444       0.00000000 </v>
    <v>       0.37500000       0.44444444       0.00000000 </v>
    <v>       0.50000000       0.44444444       0.00000000 </v>
    <v>       0.00000000       0.00000000       0.33333333 </v>
    <v>       0.12500000       0.00000000       0.33333333 </v>
    <v>       0.12500000       0.00000000      -0.33333333 </v>
    <v>       0.25000000       0.00000000       0.33333333 </v>
    <v>       0.25000000       0.00000000      -0.33333333 </v>
    <v>       0.37500000       0.00000000       0.33333333 </v>
    <v>       0.37500000       0.00000000      -0.33333333 </v>
    <v>       0.50000000       0.00000000       0.33333333 </v>
    <v>       0.00000000       0.11111111       0.33333333 </v>
    <v>       0.12500000       0.11111111       0.33333333 </v>
    <v>       0.12500000      -0.11111111      -0.33333333 </v>
    <v>       0.25000000       0.11111111       0.33333333 </v>
    <v>       0.25000000      -0.11111111      -0.33333333 </v>
    <v>       0.37500000       0.11111111       0.33333333 </v>
    <v>       0.37500000      -0.11111111      -0.33333333 </v>
    <v>       0.50000000       0.11111111       0.33333333 </v>
    <v>       0.00000000       0.22222222       0.33333333 </v>
    <v>       0.12500000       0.22222222       0.33333333 </v>
    <v>       0.12500000      -0.22222222      -0.33333333 </v>
    <v>       0.25000000       0.22222222       0.33333333 </v>
    <v>       0.25000000      -0.22222222      -0.33333333 </v>
    <v>       0.37500000       0.22222222       0.33333333 </v>
    <v>       0.37500000      -0.22222222      -0.33333333 </v>
    <v>       0.50000000       0.22222222       0.33333333 </v>
    <v>       0.00000000       0.33333333       0.33333333 </v>
    <v>       0.12500000       0.33333333       0.33333333 </v>
    <v>       0.12500000      -0.33333333      -0.33333333 </v>
    <v>       0.25000000       0.33333333       0.33333333 </v>
    <v>       0.25000000      -0.33333333      -0.33333333 </v>
    <v>       0.37500000       0.33333333       0.33333333 </v>
    <v>       0.37500000      -0.33333333      -0.33333333 </v>
    <v>       0.50000000       0.33333333       0.33333333 </v>
    <v>       0.00000000       0.44444444       0.33333333 </v>
    <v>       0.12500000       0.44444444       0.33333333 </v>
    <v>       0.12500000      -0.44444444      -0.33333333 </v>
    <v>       0.25000000       0.44444444       0.33333333 </v>
    <v>       0.25000000      -0.44444444      -0.33333333 </v>
    <v>       0.37500000       0.44444444       0.33333333 </v>
    <v>       0.37500000      -0.44444444      -0.33333333 </v>
    <v>       0.50000000       0.44444444       0.33333333 </v>
   </varray>
   <varray name="weights" >
    <v>       0.00462963 </v>
    <v>       0.00925926 </v>
    <v>       0.00925926 </v>
    <v>       0.00925926 </v>
    <v>       0.00462963 </v>
    <v>       0.00925926 </v>
    <v>       0.01851852 </v>
    <v>       0.01851852 </v>
    <v>       0.01851852 </v>
    <v>       0.00925926 </v>
    <v>       0.00925926 </v>
    <v>       0.01851852 </v>
    <v>       0.01851852 </v>
    <v>       0.01851852 </v>
    <v>       0.00925926 </v>
    <v>       0.00925926 </v>
    <v>       0.01851852 </v>
    <v>       0.01851852 </v>
    <v>       0.01851852 </v>
    <v>       0.00925926 </v>
    <v>       0.00925926 </v>
    <v>       0.01851852 </v>
    <v>       0.01851852 </v>
    <v>       0.01851852 </v>
    <v>       0.00925926 </v>
    <v>       0.00925926 </v>
    <v>       0.00925926 </v>
    <v>       0.00925926 </v>
    <v>       0.00925926 </v>
    <v>       0.00925926 </v>
    <v>       0.00925926 </v>
    <v>       0.00925926 </v>
    <v>       0.00925926 </v>
    <v>       0.01851852 </v>
    <v>       0.01851852 </v>
    <v>       0.01851852 </v>
    <v>       0.01851852 </v>
    <v>       0.01851852 </v>
    <v>       0.01851852 </v>
    <v>       0.01851852 </v>
    <v>       0.01851852 </v>
    <v>       0.01851852 </v>
    <v>       0.01851852 </v>
    <v>       0.01851852 </v>
    <v>       0.01851852 </v>
    <v>       0.01851852 </v>
    <v>       0.01851852 </v>
    <v>       0.01851852 </v>
    <v>       0.01851852 </v>
    <v>       0.01851852 </v>
    <v>       0.01851852 </v>
    <v>       0.01851852 </v>
    <v>       0.01851852 </v>
    <v>       0.01851852 </v>
    <v>       0.01851852 </v>
    <v>       0.01851852 </v>
    <v>       0.01851852 </v>
    <v>       0.01851852 </v>
    <v>       0.01851852 </v>
    <v>       0.01851852 </v>
    <v>       0.01851852 </v>
    <v>       0.01851852 </v>
    <v>       0.01851852 </v>
    <v>       0.01851852 </v>
    <v>       0.01851852 </v>
   </varray>
  </kpoints>
  <time name="totalsc">   34.78   20.72</time>
 </calculation>
 <calculation>
  <scstep>
   <time name="dav">    1.99    1.00</time>
   <time name="total">    2.53    1.36</time>
   <energy>
    <i name="alphaZ">    217.43841536 </i>
    <i name="ewald">  -6082.70560942 </i>
    <i name="hartreedc">  -2304.06365366 </i>
    <i name="XCdc">    230.43311343 </i>
    <i name="pawpsdc">   8474.06202264 </i>
    <i name="pawaedc">  -8569.98020767 </i>
    <i name="eentropy">     -0.00000000 </i>
    <i name="bandstr">   -599.29643914 </i>
    <i name="atom">   8598.20158228 </i>
    <i name="e_fr_energy">    -35.91077619 </i>
    <i name="e_wo_entrp">    -35.91077619 </i>
    <i name="e_0_energy">    -35.91077619 </i>
   </energy>
  </scstep>
  <scstep>
   <time name="dav">    2.98    1.49</time>
   <time name="total">    3.45    1.86</time>
   <energy>
    <i name="e_fr_energy">    -35.91365370 </i>
    <i name="e_wo_entrp">    -35.91365370 </i>
    <i name="e_0_energy">    -35.91365370 </i>
   </energy>
  </scstep>
  <scstep>
   <time name="dav">    2.62    1.31</time>
   <time name="total">    3.08    1.67</time>
   <energy>
    <i name="e_fr_energy">    -35.91372150 </i>
    <i name="e_wo_entrp">    -35.91372150 </i>
    <i name="e_0_energy">    -35.91372150 </i>
   </energy>
  </scstep>
  <scstep>
   <time name="dav">    3.28    1.64</time>
   <time name="total">    3.75    2.00</time>
   <energy>
    <i name="e_fr_energy">    -35.91372118 </i>
    <i name="e_wo_entrp">    -35.91372118 </i>
    <i name="e_0_energy">    -35.91372118 </i>
   </energy>
  </scstep>
  <scstep>
   <time name="dav">    3.19    1.60</time>
   <time name="total">    3.66    1.96</time>
   <energy>
    <i name="e_fr_energy">    -35.91372073 </i>
    <i name="e_wo_entrp">    -35.91372073 </i>
    <i name="e_0_energy">    -35.91372073 </i>
   </energy>
  </scstep>
  <scstep>
   <time name="dav">    1.93    0.97</time>
   <time name="total">    2.40    1.33</time>
   <energy>
    <i name="e_fr_energy">    -35.91372078 </i>
    <i name="e_wo_entrp">    -35.91372078 </i>
    <i name="e_0_energy">    -35.91372078 </i>
   </energy>
  </scstep>
  <scstep>
   <time name="dav">    2.98    1.49</time>
   <time name="total">    3.23    1.74</time>
   <energy>
    <i name="alphaZ">    217.43841536 </i>
    <i name="ewald">  -6082.70560942 </i>
    <i name="hartreedc">  -2303.87274820 </i>
    <i name="XCdc">    230.42511043 </i>
    <i name="pawpsdc">   8469.11337757 </i>
    <i name="pawaedc">  -8564.99286063 </i>
    <i name="eentropy">     -0.00000000 </i>
    <i name="bandstr">   -599.52098818 </i>
    <i name="atom">   8598.20158228 </i>
    <i name="e_fr_energy">    -35.91372079 </i>
    <i name="e_wo_entrp">    -35.91372079 </i>
    <i name="e_0_energy">    -35.91372079 </i>
   </energy>
  </scstep>
  <structure>
   <crystal>
    <varray name="basis" >
     <v>       4.34539863       0.00000000       0.00000000 </v>
     <v>       0.00000000       4.11936655       0.00000000 </v>
     <v>       0.00000000       0.00000000      11.35478920 </v>
    </varray>
    <i name="volume">    203.25401695 </i>
    <varray name="rec_basis" >
     <v>       0.23012848       0.00000000       0.00000000 </v>
     <v>       0.00000000       0.24275577       0.00000000 </v>
     <v>       0.00000000       0.00000000       0.08806857 </v>
    </varray>
   </crystal>
   <varray name="positions" >
    <v>       0.09903631       0.25000000       0.11451643 </v>
    <v>       0.40096369       0.25000000       0.61539711 </v>
    <v>       0.59903631       0.75000000       0.38460289 </v>
    <v>       0.90096369       0.75000000       0.88460289 </v>
    <v>       0.02605052       0.25000000       0.35675466 </v>
    <v>       0.47394948       0.25000000       0.85675466 </v>
    <v>       0.52605052       0.75000000       0.14324534 </v>
    <v>       0.97394948       0.75000000       0.64324534 </v>
   </varray>
  </structure>
  <varray name="forces" >
   <v>      -0.00003751       0.00000000       0.04979906 </v>
   <v>       0.00642458       0.00000000      -0.00625800 </v>
   <v>      -0.00467493       0.00000000      -0.00604322 </v>
   <v>       0.00431589       0.00000000      -0.01248517 </v>
   <v>      -0.00523164       0.00000000      -0.03340491 </v>
   <v>       0.00593668       0.00000000       0.00171746 </v>
   <v>      -0.00918319       0.00000000      -0.00206962 </v>
   <v>       0.00245012       0.00000000       0.00874439 </v>
  </varray>
  <varray name="stress" >
   <v>      -0.21638666       0.00000000       0.00972731 </v>
   <v>       0.00000000      -0.16881338       0.00000000 </v>
   <v>       0.00972772       0.00000000      -1.07137325 </v>
  </varray>
  <energy>
   <i name="e_fr_energy">    -37.43165890 </i>
   <i name="e_wo_entrp">    -37.43165890 </i>
   <i name="e_0_energy">    -37.43165890 </i>
  </energy>
  <kpoints>
   <generation param="Gamma">
    <v type="int" name="divisions">       8        9        3 </v>
    <v name="usershift">      0.00000000       0.00000000       0.00000000 </v>
    <v name="genvec1">      0.12500000       0.00000000       0.00000000 </v>
    <v name="genvec2">      0.00000000       0.11111111       0.00000000 </v>
    <v name="genvec3">      0.00000000       0.00000000       0.33333333 </v>
    <v name="shift">      0.00000000       0.00000000       0.00000000 </v>
   </generation>
   <varray name="kpointlist" >
    <v>       0.00000000       0.00000000       0.00000000 </v>
    <v>       0.12500000       0.00000000       0.00000000 </v>
    <v>       0.25000000       0.00000000       0.00000000 </v>
    <v>       0.37500000       0.00000000       0.00000000 </v>
    <v>       0.50000000       0.00000000       0.00000000 </v>
    <v>       0.00000000       0.11111111       0.00000000 </v>
    <v>       0.12500000       0.11111111       0.00000000 </v>
    <v>       0.25000000       0.11111111       0.00000000 </v>
    <v>       0.37500000       0.11111111       0.00000000 </v>
    <v>       0.50000000       0.11111111       0.00000000 </v>
    <v>       0.00000000       0.22222222       0.00000000 </v>
    <v>       0.12500000       0.22222222       0.00000000 </v>
    <v>       0.25000000       0.22222222       0.00000000 </v>
    <v>       0.37500000       0.22222222       0.00000000 </v>
    <v>       0.50000000       0.22222222       0.00000000 </v>
    <v>       0.00000000       0.33333333       0.00000000 </v>
    <v>       0.12500000       0.33333333       0.00000000 </v>
    <v>       0.25000000       0.33333333       0.00000000 </v>
    <v>       0.37500000       0.33333333       0.00000000 </v>
    <v>       0.50000000       0.33333333       0.00000000 </v>
    <v>       0.00000000       0.44444444       0.00000000 </v>
    <v>       0.12500000       0.44444444       0.00000000 </v>
    <v>       0.25000000       0.44444444       0.00000000 </v>
    <v>       0.37500000       0.44444444       0.00000000 </v>
    <v>       0.50000000       0.44444444       0.00000000 </v>
    <v>       0.00000000       0.00000000       0.33333333 </v>
    <v>       0.12500000       0.00000000       0.33333333 </v>
    <v>       0.12500000       0.00000000      -0.33333333 </v>
    <v>       0.25000000       0.00000000       0.33333333 </v>
    <v>       0.25000000       0.00000000      -0.33333333 </v>
    <v>       0.37500000       0.00000000       0.33333333 </v>
    <v>       0.37500000       0.00000000      -0.33333333 </v>
    <v>       0.50000000       0.00000000       0.33333333 </v>
    <v>       0.00000000       0.11111111       0.33333333 </v>
    <v>       0.12500000       0.11111111       0.33333333 </v>
    <v>       0.12500000      -0.11111111      -0.33333333 </v>
    <v>       0.25000000       0.11111111       0.33333333 </v>
    <v>       0.25000000      -0.11111111      -0.33333333 </v>
    <v>       0.37500000       0.11111111       0.33333333 </v>
    <v>       0.37500000      -0.11111111      -0.33333333 </v>
    <v>       0.50000000       0.11111111       0.33333333 </v>
    <v>       0.00000000       0.22222222       0.33333333 </v>
    <v>       0.12500000       0.22222222       0.33333333 </v>
    <v>       0.12500000      -0.22222222      -0.33333333 </v>
    <v>       0.25000000       0.22222222       0.33333333 </v>
    <v>       0.25000000      -0.22222222      -0.33333333 </v>
    <v>       0.37500000       0.22222222       0.33333333 </v>
    <v>       0.37500000      -0.22222222      -0.33333333 </v>
    <v>       0.50000000       0.22222222       0.33333333 </v>
    <v>       0.00000000       0.33333333       0.33333333 </v>
    <v>       0.12500000       0.33333333       0.33333333 </v>
    <v>       0.12500000      -0.33333333      -0.33333333 </v>
    <v>       0.25000000       0.33333333       0.33333333 </v>
    <v>       0.25000000      -0.33333333      -0.33333333 </v>
    <v>       0.37500000       0.33333333       0.33333333 </v>
    <v>       0.37500000      -0.33333333      -0.33333333 </v>
    <v>       0.50000000       0.33333333       0.33333333 </v>
    <v>       0.00000000       0.44444444       0.33333333 </v>
    <v>       0.12500000       0.44444444       0.33333333 </v>
    <v>       0.12500000      -0.44444444      -0.33333333 </v>
    <v>       0.25000000       0.44444444       0.33333333 </v>
    <v>       0.25000000      -0.44444444      -0.33333333 </v>
    <v>       0.37500000       0.44444444       0.33333333 </v>
    <v>       0.37500000      -0.44444444      -0.33333333 </v>
    <v>       0.50000000       0.44444444       0.33333333 </v>
   </varray>
   <varray name="weights" >
    <v>       0.00462963 </v>
    <v>       0.00925926 </v>
    <v>       0.00925926 </v>
    <v>       0.00925926 </v>
    <v>       0.00462963 </v>
    <v>       0.00925926 </v>
    <v>       0.01851852 </v>
    <v>       0.01851852 </v>
    <v>       0.01851852 </v>
    <v>       0.00925926 </v>
    <v>       0.00925926 </v>
    <v>       0.01851852 </v>
    <v>       0.01851852 </v>
    <v>       0.01851852 </v>
    <v>       0.00925926 </v>
    <v>       0.00925926 </v>
    <v>       0.01851852 </v>
    <v>       0.01851852 </v>
    <v>       0.01851852 </v>
    <v>       0.00925926 </v>
    <v>       0.00925926 </v>
    <v>       0.01851852 </v>
    <v>       0.01851852 </v>
    <v>       0.01851852 </v>
    <v>       0.00925926 </v>
    <v>       0.00925926 </v>
    <v>       0.00925926 </v>
    <v>       0.00925926 </v>
    <v>       0.00925926 </v>
    <v>       0.00925926 </v>
    <v>       0.00925926 </v>
    <v>       0.00925926 </v>
    <v>       0.00925926 </v>
    <v>       0.01851852 </v>
    <v>       0.01851852 </v>
    <v>       0.01851852 </v>
    <v>       0.01851852 </v>
    <v>       0.01851852 </v>
    <v>       0.01851852 </v>
    <v>       0.01851852 </v>
    <v>       0.01851852 </v>
    <v>       0.01851852 </v>
    <v>       0.01851852 </v>
    <v>       0.01851852 </v>
    <v>       0.01851852 </v>
    <v>       0.01851852 </v>
    <v>       0.01851852 </v>
    <v>       0.01851852 </v>
    <v>       0.01851852 </v>
    <v>       0.01851852 </v>
    <v>       0.01851852 </v>
    <v>       0.01851852 </v>
    <v>       0.01851852 </v>
    <v>       0.01851852 </v>
    <v>       0.01851852 </v>
    <v>       0.01851852 </v>
    <v>       0.01851852 </v>
    <v>       0.01851852 </v>
    <v>       0.01851852 </v>
    <v>       0.01851852 </v>
    <v>       0.01851852 </v>
    <v>       0.01851852 </v>
    <v>       0.01851852 </v>
    <v>       0.01851852 </v>
    <v>       0.01851852 </v>
   </varray>
  </kpoints>
  <time name="totalsc">   29.11   17.34</time>
 </calculation>
 <calculation>
  <scstep>
   <time name="dav">    1.65    0.83</time>
   <time name="total">    2.18    1.18</time>
   <energy>
    <i name="alphaZ">    217.43841536 </i>
    <i name="ewald">  -6082.97360630 </i>
    <i name="hartreedc">  -2303.56411412 </i>
    <i name="XCdc">    230.42235860 </i>
    <i name="pawpsdc">   8469.12153841 </i>
    <i name="pawaedc">  -8565.00119655 </i>
    <i name="eentropy">     -0.00000000 </i>
    <i name="bandstr">   -599.55789273 </i>
    <i name="atom">   8598.20158228 </i>
    <i name="e_fr_energy">    -35.91291506 </i>
    <i name="e_wo_entrp">    -35.91291506 </i>
    <i name="e_0_energy">    -35.91291506 </i>
   </energy>
  </scstep>
  <scstep>
   <time name="dav">    3.18    1.60</time>
   <time name="total">    3.66    1.96</time>
   <energy>
    <i name="e_fr_energy">    -35.91401263 </i>
    <i name="e_wo_entrp">    -35.91401263 </i>
    <i name="e_0_energy">    -35.91401263 </i>
   </energy>
  </scstep>
  <scstep>
   <time name="dav">    2.56    1.28</time>
   <time name="total">    2.93    1.64</time>
   <energy>
    <i name="e_fr_energy">    -35.91402944 </i>
    <i name="e_wo_entrp">    -35.91402944 </i>
    <i name="e_0_energy">    -35.91402944 </i>
   </energy>
  </scstep>
  <scstep>
   <time name="dav">    3.41    1.71</time>
   <time name="total">    3.88    2.07</time>
   <energy>
    <i name="e_fr_energy">    -35.91402863 </i>
    <i name="e_wo_entrp">    -35.91402863 </i>
    <i name="e_0_energy">    -35.91402863 </i>
   </energy>
  </scstep>
  <scstep>
   <time name="dav">    2.95    1.48</time>
   <time name="total">    3.34    1.84</time>
   <energy>
    <i name="e_fr_energy">    -35.91402852 </i>
    <i name="e_wo_entrp">    -35.91402852 </i>
    <i name="e_0_energy">    -35.91402852 </i>
   </energy>
  </scstep>
  <scstep>
   <time name="dav">    2.62    1.31</time>
   <time name="total">    3.09    1.67</time>
   <energy>
    <i name="e_fr_energy">    -35.91402854 </i>
    <i name="e_wo_entrp">    -35.91402854 </i>
    <i name="e_0_energy">    -35.91402854 </i>
   </energy>
  </scstep>
  <scstep>
   <time name="dav">    2.60    1.31</time>
   <time name="total">    3.08    1.66</time>
   <energy>
    <i name="e_fr_energy">    -35.91402852 </i>
    <i name="e_wo_entrp">    -35.91402852 </i>
    <i name="e_0_energy">    -35.91402852 </i>
   </energy>
  </scstep>
  <scstep>
   <time name="dav">    1.88    0.95</time>
   <time name="total">    2.13    1.19</time>
   <energy>
    <i name="alphaZ">    217.43841536 </i>
    <i name="ewald">  -6082.97360630 </i>
    <i name="hartreedc">  -2303.63676680 </i>
    <i name="XCdc">    230.42704661 </i>
    <i name="pawpsdc">   8469.41807650 </i>
    <i name="pawaedc">  -8565.30023691 </i>
    <i name="eentropy">     -0.00000000 </i>
    <i name="bandstr">   -599.48853926 </i>
    <i name="atom">   8598.20158228 </i>
    <i name="e_fr_energy">    -35.91402852 </i>
    <i name="e_wo_entrp">    -35.91402852 </i>
    <i name="e_0_energy">    -35.91402852 </i>
   </energy>
  </scstep>
  <structure>
   <crystal>
    <varray name="basis" >
     <v>       4.34539863       0.00000000       0.00000000 </v>
     <v>       0.00000000       4.11936655       0.00000000 </v>
     <v>       0.00000000       0.00000000      11.35478920 </v>
    </varray>
    <i name="volume">    203.25401695 </i>
    <varray name="rec_basis" >
     <v>       0.23012848       0.00000000       0.00000000 </v>
     <v>       0.00000000       0.24275577       0.00000000 </v>
     <v>       0.00000000       0.00000000       0.08806857 </v>
    </varray>
   </crystal>
   <varray name="positions" >
    <v>       0.09903631       0.25000000       0.11539711 </v>
    <v>       0.40096369       0.25000000       0.61539711 </v>
    <v>       0.59903631       0.75000000       0.38460289 </v>
    <v>       0.90096369       0.75000000       0.88460289 </v>
    <v>       0.02835181       0.25000000       0.35675466 </v>
    <v>       0.47394948       0.25000000       0.85675466 </v>
    <v>       0.52605052       0.75000000       0.14324534 </v>
    <v>       0.97394948       0.75000000       0.64324534 </v>
   </varray>
  </structure>
  <varray name="forces" >
   <v>      -0.00872281       0.00000000       0.00536699 </v>
   <v>       0.00847652       0.00000000       0.00620191 </v>
   <v>       0.01695100       0.00000000      -0.00930451 </v>
   <v>       0.00790471       0.00000000      -0.00269795 </v>
   <v>      -0.04266939       0.00000000       0.00027529 </v>
   <v>       0.00439403       0.00000000      -0.00267176 </v>
   <v>       0.00698385       0.00000000       0.00121133 </v>
   <v>       0.00668209       0.00000000       0.00161869 </v>
  </varray>
  <varray name="stress" >
   <v>      -0.42753777       0.00000000      -0.01253281 </v>
   <v>       0.00000000      -0.24775656       0.00000000 </v>
   <v>      -0.01253219       0.00000000      -0.41663676 </v>
  </varray>
  <energy>
   <i name="e_fr_energy">    -37.43169543 </i>
   <i name="e_wo_entrp">    -37.43169543 </i>
   <i name="e_0_energy">    -37.43169543 </i>
  </energy>
  <kpoints>
   <generation param="Gamma">
    <v type="int" name="divisions">       8        9        3 </v>
    <v name="usershift">      0.00000000       0.00000000       0.00000000 </v>
    <v name="genvec1">      0.12500000       0.00000000       0.00000000 </v>
    <v name="genvec2">      0.00000000       0.11111111       0.00000000 </v>
    <v name="genvec3">      0.00000000       0.00000000       0.33333333 </v>
    <v name="shift">      0.00000000       0.00000000       0.00000000 </v>
   </generation>
   <varray name="kpointlist" >
    <v>       0.00000000       0.00000000       0.00000000 </v>
    <v>       0.12500000       0.00000000       0.00000000 </v>
    <v>       0.25000000       0.00000000       0.00000000 </v>
    <v>       0.37500000       0.00000000       0.00000000 </v>
    <v>       0.50000000       0.00000000       0.00000000 </v>
    <v>       0.00000000       0.11111111       0.00000000 </v>
    <v>       0.12500000       0.11111111       0.00000000 </v>
    <v>       0.25000000       0.11111111       0.00000000 </v>
    <v>       0.37500000       0.11111111       0.00000000 </v>
    <v>       0.50000000       0.11111111       0.00000000 </v>
    <v>       0.00000000       0.22222222       0.00000000 </v>
    <v>       0.12500000       0.22222222       0.00000000 </v>
    <v>       0.25000000       0.22222222       0.00000000 </v>
    <v>       0.37500000       0.22222222       0.00000000 </v>
    <v>       0.50000000       0.22222222       0.00000000 </v>
    <v>       0.00000000       0.33333333       0.00000000 </v>
    <v>       0.12500000       0.33333333       0.00000000 </v>
    <v>       0.25000000       0.33333333       0.00000000 </v>
    <v>       0.37500000       0.33333333       0.00000000 </v>
    <v>       0.50000000       0.33333333       0.00000000 </v>
    <v>       0.00000000       0.44444444       0.00000000 </v>
    <v>       0.12500000       0.44444444       0.00000000 </v>
    <v>       0.25000000       0.44444444       0.00000000 </v>
    <v>       0.37500000       0.44444444       0.00000000 </v>
    <v>       0.50000000       0.44444444       0.00000000 </v>
    <v>       0.00000000       0.00000000       0.33333333 </v>
    <v>       0.12500000       0.00000000       0.33333333 </v>
    <v>       0.12500000       0.00000000      -0.33333333 </v>
    <v>       0.25000000       0.00000000       0.33333333 </v>
    <v>       0.25000000       0.00000000      -0.33333333 </v>
    <v>       0.37500000       0.00000000       0.33333333 </v>
    <v>       0.37500000       0.00000000      -0.33333333 </v>
    <v>       0.50000000       0.00000000       0.33333333 </v>
    <v>       0.00000000       0.11111111       0.33333333 </v>
    <v>       0.12500000       0.11111111       0.33333333 </v>
    <v>       0.12500000      -0.11111111      -0.33333333 </v>
    <v>       0.25000000       0.11111111       0.33333333 </v>
    <v>       0.25000000      -0.11111111      -0.33333333 </v>
    <v>       0.37500000       0.11111111       0.33333333 </v>
    <v>       0.37500000      -0.11111111      -0.33333333 </v>
    <v>       0.50000000       0.11111111       0.33333333 </v>
    <v>       0.00000000       0.22222222       0.33333333 </v>
    <v>       0.12500000       0.22222222       0.33333333 </v>
    <v>       0.12500000      -0.22222222      -0.33333333 </v>
    <v>       0.25000000       0.22222222       0.33333333 </v>
    <v>       0.25000000      -0.22222222      -0.33333333 </v>
    <v>       0.37500000       0.22222222       0.33333333 </v>
    <v>       0.37500000      -0.22222222      -0.33333333 </v>
    <v>       0.50000000       0.22222222       0.33333333 </v>
    <v>       0.00000000       0.33333333       0.33333333 </v>
    <v>       0.12500000       0.33333333       0.33333333 </v>
    <v>       0.12500000      -0.33333333      -0.33333333 </v>
    <v>       0.25000000       0.33333333       0.33333333 </v>
    <v>       0.25000000      -0.33333333      -0.33333333 </v>
    <v>       0.37500000       0.33333333       0.33333333 </v>
    <v>       0.37500000      -0.33333333      -0.33333333 </v>
    <v>       0.50000000       0.33333333       0.33333333 </v>
    <v>       0.00000000       0.44444444       0.33333333 </v>
    <v>       0.12500000       0.44444444       0.33333333 </v>
    <v>       0.12500000      -0.44444444      -0.33333333 </v>
    <v>       0.25000000       0.44444444       0.33333333 </v>
    <v>       0.25000000      -0.44444444      -0.33333333 </v>
    <v>       0.37500000       0.44444444       0.33333333 </v>
    <v>       0.37500000      -0.44444444      -0.33333333 </v>
    <v>       0.50000000       0.44444444       0.33333333 </v>
   </varray>
   <varray name="weights" >
    <v>       0.00462963 </v>
    <v>       0.00925926 </v>
    <v>       0.00925926 </v>
    <v>       0.00925926 </v>
    <v>       0.00462963 </v>
    <v>       0.00925926 </v>
    <v>       0.01851852 </v>
    <v>       0.01851852 </v>
    <v>       0.01851852 </v>
    <v>       0.00925926 </v>
    <v>       0.00925926 </v>
    <v>       0.01851852 </v>
    <v>       0.01851852 </v>
    <v>       0.01851852 </v>
    <v>       0.00925926 </v>
    <v>       0.00925926 </v>
    <v>       0.01851852 </v>
    <v>       0.01851852 </v>
    <v>       0.01851852 </v>
    <v>       0.00925926 </v>
    <v>       0.00925926 </v>
    <v>       0.01851852 </v>
    <v>       0.01851852 </v>
    <v>       0.01851852 </v>
    <v>       0.00925926 </v>
    <v>       0.00925926 </v>
    <v>       0.00925926 </v>
    <v>       0.00925926 </v>
    <v>       0.00925926 </v>
    <v>       0.00925926 </v>
    <v>       0.00925926 </v>
    <v>       0.00925926 </v>
    <v>       0.00925926 </v>
    <v>       0.01851852 </v>
    <v>       0.01851852 </v>
    <v>       0.01851852 </v>
    <v>       0.01851852 </v>
    <v>       0.01851852 </v>
    <v>       0.01851852 </v>
    <v>       0.01851852 </v>
    <v>       0.01851852 </v>
    <v>       0.01851852 </v>
    <v>       0.01851852 </v>
    <v>       0.01851852 </v>
    <v>       0.01851852 </v>
    <v>       0.01851852 </v>
    <v>       0.01851852 </v>
    <v>       0.01851852 </v>
    <v>       0.01851852 </v>
    <v>       0.01851852 </v>
    <v>       0.01851852 </v>
    <v>       0.01851852 </v>
    <v>       0.01851852 </v>
    <v>       0.01851852 </v>
    <v>       0.01851852 </v>
    <v>       0.01851852 </v>
    <v>       0.01851852 </v>
    <v>       0.01851852 </v>
    <v>       0.01851852 </v>
    <v>       0.01851852 </v>
    <v>       0.01851852 </v>
    <v>       0.01851852 </v>
    <v>       0.01851852 </v>
    <v>       0.01851852 </v>
    <v>       0.01851852 </v>
   </varray>
  </kpoints>
  <time name="totalsc">   31.29   18.65</time>
 </calculation>
 <calculation>
  <scstep>
   <time name="dav">    1.65    0.83</time>
   <time name="total">    2.18    1.18</time>
   <energy>
    <i name="alphaZ">    217.43841536 </i>
    <i name="ewald">  -6082.47390015 </i>
    <i name="hartreedc">  -2304.04984675 </i>
    <i name="XCdc">    230.43561120 </i>
    <i name="pawpsdc">   8469.41768124 </i>
    <i name="pawaedc">  -8565.29983523 </i>
    <i name="eentropy">     -0.00000000 </i>
    <i name="bandstr">   -599.58301014 </i>
    <i name="atom">   8598.20158228 </i>
    <i name="e_fr_energy">    -35.91330220 </i>
    <i name="e_wo_entrp">    -35.91330220 </i>
    <i name="e_0_energy">    -35.91330220 </i>
   </energy>
  </scstep>
  <scstep>
   <time name="dav">    2.94    1.47</time>
   <time name="total">    3.42    1.84</time>
   <energy>
    <i name="e_fr_energy">    -35.91369224 </i>
    <i name="e_wo_entrp">    -35.91369224 </i>
    <i name="e_0_energy">    -35.91369224 </i>
   </energy>
  </scstep>
  <scstep>
   <time name="dav">    1.88    0.95</time>
   <time name="total">    2.33    1.30</time>
   <energy>
    <i name="e_fr_energy">    -35.91367609 </i>
    <i name="e_wo_entrp">    -35.91367609 </i>
    <i name="e_0_energy">    -35.91367609 </i>
   </energy>
  </scstep>
  <scstep>
   <time name="dav">    3.25    1.63</time>
   <time name="total">    3.71    1.99</time>
   <energy>
    <i name="e_fr_energy">    -35.91367454 </i>
    <i name="e_wo_entrp">    -35.91367454 </i>
    <i name="e_0_energy">    -35.91367454 </i>
   </energy>
  </scstep>
  <scstep>
   <time name="dav">    2.06    1.04</time>
   <time name="total">    2.54    1.40</time>
   <energy>
    <i name="e_fr_energy">    -35.91367465 </i>
    <i name="e_wo_entrp">    -35.91367465 </i>
    <i name="e_0_energy">    -35.91367465 </i>
   </energy>
  </scstep>
  <scstep>
   <time name="dav">    2.93    1.47</time>
   <time name="total">    3.41    1.83</time>
   <energy>
    <i name="e_fr_energy">    -35.91367469 </i>
    <i name="e_wo_entrp">    -35.91367469 </i>
    <i name="e_0_energy">    -35.91367469 </i>
   </energy>
  </scstep>
  <scstep>
   <time name="dav">    1.62    0.81</time>
   <time name="total">    1.87    1.06</time>
   <energy>
    <i name="alphaZ">    217.43841536 </i>
    <i name="ewald">  -6082.47390015 </i>
    <i name="hartreedc">  -2304.09301929 </i>
    <i name="XCdc">    230.43439655 </i>
    <i name="pawpsdc">   8473.73366905 </i>
    <i name="pawaedc">  -8569.64927103 </i>
    <i name="eentropy">     -0.00000000 </i>
    <i name="bandstr">   -599.50554745 </i>
    <i name="atom">   8598.20158228 </i>
    <i name="e_fr_energy">    -35.91367469 </i>
    <i name="e_wo_entrp">    -35.91367469 </i>
    <i name="e_0_energy">    -35.91367469 </i>
   </energy>
  </scstep>
  <structure>
   <crystal>
    <varray name="basis" >
     <v>       4.34539863       0.00000000       0.00000000 </v>
     <v>       0.00000000       4.11936655       0.00000000 </v>
     <v>       0.00000000       0.00000000      11.35478920 </v>
    </varray>
    <i name="volume">    203.25401695 </i>
    <varray name="rec_basis" >
     <v>       0.23012848       0.00000000       0.00000000 </v>
     <v>       0.00000000       0.24275577       0.00000000 </v>
     <v>       0.00000000       0.00000000       0.08806857 </v>
    </varray>
   </crystal>
   <varray name="positions" >
    <v>       0.09903631       0.25000000       0.11539711 </v>
    <v>       0.40096369       0.25000000       0.61539711 </v>
    <v>       0.59903631       0.75000000       0.38460289 </v>
    <v>       0.90096369       0.75000000       0.88460289 </v>
    <v>       0.02374924       0.25000000       0.35675466 </v>
    <v>       0.47394948       0.25000000       0.85675466 </v>
    <v>       0.52605052       0.75000000       0.14324534 </v>
    <v>       0.97394948       0.75000000       0.64324534 </v>
   </varray>
  </structure>
  <varray name="forces" >
   <v>      -0.00669241       0.00000000       0.00214007 </v>
   <v>       0.00695768       0.00000000       0.00139881 </v>
   <v>      -0.03345565       0.00000000       0.00193085 </v>
   <v>       0.00752243       0.00000000      -0.00485901 </v>
   <v>       0.03659593       0.00000000      -0.00614720 </v>
   <v>       0.00267179       0.00000000      -0.00299805 </v>
   <v>      -0.01397042       0.00000000       0.00439212 </v>
   <v>       0.00037064       0.00000000       0.00414241 </v>
  </varray>
  <varray name="stress" >
   <v>       0.43728096       0.00000000       0.00825252 </v>
   <v>       0.00000000       0.32357602       0.00000000 </v>
   <v>       0.00825221       0.00000000      -0.61004889 </v>
  </varray>
  <energy>
   <i name="e_fr_energy">    -37.43176619 </i>
   <i name="e_wo_entrp">    -37.43176619 </i>
   <i name="e_0_energy">    -37.43176619 </i>
  </energy>
  <kpoints>
   <generation param="Gamma">
    <v type="int" name="divisions">       8        9        3 </v>
    <v name="usershift">      0.00000000       0.00000000       0.00000000 </v>
    <v name="genvec1">      0.12500000       0.00000000       0.00000000 </v>
    <v name="genvec2">      0.00000000       0.11111111       0.00000000 </v>
    <v name="genvec3">      0.00000000       0.00000000       0.33333333 </v>
    <v name="shift">      0.00000000       0.00000000       0.00000000 </v>
   </generation>
   <varray name="kpointlist" >
    <v>       0.00000000       0.00000000       0.00000000 </v>
    <v>       0.12500000       0.00000000       0.00000000 </v>
    <v>       0.25000000       0.00000000       0.00000000 </v>
    <v>       0.37500000       0.00000000       0.00000000 </v>
    <v>       0.50000000       0.00000000       0.00000000 </v>
    <v>       0.00000000       0.11111111       0.00000000 </v>
    <v>       0.12500000       0.11111111       0.00000000 </v>
    <v>      -0.12500000       0.11111111       0.00000000 </v>
    <v>       0.25000000       0.11111111       0.00000000 </v>
    <v>      -0.25000000       0.11111111       0.00000000 </v>
    <v>       0.37500000       0.11111111       0.00000000 </v>
    <v>      -0.37500000       0.11111111       0.00000000 </v>
    <v>       0.50000000       0.11111111       0.00000000 </v>
    <v>       0.00000000       0.22222222       0.00000000 </v>
    <v>       0.12500000       0.22222222       0.00000000 </v>
    <v>      -0.12500000       0.22222222       0.00000000 </v>
    <v>       0.25000000       0.22222222       0.00000000 </v>
    <v>      -0.25000000       0.22222222       0.00000000 </v>
    <v>       0.37500000       0.22222222       0.00000000 </v>
    <v>      -0.37500000       0.22222222       0.00000000 </v>
    <v>       0.50000000       0.22222222       0.00000000 </v>
    <v>       0.00000000       0.33333333       0.00000000 </v>
    <v>       0.12500000       0.33333333       0.00000000 </v>
    <v>      -0.12500000       0.33333333       0.00000000 </v>
    <v>       0.25000000       0.33333333       0.00000000 </v>
    <v>      -0.25000000       0.33333333       0.00000000 </v>
    <v>       0.37500000       0.33333333       0.00000000 </v>
    <v>      -0.37500000       0.33333333       0.00000000 </v>
    <v>       0.50000000       0.33333333       0.00000000 </v>
    <v>       0.00000000       0.44444444       0.00000000 </v>
    <v>       0.12500000       0.44444444       0.00000000 </v>
    <v>      -0.12500000       0.44444444       0.00000000 </v>
    <v>       0.25000000       0.44444444       0.00000000 </v>
    <v>      -0.25000000       0.44444444       0.00000000 </v>
    <v>       0.37500000       0.44444444       0.00000000 </v>
    <v>      -0.37500000       0.44444444       0.00000000 </v>
    <v>       0.50000000       0.44444444       0.00000000 </v>
    <v>       0.00000000       0.00000000       0.33333333 </v>
    <v>       0.12500000       0.00000000       0.33333333 </v>
    <v>       0.12500000       0.00000000      -0.33333333 </v>
    <v>       0.25000000       0.00000000       0.33333333 </v>
    <v>       0.25000000       0.00000000      -0.33333333 </v>
    <v>       0.37500000       0.00000000       0.33333333 </v>
    <v>       0.37500000       0.00000000      -0.33333333 </v>
    <v>       0.50000000       0.00000000       0.33333333 </v>
    <v>       0.00000000       0.11111111       0.33333333 </v>
    <v>       0.00000000       0.11111111      -0.33333333 </v>
    <v>       0.12500000       0.11111111       0.33333333 </v>
    <v>      -0.12500000       0.11111111      -0.33333333 </v>
    <v>       0.12500000      -0.11111111      -0.33333333 </v>
    <v>      -0.12500000      -0.11111111       0.33333333 </v>
    <v>       0.25000000       0.11111111       0.33333333 </v>
    <v>      -0.25000000       0.11111111      -0.33333333 </v>
    <v>       0.25000000      -0.11111111      -0.33333333 </v>
    <v>      -0.25000000      -0.11111111       0.33333333 </v>
    <v>       0.37500000       0.11111111       0.33333333 </v>
    <v>      -0.37500000       0.11111111      -0.33333333 </v>
    <v>       0.37500000      -0.11111111      -0.33333333 </v>
    <v>      -0.37500000      -0.11111111       0.33333333 </v>
    <v>       0.50000000       0.11111111       0.33333333 </v>
    <v>       0.50000000       0.11111111      -0.33333333 </v>
    <v>       0.00000000       0.22222222       0.33333333 </v>
    <v>       0.00000000       0.22222222      -0.33333333 </v>
    <v>       0.12500000       0.22222222       0.33333333 </v>
    <v>      -0.12500000       0.22222222      -0.33333333 </v>
    <v>       0.12500000      -0.22222222      -0.33333333 </v>
    <v>      -0.12500000      -0.22222222       0.33333333 </v>
    <v>       0.25000000       0.22222222       0.33333333 </v>
    <v>      -0.25000000       0.22222222      -0.33333333 </v>
    <v>       0.25000000      -0.22222222      -0.33333333 </v>
    <v>      -0.25000000      -0.22222222       0.33333333 </v>
    <v>       0.37500000       0.22222222       0.33333333 </v>
    <v>      -0.37500000       0.22222222      -0.33333333 </v>
    <v>       0.37500000      -0.22222222      -0.33333333 </v>
    <v>      -0.37500000      -0.22222222       0.33333333 </v>
    <v>       0.50000000       0.22222222       0.33333333 </v>
    <v>       0.50000000       0.22222222      -0.33333333 </v>
    <v>       0.00000000       0.33333333       0.33333333 </v>
    <v>       0.00000000       0.33333333      -0.33333333 </v>
    <v>       0.12500000       0.33333333       0.33333333 </v>
    <v>      -0.12500000       0.33333333      -0.33333333 </v>
    <v>       0.12500000      -0.33333333      -0.33333333 </v>
    <v>      -0.12500000      -0.33333333       0.33333333 </v>
    <v>       0.25000000       0.33333333       0.33333333 </v>
    <v>      -0.25000000       0.33333333      -0.33333333 </v>
    <v>       0.25000000      -0.33333333      -0.33333333 </v>
    <v>      -0.25000000      -0.33333333       0.33333333 </v>
    <v>       0.37500000       0.33333333       0.33333333 </v>
    <v>      -0.37500000       0.33333333      -0.33333333 </v>
    <v>       0.37500000      -0.33333333      -0.33333333 </v>
    <v>      -0.37500000      -0.33333333       0.33333333 </v>
    <v>       0.50000000       0.33333333       0.33333333 </v>
    <v>       0.50000000       0.33333333      -0.33333333 </v>
    <v>       0.00000000       0.44444444       0.33333333 </v>
    <v>       0.00000000       0.44444444      -0.33333333 </v>
    <v>       0.12500000       0.44444444       0.33333333 </v>
    <v>      -0.12500000       0.44444444      -0.33333333 </v>
    <v>       0.12500000      -0.44444444      -0.33333333 </v>
    <v>      -0.12500000      -0.44444444       0.33333333 </v>
    <v>       0.25000000       0.44444444       0.33333333 </v>
    <v>      -0.25000000       0.44444444      -0.33333333 </v>
    <v>       0.25000000      -0.44444444      -0.33333333 </v>
    <v>      -0.25000000      -0.44444444       0.33333333 </v>
    <v>       0.37500000       0.44444444       0.33333333 </v>
    <v>      -0.37500000       0.44444444      -0.33333333 </v>
    <v>       0.37500000      -0.44444444      -0.33333333 </v>
    <v>      -0.37500000      -0.44444444       0.33333333 </v>
    <v>       0.50000000       0.44444444       0.33333333 </v>
    <v>       0.50000000       0.44444444      -0.33333333 </v>
   </varray>
   <varray name="weights" >
    <v>       0.00462963 </v>
    <v>       0.00925926 </v>
    <v>       0.00925926 </v>
    <v>       0.00925926 </v>
    <v>       0.00462963 </v>
    <v>       0.00925926 </v>
    <v>       0.00925926 </v>
    <v>       0.00925926 </v>
    <v>       0.00925926 </v>
    <v>       0.00925926 </v>
    <v>       0.00925926 </v>
    <v>       0.00925926 </v>
    <v>       0.00925926 </v>
    <v>       0.00925926 </v>
    <v>       0.00925926 </v>
    <v>       0.00925926 </v>
    <v>       0.00925926 </v>
    <v>       0.00925926 </v>
    <v>       0.00925926 </v>
    <v>       0.00925926 </v>
    <v>       0.00925926 </v>
    <v>       0.00925926 </v>
    <v>       0.00925926 </v>
    <v>       0.00925926 </v>
    <v>       0.00925926 </v>
    <v>       0.00925926 </v>
    <v>       0.00925926 </v>
    <v>       0.00925926 </v>
    <v>       0.00925926 </v>
    <v>       0.00925926 </v>
    <v>       0.00925926 </v>
    <v>       0.00925926 </v>
    <v>       0.00925926 </v>
    <v>       0.00925926 </v>
    <v>       0.00925926 </v>
    <v>       0.00925926 </v>
    <v>       0.00925926 </v>
    <v>       0.00925926 </v>
    <v>       0.00925926 </v>
    <v>       0.00925926 </v>
    <v>       0.00925926 </v>
    <v>       0.00925926 </v>
    <v>       0.00925926 </v>
    <v>       0.00925926 </v>
    <v>       0.00925926 </v>
    <v>       0.00925926 </v>
    <v>       0.00925926 </v>
    <v>       0.00925926 </v>
    <v>       0.00925926 </v>
    <v>       0.00925926 </v>
    <v>       0.00925926 </v>
    <v>       0.00925926 </v>
    <v>       0.00925926 </v>
    <v>       0.00925926 </v>
    <v>       0.00925926 </v>
    <v>       0.00925926 </v>
    <v>       0.00925926 </v>
    <v>       0.00925926 </v>
    <v>       0.00925926 </v>
    <v>       0.00925926 </v>
    <v>       0.00925926 </v>
    <v>       0.00925926 </v>
    <v>       0.00925926 </v>
    <v>       0.00925926 </v>
    <v>       0.00925926 </v>
    <v>       0.00925926 </v>
    <v>       0.00925926 </v>
    <v>       0.00925926 </v>
    <v>       0.00925926 </v>
    <v>       0.00925926 </v>
    <v>       0.00925926 </v>
    <v>       0.00925926 </v>
    <v>       0.00925926 </v>
    <v>       0.00925926 </v>
    <v>       0.00925926 </v>
    <v>       0.00925926 </v>
    <v>       0.00925926 </v>
    <v>       0.00925926 </v>
    <v>       0.00925926 </v>
    <v>       0.00925926 </v>
    <v>       0.00925926 </v>
    <v>       0.00925926 </v>
    <v>       0.00925926 </v>
    <v>       0.00925926 </v>
    <v>       0.00925926 </v>
    <v>       0.00925926 </v>
    <v>       0.00925926 </v>
    <v>       0.00925926 </v>
    <v>       0.00925926 </v>
    <v>       0.00925926 </v>
    <v>       0.00925926 </v>
    <v>       0.00925926 </v>
    <v>       0.00925926 </v>
    <v>       0.00925926 </v>
    <v>       0.00925926 </v>
    <v>       0.00925926 </v>
    <v>       0.00925926 </v>
    <v>       0.00925926 </v>
    <v>       0.00925926 </v>
    <v>       0.00925926 </v>
    <v>       0.00925926 </v>
    <v>       0.00925926 </v>
    <v>       0.00925926 </v>
    <v>       0.00925926 </v>
    <v>       0.00925926 </v>
    <v>       0.00925926 </v>
    <v>       0.00925926 </v>
    <v>       0.00925926 </v>
    <v>       0.00925926 </v>
   </varray>
  </kpoints>
  <time name="totalsc">   26.94   16.46</time>
 </calculation>
 <calculation>
  <scstep>
   <time name="dav">    2.58    1.29</time>
   <time name="total">    3.08    1.65</time>
   <energy>
    <i name="alphaZ">    217.43841536 </i>
    <i name="ewald">  -6082.72479748 </i>
    <i name="hartreedc">  -2303.88453316 </i>
    <i name="XCdc">    230.42993870 </i>
    <i name="pawpsdc">   8473.73756440 </i>
    <i name="pawaedc">  -8569.65310781 </i>
    <i name="eentropy">     -0.00000000 </i>
    <i name="bandstr">   -599.45866261 </i>
    <i name="atom">   8598.20158228 </i>
    <i name="e_fr_energy">    -35.91360032 </i>
    <i name="e_wo_entrp">    -35.91360032 </i>
    <i name="e_0_energy">    -35.91360032 </i>
   </energy>
  </scstep>
  <scstep>
   <time name="dav">    4.47    2.24</time>
   <time name="total">    4.91    2.61</time>
   <energy>
    <i name="e_fr_energy">    -35.91390348 </i>
    <i name="e_wo_entrp">    -35.91390348 </i>
    <i name="e_0_energy">    -35.91390348 </i>
   </energy>
  </scstep>
  <scstep>
   <time name="dav">    3.00    1.51</time>
   <time name="total">    3.48    1.88</time>
   <energy>
    <i name="e_fr_energy">    -35.91389433 </i>
    <i name="e_wo_entrp">    -35.91389433 </i>
    <i name="e_0_energy">    -35.91389433 </i>
   </energy>
  </scstep>
  <scstep>
   <time name="dav">    4.91    2.47</time>
   <time name="total">    5.28    2.84</time>
   <energy>
    <i name="e_fr_energy">    -35.91389246 </i>
    <i name="e_wo_entrp">    -35.91389246 </i>
    <i name="e_0_energy">    -35.91389246 </i>
   </energy>
  </scstep>
  <scstep>
   <time name="dav">    3.34    1.68</time>
   <time name="total">    3.83    2.05</time>
   <energy>
    <i name="e_fr_energy">    -35.91389243 </i>
    <i name="e_wo_entrp">    -35.91389243 </i>
    <i name="e_0_energy">    -35.91389243 </i>
   </energy>
  </scstep>
  <scstep>
   <time name="dav">    4.52    2.29</time>
   <time name="total">    4.88    2.66</time>
   <energy>
    <i name="e_fr_energy">    -35.91389242 </i>
    <i name="e_wo_entrp">    -35.91389242 </i>
    <i name="e_0_energy">    -35.91389242 </i>
   </energy>
  </scstep>
  <scstep>
   <time name="dav">    2.82    1.41</time>
   <time name="total">    3.07    1.66</time>
   <energy>
    <i name="alphaZ">    217.43841536 </i>
    <i name="ewald">  -6082.72479748 </i>
    <i name="hartreedc">  -2303.86411588 </i>
    <i name="XCdc">    230.43073021 </i>
    <i name="pawpsdc">   8471.58571886 </i>
    <i name="pawaedc">  -8567.48458598 </i>
    <i name="eentropy">     -0.00000000 </i>
    <i name="bandstr">   -599.49683978 </i>
    <i name="atom">   8598.20158228 </i>
    <i name="e_fr_energy">    -35.91389241 </i>
    <i name="e_wo_entrp">    -35.91389241 </i>
    <i name="e_0_energy">    -35.91389241 </i>
   </energy>
  </scstep>
  <structure>
   <crystal>
    <varray name="basis" >
     <v>       4.34539863       0.00000000       0.00000000 </v>
     <v>       0.00000000       4.11936655       0.00000000 </v>
     <v>       0.00000000       0.00000000      11.35478920 </v>
    </varray>
    <i name="volume">    203.25401695 </i>
    <varray name="rec_basis" >
     <v>       0.23012848       0.00000000       0.00000000 </v>
     <v>       0.00000000       0.24275577       0.00000000 </v>
     <v>       0.00000000       0.00000000       0.08806857 </v>
    </varray>
   </crystal>
   <varray name="positions" >
    <v>       0.09903631       0.25000000       0.11539711 </v>
    <v>       0.40096369       0.25000000       0.61539711 </v>
    <v>       0.59903631       0.75000000       0.38460289 </v>
    <v>       0.90096369       0.75000000       0.88460289 </v>
    <v>       0.02605052       0.25242756       0.35675466 </v>
    <v>       0.47394948       0.25000000       0.85675466 </v>
    <v>       0.52605052       0.75000000       0.14324534 </v>
    <v>       0.97394948       0.75000000       0.64324534 </v>
   </varray>
  </structure>
  <varray name="forces" >
   <v>      -0.00772915      -0.00127960       0.00372634 </v>
   <v>       0.00772876      -0.00159913       0.00376073 </v>
   <v>      -0.00821154       0.01894535      -0.00368534 </v>
   <v>       0.00771580      -0.00000259      -0.00377831 </v>
   <v>      -0.00304264      -0.03135838      -0.00287205 </v>
   <v>       0.00353636       0.00039842      -0.00283415 </v>
   <v>      -0.00351633       0.01151422       0.00280492 </v>
   <v>       0.00351874       0.00338172       0.00287787 </v>
  </varray>
  <varray name="stress" >
   <v>       0.01089552      -0.30653262      -0.00100500 </v>
   <v>      -0.30653299       0.03718569      -0.09005533 </v>
   <v>      -0.00100380      -0.09005484      -0.51192637 </v>
  </varray>
  <energy>
   <i name="e_fr_energy">    -37.43177218 </i>
   <i name="e_wo_entrp">    -37.43177218 </i>
   <i name="e_0_energy">    -37.43177218 </i>
  </energy>
  <kpoints>
   <generation param="Gamma">
    <v type="int" name="divisions">       8        9        3 </v>
    <v name="usershift">      0.00000000       0.00000000       0.00000000 </v>
    <v name="genvec1">      0.12500000       0.00000000       0.00000000 </v>
    <v name="genvec2">      0.00000000       0.11111111       0.00000000 </v>
    <v name="genvec3">      0.00000000       0.00000000       0.33333333 </v>
    <v name="shift">      0.00000000       0.00000000       0.00000000 </v>
   </generation>
   <varray name="kpointlist" >
    <v>       0.00000000       0.00000000       0.00000000 </v>
    <v>       0.12500000       0.00000000       0.00000000 </v>
    <v>       0.25000000       0.00000000       0.00000000 </v>
    <v>       0.37500000       0.00000000       0.00000000 </v>
    <v>       0.50000000       0.00000000       0.00000000 </v>
    <v>       0.00000000       0.11111111       0.00000000 </v>
    <v>       0.12500000       0.11111111       0.00000000 </v>
    <v>      -0.12500000       0.11111111       0.00000000 </v>
    <v>       0.25000000       0.11111111       0.00000000 </v>
    <v>      -0.25000000       0.11111111       0.00000000 </v>
    <v>       0.37500000       0.11111111       0.00000000 </v>
    <v>      -0.37500000       0.11111111       0.00000000 </v>
    <v>       0.50000000       0.11111111       0.00000000 </v>
    <v>       0.00000000       0.22222222       0.00000000 </v>
    <v>       0.12500000       0.22222222       0.00000000 </v>
    <v>      -0.12500000       0.22222222       0.00000000 </v>
    <v>       0.25000000       0.22222222       0.00000000 </v>
    <v>      -0.25000000       0.22222222       0.00000000 </v>
    <v>       0.37500000       0.22222222       0.00000000 </v>
    <v>      -0.37500000       0.22222222       0.00000000 </v>
    <v>       0.50000000       0.22222222       0.00000000 </v>
    <v>       0.00000000       0.33333333       0.00000000 </v>
    <v>       0.12500000       0.33333333       0.00000000 </v>
    <v>      -0.12500000       0.33333333       0.00000000 </v>
    <v>       0.25000000       0.33333333       0.00000000 </v>
    <v>      -0.25000000       0.33333333       0.00000000 </v>
    <v>       0.37500000       0.33333333       0.00000000 </v>
    <v>      -0.37500000       0.33333333       0.00000000 </v>
    <v>       0.50000000       0.33333333       0.00000000 </v>
    <v>       0.00000000       0.44444444       0.00000000 </v>
    <v>       0.12500000       0.44444444       0.00000000 </v>
    <v>      -0.12500000       0.44444444       0.00000000 </v>
    <v>       0.25000000       0.44444444       0.00000000 </v>
    <v>      -0.25000000       0.44444444       0.00000000 </v>
    <v>       0.37500000       0.44444444       0.00000000 </v>
    <v>      -0.37500000       0.44444444       0.00000000 </v>
    <v>       0.50000000       0.44444444       0.00000000 </v>
    <v>       0.00000000       0.00000000       0.33333333 </v>
    <v>       0.12500000       0.00000000       0.33333333 </v>
    <v>       0.12500000       0.00000000      -0.33333333 </v>
    <v>       0.25000000       0.00000000       0.33333333 </v>
    <v>       0.25000000       0.00000000      -0.33333333 </v>
    <v>       0.37500000       0.00000000       0.33333333 </v>
    <v>       0.37500000       0.00000000      -0.33333333 </v>
    <v>       0.50000000       0.00000000       0.33333333 </v>
    <v>       0.00000000       0.11111111       0.33333333 </v>
    <v>       0.00000000       0.11111111      -0.33333333 </v>
    <v>       0.12500000       0.11111111       0.33333333 </v>
    <v>      -0.12500000       0.11111111      -0.33333333 </v>
    <v>       0.12500000      -0.11111111      -0.33333333 </v>
    <v>      -0.12500000      -0.11111111       0.33333333 </v>
    <v>       0.25000000       0.11111111       0.33333333 </v>
    <v>      -0.25000000       0.11111111      -0.33333333 </v>
    <v>       0.25000000      -0.11111111      -0.33333333 </v>
    <v>      -0.25000000      -0.11111111       0.33333333 </v>
    <v>       0.37500000       0.11111111       0.33333333 </v>
    <v>      -0.37500000       0.11111111      -0.33333333 </v>
    <v>       0.37500000      -0.11111111      -0.33333333 </v>
    <v>      -0.37500000      -0.11111111       0.33333333 </v>
    <v>       0.50000000       0.11111111       0.33333333 </v>
    <v>       0.50000000       0.11111111      -0.33333333 </v>
    <v>       0.00000000       0.22222222       0.33333333 </v>
    <v>       0.00000000       0.22222222      -0.33333333 </v>
    <v>       0.12500000       0.22222222       0.33333333 </v>
    <v>      -0.12500000       0.22222222      -0.33333333 </v>
    <v>       0.12500000      -0.22222222      -0.33333333 </v>
    <v>      -0.12500000      -0.22222222       0.33333333 </v>
    <v>       0.25000000       0.22222222       0.33333333 </v>
    <v>      -0.25000000       0.22222222      -0.33333333 </v>
    <v>       0.25000000      -0.22222222      -0.33333333 </v>
    <v>      -0.25000000      -0.22222222       0.33333333 </v>
    <v>       0.37500000       0.22222222       0.33333333 </v>
    <v>      -0.37500000       0.22222222      -0.33333333 </v>
    <v>       0.37500000      -0.22222222      -0.33333333 </v>
    <v>      -0.37500000      -0.22222222       0.33333333 </v>
    <v>       0.50000000       0.22222222       0.33333333 </v>
    <v>       0.50000000       0.22222222      -0.33333333 </v>
    <v>       0.00000000       0.33333333       0.33333333 </v>
    <v>       0.00000000       0.33333333      -0.33333333 </v>
    <v>       0.12500000       0.33333333       0.33333333 </v>
    <v>      -0.12500000       0.33333333      -0.33333333 </v>
    <v>       0.12500000      -0.33333333      -0.33333333 </v>
    <v>      -0.12500000      -0.33333333       0.33333333 </v>
    <v>       0.25000000       0.33333333       0.33333333 </v>
    <v>      -0.25000000       0.33333333      -0.33333333 </v>
    <v>       0.25000000      -0.33333333      -0.33333333 </v>
    <v>      -0.25000000      -0.33333333       0.33333333 </v>
    <v>       0.37500000       0.33333333       0.33333333 </v>
    <v>      -0.37500000       0.33333333      -0.33333333 </v>
    <v>       0.37500000      -0.33333333      -0.33333333 </v>
    <v>      -0.37500000      -0.33333333       0.33333333 </v>
    <v>       0.50000000       0.33333333       0.33333333 </v>
    <v>       0.50000000       0.33333333      -0.33333333 </v>
    <v>       0.00000000       0.44444444       0.33333333 </v>
    <v>       0.00000000       0.44444444      -0.33333333 </v>
    <v>       0.12500000       0.44444444       0.33333333 </v>
    <v>      -0.12500000       0.44444444      -0.33333333 </v>
    <v>       0.12500000      -0.44444444      -0.33333333 </v>
    <v>      -0.12500000      -0.44444444       0.33333333 </v>
    <v>       0.25000000       0.44444444       0.33333333 </v>
    <v>      -0.25000000       0.44444444      -0.33333333 </v>
    <v>       0.25000000      -0.44444444      -0.33333333 </v>
    <v>      -0.25000000      -0.44444444       0.33333333 </v>
    <v>       0.37500000       0.44444444       0.33333333 </v>
    <v>      -0.37500000       0.44444444      -0.33333333 </v>
    <v>       0.37500000      -0.44444444      -0.33333333 </v>
    <v>      -0.37500000      -0.44444444       0.33333333 </v>
    <v>       0.50000000       0.44444444       0.33333333 </v>
    <v>       0.50000000       0.44444444      -0.33333333 </v>
   </varray>
   <varray name="weights" >
    <v>       0.00462963 </v>
    <v>       0.00925926 </v>
    <v>       0.00925926 </v>
    <v>       0.00925926 </v>
    <v>       0.00462963 </v>
    <v>       0.00925926 </v>
    <v>       0.00925926 </v>
    <v>       0.00925926 </v>
    <v>       0.00925926 </v>
    <v>       0.00925926 </v>
    <v>       0.00925926 </v>
    <v>       0.00925926 </v>
    <v>       0.00925926 </v>
    <v>       0.00925926 </v>
    <v>       0.00925926 </v>
    <v>       0.00925926 </v>
    <v>       0.00925926 </v>
    <v>       0.00925926 </v>
    <v>       0.00925926 </v>
    <v>       0.00925926 </v>
    <v>       0.00925926 </v>
    <v>       0.00925926 </v>
    <v>       0.00925926 </v>
    <v>       0.00925926 </v>
    <v>       0.00925926 </v>
    <v>       0.00925926 </v>
    <v>       0.00925926 </v>
    <v>       0.00925926 </v>
    <v>       0.00925926 </v>
    <v>       0.00925926 </v>
    <v>       0.00925926 </v>
    <v>       0.00925926 </v>
    <v>       0.00925926 </v>
    <v>       0.00925926 </v>
    <v>       0.00925926 </v>
    <v>       0.00925926 </v>
    <v>       0.00925926 </v>
    <v>       0.00925926 </v>
    <v>       0.00925926 </v>
    <v>       0.00925926 </v>
    <v>       0.00925926 </v>
    <v>       0.00925926 </v>
    <v>       0.00925926 </v>
    <v>       0.00925926 </v>
    <v>       0.00925926 </v>
    <v>       0.00925926 </v>
    <v>       0.00925926 </v>
    <v>       0.00925926 </v>
    <v>       0.00925926 </v>
    <v>       0.00925926 </v>
    <v>       0.00925926 </v>
    <v>       0.00925926 </v>
    <v>       0.00925926 </v>
    <v>       0.00925926 </v>
    <v>       0.00925926 </v>
    <v>       0.00925926 </v>
    <v>       0.00925926 </v>
    <v>       0.00925926 </v>
    <v>       0.00925926 </v>
    <v>       0.00925926 </v>
    <v>       0.00925926 </v>
    <v>       0.00925926 </v>
    <v>       0.00925926 </v>
    <v>       0.00925926 </v>
    <v>       0.00925926 </v>
    <v>       0.00925926 </v>
    <v>       0.00925926 </v>
    <v>       0.00925926 </v>
    <v>       0.00925926 </v>
    <v>       0.00925926 </v>
    <v>       0.00925926 </v>
    <v>       0.00925926 </v>
    <v>       0.00925926 </v>
    <v>       0.00925926 </v>
    <v>       0.00925926 </v>
    <v>       0.00925926 </v>
    <v>       0.00925926 </v>
    <v>       0.00925926 </v>
    <v>       0.00925926 </v>
    <v>       0.00925926 </v>
    <v>       0.00925926 </v>
    <v>       0.00925926 </v>
    <v>       0.00925926 </v>
    <v>       0.00925926 </v>
    <v>       0.00925926 </v>
    <v>       0.00925926 </v>
    <v>       0.00925926 </v>
    <v>       0.00925926 </v>
    <v>       0.00925926 </v>
    <v>       0.00925926 </v>
    <v>       0.00925926 </v>
    <v>       0.00925926 </v>
    <v>       0.00925926 </v>
    <v>       0.00925926 </v>
    <v>       0.00925926 </v>
    <v>       0.00925926 </v>
    <v>       0.00925926 </v>
    <v>       0.00925926 </v>
    <v>       0.00925926 </v>
    <v>       0.00925926 </v>
    <v>       0.00925926 </v>
    <v>       0.00925926 </v>
    <v>       0.00925926 </v>
    <v>       0.00925926 </v>
    <v>       0.00925926 </v>
    <v>       0.00925926 </v>
    <v>       0.00925926 </v>
    <v>       0.00925926 </v>
    <v>       0.00925926 </v>
   </varray>
  </kpoints>
  <time name="totalsc">   38.21   23.16</time>
 </calculation>
 <calculation>
  <scstep>
   <time name="dav">    2.57    1.29</time>
   <time name="total">    3.09    1.67</time>
   <energy>
    <i name="alphaZ">    217.43841536 </i>
    <i name="ewald">  -6082.72479748 </i>
    <i name="hartreedc">  -2303.86312243 </i>
    <i name="XCdc">    230.43053963 </i>
    <i name="pawpsdc">   8471.58278422 </i>
    <i name="pawaedc">  -8567.48169590 </i>
    <i name="eentropy">     -0.00000000 </i>
    <i name="bandstr">   -599.49726046 </i>
    <i name="atom">   8598.20158228 </i>
    <i name="e_fr_energy">    -35.91355479 </i>
    <i name="e_wo_entrp">    -35.91355479 </i>
    <i name="e_0_energy">    -35.91355479 </i>
   </energy>
  </scstep>
  <scstep>
   <time name="dav">    4.51    2.28</time>
   <time name="total">    4.88    2.65</time>
   <energy>
    <i name="e_fr_energy">    -35.91391357 </i>
    <i name="e_wo_entrp">    -35.91391357 </i>
    <i name="e_0_energy">    -35.91391357 </i>
   </energy>
  </scstep>
  <scstep>
   <time name="dav">    3.21    1.61</time>
   <time name="total">    3.68    1.98</time>
   <energy>
    <i name="e_fr_energy">    -35.91389467 </i>
    <i name="e_wo_entrp">    -35.91389467 </i>
    <i name="e_0_energy">    -35.91389467 </i>
   </energy>
  </scstep>
  <scstep>
   <time name="dav">    4.91    2.47</time>
   <time name="total">    5.27    2.84</time>
   <energy>
    <i name="e_fr_energy">    -35.91389240 </i>
    <i name="e_wo_entrp">    -35.91389240 </i>
    <i name="e_0_energy">    -35.91389240 </i>
   </energy>
  </scstep>
  <scstep>
   <time name="dav">    3.12    1.57</time>
   <time name="total">    3.61    1.93</time>
   <energy>
    <i name="e_fr_energy">    -35.91389242 </i>
    <i name="e_wo_entrp">    -35.91389242 </i>
    <i name="e_0_energy">    -35.91389242 </i>
   </energy>
  </scstep>
  <scstep>
   <time name="dav">    4.54    2.28</time>
   <time name="total">    4.79    2.52</time>
   <energy>
    <i name="alphaZ">    217.43841536 </i>
    <i name="ewald">  -6082.72479748 </i>
    <i name="hartreedc">  -2303.86414937 </i>
    <i name="XCdc">    230.43073238 </i>
    <i name="pawpsdc">   8471.58214910 </i>
    <i name="pawaedc">  -8567.48106442 </i>
    <i name="eentropy">     -0.00000000 </i>
    <i name="bandstr">   -599.49676027 </i>
    <i name="atom">   8598.20158228 </i>
    <i name="e_fr_energy">    -35.91389242 </i>
    <i name="e_wo_entrp">    -35.91389242 </i>
    <i name="e_0_energy">    -35.91389242 </i>
   </energy>
  </scstep>
  <structure>
   <crystal>
    <varray name="basis" >
     <v>       4.34539863       0.00000000       0.00000000 </v>
     <v>       0.00000000       4.11936655       0.00000000 </v>
     <v>       0.00000000       0.00000000      11.35478920 </v>
    </varray>
    <i name="volume">    203.25401695 </i>
    <varray name="rec_basis" >
     <v>       0.23012848       0.00000000       0.00000000 </v>
     <v>       0.00000000       0.24275577       0.00000000 </v>
     <v>       0.00000000       0.00000000       0.08806857 </v>
    </varray>
   </crystal>
   <varray name="positions" >
    <v>       0.09903631       0.25000000       0.11539711 </v>
    <v>       0.40096369       0.25000000       0.61539711 </v>
    <v>       0.59903631       0.75000000       0.38460289 </v>
    <v>       0.90096369       0.75000000       0.88460289 </v>
    <v>       0.02605052       0.24757244       0.35675466 </v>
    <v>       0.47394948       0.25000000       0.85675466 </v>
    <v>       0.52605052       0.75000000       0.14324534 </v>
    <v>       0.97394948       0.75000000       0.64324534 </v>
   </varray>
  </structure>
  <varray name="forces" >
   <v>      -0.00772769       0.00127364       0.00373649 </v>
   <v>       0.00772921       0.00159727       0.00375508 </v>
   <v>      -0.00820867      -0.01899223      -0.00367528 </v>
   <v>       0.00771373       0.00000357      -0.00377867 </v>
   <v>      -0.00304424       0.03139959      -0.00287921 </v>
   <v>       0.00353803      -0.00039696      -0.00283410 </v>
   <v>      -0.00351762      -0.01150496       0.00280066 </v>
   <v>       0.00351724      -0.00337992       0.00287504 </v>
  </varray>
  <varray name="stress" >
   <v>       0.00897854       0.30902262      -0.00120406 </v>
   <v>       0.30902188       0.03552064       0.08816529 </v>
   <v>      -0.00120348       0.08816424      -0.51392298 </v>
  </varray>
  <energy>
   <i name="e_fr_energy">    -37.43177218 </i>
   <i name="e_wo_entrp">    -37.43177218 </i>
   <i name="e_0_energy">    -37.43177218 </i>
  </energy>
  <kpoints>
   <generation param="Gamma">
    <v type="int" name="divisions">       8        9        3 </v>
    <v name="usershift">      0.00000000       0.00000000       0.00000000 </v>
    <v name="genvec1">      0.12500000       0.00000000       0.00000000 </v>
    <v name="genvec2">      0.00000000       0.11111111       0.00000000 </v>
    <v name="genvec3">      0.00000000       0.00000000       0.33333333 </v>
    <v name="shift">      0.00000000       0.00000000       0.00000000 </v>
   </generation>
   <varray name="kpointlist" >
    <v>       0.00000000       0.00000000       0.00000000 </v>
    <v>       0.12500000       0.00000000       0.00000000 </v>
    <v>       0.25000000       0.00000000       0.00000000 </v>
    <v>       0.37500000       0.00000000       0.00000000 </v>
    <v>       0.50000000       0.00000000       0.00000000 </v>
    <v>       0.00000000       0.11111111       0.00000000 </v>
    <v>       0.12500000       0.11111111       0.00000000 </v>
    <v>       0.25000000       0.11111111       0.00000000 </v>
    <v>       0.37500000       0.11111111       0.00000000 </v>
    <v>       0.50000000       0.11111111       0.00000000 </v>
    <v>       0.00000000       0.22222222       0.00000000 </v>
    <v>       0.12500000       0.22222222       0.00000000 </v>
    <v>       0.25000000       0.22222222       0.00000000 </v>
    <v>       0.37500000       0.22222222       0.00000000 </v>
    <v>       0.50000000       0.22222222       0.00000000 </v>
    <v>       0.00000000       0.33333333       0.00000000 </v>
    <v>       0.12500000       0.33333333       0.00000000 </v>
    <v>       0.25000000       0.33333333       0.00000000 </v>
    <v>       0.37500000       0.33333333       0.00000000 </v>
    <v>       0.50000000       0.33333333       0.00000000 </v>
    <v>       0.00000000       0.44444444       0.00000000 </v>
    <v>       0.12500000       0.44444444       0.00000000 </v>
    <v>       0.25000000       0.44444444       0.00000000 </v>
    <v>       0.37500000       0.44444444       0.00000000 </v>
    <v>       0.50000000       0.44444444       0.00000000 </v>
    <v>       0.00000000       0.00000000       0.33333333 </v>
    <v>       0.12500000       0.00000000       0.33333333 </v>
    <v>       0.12500000       0.00000000      -0.33333333 </v>
    <v>       0.25000000       0.00000000       0.33333333 </v>
    <v>       0.25000000       0.00000000      -0.33333333 </v>
    <v>       0.37500000       0.00000000       0.33333333 </v>
    <v>       0.37500000       0.00000000      -0.33333333 </v>
    <v>       0.50000000       0.00000000       0.33333333 </v>
    <v>       0.00000000       0.11111111       0.33333333 </v>
    <v>       0.12500000       0.11111111       0.33333333 </v>
    <v>       0.12500000      -0.11111111      -0.33333333 </v>
    <v>       0.25000000       0.11111111       0.33333333 </v>
    <v>       0.25000000      -0.11111111      -0.33333333 </v>
    <v>       0.37500000       0.11111111       0.33333333 </v>
    <v>       0.37500000      -0.11111111      -0.33333333 </v>
    <v>       0.50000000       0.11111111       0.33333333 </v>
    <v>       0.00000000       0.22222222       0.33333333 </v>
    <v>       0.12500000       0.22222222       0.33333333 </v>
    <v>       0.12500000      -0.22222222      -0.33333333 </v>
    <v>       0.25000000       0.22222222       0.33333333 </v>
    <v>       0.25000000      -0.22222222      -0.33333333 </v>
    <v>       0.37500000       0.22222222       0.33333333 </v>
    <v>       0.37500000      -0.22222222      -0.33333333 </v>
    <v>       0.50000000       0.22222222       0.33333333 </v>
    <v>       0.00000000       0.33333333       0.33333333 </v>
    <v>       0.12500000       0.33333333       0.33333333 </v>
    <v>       0.12500000      -0.33333333      -0.33333333 </v>
    <v>       0.25000000       0.33333333       0.33333333 </v>
    <v>       0.25000000      -0.33333333      -0.33333333 </v>
    <v>       0.37500000       0.33333333       0.33333333 </v>
    <v>       0.37500000      -0.33333333      -0.33333333 </v>
    <v>       0.50000000       0.33333333       0.33333333 </v>
    <v>       0.00000000       0.44444444       0.33333333 </v>
    <v>       0.12500000       0.44444444       0.33333333 </v>
    <v>       0.12500000      -0.44444444      -0.33333333 </v>
    <v>       0.25000000       0.44444444       0.33333333 </v>
    <v>       0.25000000      -0.44444444      -0.33333333 </v>
    <v>       0.37500000       0.44444444       0.33333333 </v>
    <v>       0.37500000      -0.44444444      -0.33333333 </v>
    <v>       0.50000000       0.44444444       0.33333333 </v>
   </varray>
   <varray name="weights" >
    <v>       0.00462963 </v>
    <v>       0.00925926 </v>
    <v>       0.00925926 </v>
    <v>       0.00925926 </v>
    <v>       0.00462963 </v>
    <v>       0.00925926 </v>
    <v>       0.01851852 </v>
    <v>       0.01851852 </v>
    <v>       0.01851852 </v>
    <v>       0.00925926 </v>
    <v>       0.00925926 </v>
    <v>       0.01851852 </v>
    <v>       0.01851852 </v>
    <v>       0.01851852 </v>
    <v>       0.00925926 </v>
    <v>       0.00925926 </v>
    <v>       0.01851852 </v>
    <v>       0.01851852 </v>
    <v>       0.01851852 </v>
    <v>       0.00925926 </v>
    <v>       0.00925926 </v>
    <v>       0.01851852 </v>
    <v>       0.01851852 </v>
    <v>       0.01851852 </v>
    <v>       0.00925926 </v>
    <v>       0.00925926 </v>
    <v>       0.00925926 </v>
    <v>       0.00925926 </v>
    <v>       0.00925926 </v>
    <v>       0.00925926 </v>
    <v>       0.00925926 </v>
    <v>       0.00925926 </v>
    <v>       0.00925926 </v>
    <v>       0.01851852 </v>
    <v>       0.01851852 </v>
    <v>       0.01851852 </v>
    <v>       0.01851852 </v>
    <v>       0.01851852 </v>
    <v>       0.01851852 </v>
    <v>       0.01851852 </v>
    <v>       0.01851852 </v>
    <v>       0.01851852 </v>
    <v>       0.01851852 </v>
    <v>       0.01851852 </v>
    <v>       0.01851852 </v>
    <v>       0.01851852 </v>
    <v>       0.01851852 </v>
    <v>       0.01851852 </v>
    <v>       0.01851852 </v>
    <v>       0.01851852 </v>
    <v>       0.01851852 </v>
    <v>       0.01851852 </v>
    <v>       0.01851852 </v>
    <v>       0.01851852 </v>
    <v>       0.01851852 </v>
    <v>       0.01851852 </v>
    <v>       0.01851852 </v>
    <v>       0.01851852 </v>
    <v>       0.01851852 </v>
    <v>       0.01851852 </v>
    <v>       0.01851852 </v>
    <v>       0.01851852 </v>
    <v>       0.01851852 </v>
    <v>       0.01851852 </v>
    <v>       0.01851852 </v>
   </varray>
  </kpoints>
  <time name="totalsc">   34.49   21.17</time>
 </calculation>
 <calculation>
  <scstep>
   <time name="dav">    1.65    0.83</time>
   <time name="total">    2.19    1.19</time>
   <energy>
    <i name="alphaZ">    217.43841536 </i>
    <i name="ewald">  -6082.95925603 </i>
    <i name="hartreedc">  -2303.66909278 </i>
    <i name="XCdc">    230.42637042 </i>
    <i name="pawpsdc">   8471.58147427 </i>
    <i name="pawaedc">  -8567.48038589 </i>
    <i name="eentropy">     -0.00000000 </i>
    <i name="bandstr">   -599.45294117 </i>
    <i name="atom">   8598.20158228 </i>
    <i name="e_fr_energy">    -35.91383355 </i>
    <i name="e_wo_entrp">    -35.91383355 </i>
    <i name="e_0_energy">    -35.91383355 </i>
   </energy>
  </scstep>
  <scstep>
   <time name="dav">    2.85    1.43</time>
   <time name="total">    3.32    1.79</time>
   <energy>
    <i name="e_fr_energy">    -35.91403723 </i>
    <i name="e_wo_entrp">    -35.91403723 </i>
    <i name="e_0_energy">    -35.91403723 </i>
   </energy>
  </scstep>
  <scstep>
   <time name="dav">    2.15    1.08</time>
   <time name="total">    2.63    1.44</time>
   <energy>
    <i name="e_fr_energy">    -35.91400746 </i>
    <i name="e_wo_entrp">    -35.91400746 </i>
    <i name="e_0_energy">    -35.91400746 </i>
   </energy>
  </scstep>
  <scstep>
   <time name="dav">    3.06    1.54</time>
   <time name="total">    3.53    1.89</time>
   <energy>
    <i name="e_fr_energy">    -35.91398768 </i>
    <i name="e_wo_entrp">    -35.91398768 </i>
    <i name="e_0_energy">    -35.91398768 </i>
   </energy>
  </scstep>
  <scstep>
   <time name="dav">    2.30    1.15</time>
   <time name="total">    2.77    1.51</time>
   <energy>
    <i name="e_fr_energy">    -35.91398134 </i>
    <i name="e_wo_entrp">    -35.91398134 </i>
    <i name="e_0_energy">    -35.91398134 </i>
   </energy>
  </scstep>
  <scstep>
   <time name="dav">    2.85    1.43</time>
   <time name="total">    3.32    1.79</time>
   <energy>
    <i name="e_fr_energy">    -35.91397967 </i>
    <i name="e_wo_entrp">    -35.91397967 </i>
    <i name="e_0_energy">    -35.91397967 </i>
   </energy>
  </scstep>
  <scstep>
   <time name="dav">    2.27    1.14</time>
   <time name="total">    2.74    1.50</time>
   <energy>
    <i name="e_fr_energy">    -35.91397893 </i>
    <i name="e_wo_entrp">    -35.91397893 </i>
    <i name="e_0_energy">    -35.91397893 </i>
   </energy>
  </scstep>
  <scstep>
   <time name="dav">    2.13    1.07</time>
   <time name="total">    2.51    1.43</time>
   <energy>
    <i name="e_fr_energy">    -35.91397869 </i>
    <i name="e_wo_entrp">    -35.91397869 </i>
    <i name="e_0_energy">    -35.91397869 </i>
   </energy>
  </scstep>
  <scstep>
   <time name="dav">    1.59    0.83</time>
   <time name="total">    1.95    1.18</time>
   <energy>
    <i name="e_fr_energy">    -35.91397855 </i>
    <i name="e_wo_entrp">    -35.91397855 </i>
    <i name="e_0_energy">    -35.91397855 </i>
   </energy>
  </scstep>
  <scstep>
   <time name="dav">    1.76    0.98</time>
   <time name="total">    2.12    1.34</time>
   <energy>
    <i name="e_fr_energy">    -35.91397852 </i>
    <i name="e_wo_entrp">    -35.91397852 </i>
    <i name="e_0_energy">    -35.91397852 </i>
   </energy>
  </scstep>
  <scstep>
   <time name="dav">    1.55    0.81</time>
   <time name="total">    1.91    1.17</time>
   <energy>
    <i name="e_fr_energy">    -35.91397850 </i>
    <i name="e_wo_entrp">    -35.91397850 </i>
    <i name="e_0_energy">    -35.91397850 </i>
   </energy>
  </scstep>
  <scstep>
   <time name="dav">    1.55    0.78</time>
   <time name="total">    1.79    1.02</time>
   <energy>
    <i name="alphaZ">    217.43841536 </i>
    <i name="ewald">  -6082.95925603 </i>
    <i name="hartreedc">  -2303.64895561 </i>
    <i name="XCdc">    230.42667232 </i>
    <i name="pawpsdc">   8469.80759301 </i>
    <i name="pawaedc">  -8565.69431858 </i>
    <i name="eentropy">     -0.00000000 </i>
    <i name="bandstr">   -599.48571124 </i>
    <i name="atom">   8598.20158228 </i>
    <i name="e_fr_energy">    -35.91397850 </i>
    <i name="e_wo_entrp">    -35.91397850 </i>
    <i name="e_0_energy">    -35.91397850 </i>
   </energy>
  </scstep>
  <structure>
   <crystal>
    <varray name="basis" >
     <v>       4.34539863       0.00000000       0.00000000 </v>
     <v>       0.00000000       4.11936655       0.00000000 </v>
     <v>       0.00000000       0.00000000      11.35478920 </v>
    </varray>
    <i name="volume">    203.25401695 </i>
    <varray name="rec_basis" >
     <v>       0.23012848       0.00000000       0.00000000 </v>
     <v>       0.00000000       0.24275577       0.00000000 </v>
     <v>       0.00000000       0.00000000       0.08806857 </v>
    </varray>
   </crystal>
   <varray name="positions" >
    <v>       0.09903631       0.25000000       0.11539711 </v>
    <v>       0.40096369       0.25000000       0.61539711 </v>
    <v>       0.59903631       0.75000000       0.38460289 </v>
    <v>       0.90096369       0.75000000       0.88460289 </v>
    <v>       0.02605052       0.25000000       0.35763535 </v>
    <v>       0.47394948       0.25000000       0.85675466 </v>
    <v>       0.52605052       0.75000000       0.14324534 </v>
    <v>       0.97394948       0.75000000       0.64324534 </v>
   </varray>
  </structure>
  <varray name="forces" >
   <v>      -0.00725374       0.00000000       0.03432268 </v>
   <v>       0.00699329       0.00000000      -0.00077146 </v>
   <v>      -0.00984062       0.00000000       0.00105508 </v>
   <v>       0.00686181       0.00000000      -0.00965627 </v>
   <v>      -0.00043315       0.00000000      -0.05070856 </v>
   <v>       0.00335485       0.00000000       0.00619983 </v>
   <v>      -0.00195109       0.00000000       0.00596481 </v>
   <v>       0.00226865       0.00000000       0.01359389 </v>
  </varray>
  <varray name="stress" >
   <v>      -0.00373804       0.00000000       0.03073389 </v>
   <v>       0.00000000       0.04597048       0.00000000 </v>
   <v>       0.03073480       0.00000000      -1.11890860 </v>
  </varray>
  <energy>
   <i name="e_fr_energy">    -37.43165759 </i>
   <i name="e_wo_entrp">    -37.43165759 </i>
   <i name="e_0_energy">    -37.43165759 </i>
  </energy>
  <kpoints>
   <generation param="Gamma">
    <v type="int" name="divisions">       8        9        3 </v>
    <v name="usershift">      0.00000000       0.00000000       0.00000000 </v>
    <v name="genvec1">      0.12500000       0.00000000       0.00000000 </v>
    <v name="genvec2">      0.00000000       0.11111111       0.00000000 </v>
    <v name="genvec3">      0.00000000       0.00000000       0.33333333 </v>
    <v name="shift">      0.00000000       0.00000000       0.00000000 </v>
   </generation>
   <varray name="kpointlist" >
    <v>       0.00000000       0.00000000       0.00000000 </v>
    <v>       0.12500000       0.00000000       0.00000000 </v>
    <v>       0.25000000       0.00000000       0.00000000 </v>
    <v>       0.37500000       0.00000000       0.00000000 </v>
    <v>       0.50000000       0.00000000       0.00000000 </v>
    <v>       0.00000000       0.11111111       0.00000000 </v>
    <v>       0.12500000       0.11111111       0.00000000 </v>
    <v>       0.25000000       0.11111111       0.00000000 </v>
    <v>       0.37500000       0.11111111       0.00000000 </v>
    <v>       0.50000000       0.11111111       0.00000000 </v>
    <v>       0.00000000       0.22222222       0.00000000 </v>
    <v>       0.12500000       0.22222222       0.00000000 </v>
    <v>       0.25000000       0.22222222       0.00000000 </v>
    <v>       0.37500000       0.22222222       0.00000000 </v>
    <v>       0.50000000       0.22222222       0.00000000 </v>
    <v>       0.00000000       0.33333333       0.00000000 </v>
    <v>       0.12500000       0.33333333       0.00000000 </v>
    <v>       0.25000000       0.33333333       0.00000000 </v>
    <v>       0.37500000       0.33333333       0.00000000 </v>
    <v>       0.50000000       0.33333333       0.00000000 </v>
    <v>       0.00000000       0.44444444       0.00000000 </v>
    <v>       0.12500000       0.44444444       0.00000000 </v>
    <v>       0.25000000       0.44444444       0.00000000 </v>
    <v>       0.37500000       0.44444444       0.00000000 </v>
    <v>       0.50000000       0.44444444       0.00000000 </v>
    <v>       0.00000000       0.00000000       0.33333333 </v>
    <v>       0.12500000       0.00000000       0.33333333 </v>
    <v>       0.12500000       0.00000000      -0.33333333 </v>
    <v>       0.25000000       0.00000000       0.33333333 </v>
    <v>       0.25000000       0.00000000      -0.33333333 </v>
    <v>       0.37500000       0.00000000       0.33333333 </v>
    <v>       0.37500000       0.00000000      -0.33333333 </v>
    <v>       0.50000000       0.00000000       0.33333333 </v>
    <v>       0.00000000       0.11111111       0.33333333 </v>
    <v>       0.12500000       0.11111111       0.33333333 </v>
    <v>       0.12500000      -0.11111111      -0.33333333 </v>
    <v>       0.25000000       0.11111111       0.33333333 </v>
    <v>       0.25000000      -0.11111111      -0.33333333 </v>
    <v>       0.37500000       0.11111111       0.33333333 </v>
    <v>       0.37500000      -0.11111111      -0.33333333 </v>
    <v>       0.50000000       0.11111111       0.33333333 </v>
    <v>       0.00000000       0.22222222       0.33333333 </v>
    <v>       0.12500000       0.22222222       0.33333333 </v>
    <v>       0.12500000      -0.22222222      -0.33333333 </v>
    <v>       0.25000000       0.22222222       0.33333333 </v>
    <v>       0.25000000      -0.22222222      -0.33333333 </v>
    <v>       0.37500000       0.22222222       0.33333333 </v>
    <v>       0.37500000      -0.22222222      -0.33333333 </v>
    <v>       0.50000000       0.22222222       0.33333333 </v>
    <v>       0.00000000       0.33333333       0.33333333 </v>
    <v>       0.12500000       0.33333333       0.33333333 </v>
    <v>       0.12500000      -0.33333333      -0.33333333 </v>
    <v>       0.25000000       0.33333333       0.33333333 </v>
    <v>       0.25000000      -0.33333333      -0.33333333 </v>
    <v>       0.37500000       0.33333333       0.33333333 </v>
    <v>       0.37500000      -0.33333333      -0.33333333 </v>
    <v>       0.50000000       0.33333333       0.33333333 </v>
    <v>       0.00000000       0.44444444       0.33333333 </v>
    <v>       0.12500000       0.44444444       0.33333333 </v>
    <v>       0.12500000      -0.44444444      -0.33333333 </v>
    <v>       0.25000000       0.44444444       0.33333333 </v>
    <v>       0.25000000      -0.44444444      -0.33333333 </v>
    <v>       0.37500000       0.44444444       0.33333333 </v>
    <v>       0.37500000      -0.44444444      -0.33333333 </v>
    <v>       0.50000000       0.44444444       0.33333333 </v>
   </varray>
   <varray name="weights" >
    <v>       0.00462963 </v>
    <v>       0.00925926 </v>
    <v>       0.00925926 </v>
    <v>       0.00925926 </v>
    <v>       0.00462963 </v>
    <v>       0.00925926 </v>
    <v>       0.01851852 </v>
    <v>       0.01851852 </v>
    <v>       0.01851852 </v>
    <v>       0.00925926 </v>
    <v>       0.00925926 </v>
    <v>       0.01851852 </v>
    <v>       0.01851852 </v>
    <v>       0.01851852 </v>
    <v>       0.00925926 </v>
    <v>       0.00925926 </v>
    <v>       0.01851852 </v>
    <v>       0.01851852 </v>
    <v>       0.01851852 </v>
    <v>       0.00925926 </v>
    <v>       0.00925926 </v>
    <v>       0.01851852 </v>
    <v>       0.01851852 </v>
    <v>       0.01851852 </v>
    <v>       0.00925926 </v>
    <v>       0.00925926 </v>
    <v>       0.00925926 </v>
    <v>       0.00925926 </v>
    <v>       0.00925926 </v>
    <v>       0.00925926 </v>
    <v>       0.00925926 </v>
    <v>       0.00925926 </v>
    <v>       0.00925926 </v>
    <v>       0.01851852 </v>
    <v>       0.01851852 </v>
    <v>       0.01851852 </v>
    <v>       0.01851852 </v>
    <v>       0.01851852 </v>
    <v>       0.01851852 </v>
    <v>       0.01851852 </v>
    <v>       0.01851852 </v>
    <v>       0.01851852 </v>
    <v>       0.01851852 </v>
    <v>       0.01851852 </v>
    <v>       0.01851852 </v>
    <v>       0.01851852 </v>
    <v>       0.01851852 </v>
    <v>       0.01851852 </v>
    <v>       0.01851852 </v>
    <v>       0.01851852 </v>
    <v>       0.01851852 </v>
    <v>       0.01851852 </v>
    <v>       0.01851852 </v>
    <v>       0.01851852 </v>
    <v>       0.01851852 </v>
    <v>       0.01851852 </v>
    <v>       0.01851852 </v>
    <v>       0.01851852 </v>
    <v>       0.01851852 </v>
    <v>       0.01851852 </v>
    <v>       0.01851852 </v>
    <v>       0.01851852 </v>
    <v>       0.01851852 </v>
    <v>       0.01851852 </v>
    <v>       0.01851852 </v>
   </varray>
  </kpoints>
  <time name="totalsc">   37.78   22.74</time>
 </calculation>
 <calculation>
  <scstep>
   <time name="dav">    1.64    0.83</time>
   <time name="total">    2.19    1.19</time>
   <energy>
    <i name="alphaZ">    217.43841536 </i>
    <i name="ewald">  -6082.48418300 </i>
    <i name="hartreedc">  -2304.04314109 </i>
    <i name="XCdc">    230.43504009 </i>
    <i name="pawpsdc">   8469.80758337 </i>
    <i name="pawaedc">  -8565.69431071 </i>
    <i name="eentropy">     -0.00000000 </i>
    <i name="bandstr">   -599.57434467 </i>
    <i name="atom">   8598.20158228 </i>
    <i name="e_fr_energy">    -35.91335838 </i>
    <i name="e_wo_entrp">    -35.91335838 </i>
    <i name="e_0_energy">    -35.91335838 </i>
   </energy>
  </scstep>
  <scstep>
   <time name="dav">    2.76    1.38</time>
   <time name="total">    3.23    1.75</time>
   <energy>
    <i name="e_fr_energy">    -35.91366148 </i>
    <i name="e_wo_entrp">    -35.91366148 </i>
    <i name="e_0_energy">    -35.91366148 </i>
   </energy>
  </scstep>
  <scstep>
   <time name="dav">    2.18    1.09</time>
   <time name="total">    2.65    1.45</time>
   <energy>
    <i name="e_fr_energy">    -35.91364688 </i>
    <i name="e_wo_entrp">    -35.91364688 </i>
    <i name="e_0_energy">    -35.91364688 </i>
   </energy>
  </scstep>
  <scstep>
   <time name="dav">    3.13    1.57</time>
   <time name="total">    3.60    1.93</time>
   <energy>
    <i name="e_fr_energy">    -35.91364547 </i>
    <i name="e_wo_entrp">    -35.91364547 </i>
    <i name="e_0_energy">    -35.91364547 </i>
   </energy>
  </scstep>
  <scstep>
   <time name="dav">    2.23    1.12</time>
   <time name="total">    2.71    1.48</time>
   <energy>
    <i name="e_fr_energy">    -35.91364554 </i>
    <i name="e_wo_entrp">    -35.91364554 </i>
    <i name="e_0_energy">    -35.91364554 </i>
   </energy>
  </scstep>
  <scstep>
   <time name="dav">    3.17    1.59</time>
   <time name="total">    3.65    1.95</time>
   <energy>
    <i name="e_fr_energy">    -35.91364560 </i>
    <i name="e_wo_entrp">    -35.91364560 </i>
    <i name="e_0_energy">    -35.91364560 </i>
   </energy>
  </scstep>
  <scstep>
   <time name="dav">    2.12    1.07</time>
   <time name="total">    2.37    1.31</time>
   <energy>
    <i name="alphaZ">    217.43841536 </i>
    <i name="ewald">  -6082.48418300 </i>
    <i name="hartreedc">  -2304.08547989 </i>
    <i name="XCdc">    230.43475801 </i>
    <i name="pawpsdc">   8473.35273182 </i>
    <i name="pawaedc">  -8569.26382598 </i>
    <i name="eentropy">     -0.00000000 </i>
    <i name="bandstr">   -599.50764420 </i>
    <i name="atom">   8598.20158228 </i>
    <i name="e_fr_energy">    -35.91364560 </i>
    <i name="e_wo_entrp">    -35.91364560 </i>
    <i name="e_0_energy">    -35.91364560 </i>
   </energy>
  </scstep>
  <structure>
   <crystal>
    <varray name="basis" >
     <v>       4.34539863       0.00000000       0.00000000 </v>
     <v>       0.00000000       4.11936655       0.00000000 </v>
     <v>       0.00000000       0.00000000      11.35478920 </v>
    </varray>
    <i name="volume">    203.25401695 </i>
    <varray name="rec_basis" >
     <v>       0.23012848       0.00000000       0.00000000 </v>
     <v>       0.00000000       0.24275577       0.00000000 </v>
     <v>       0.00000000       0.00000000       0.08806857 </v>
    </varray>
   </crystal>
   <varray name="positions" >
    <v>       0.09903631       0.25000000       0.11539711 </v>
    <v>       0.40096369       0.25000000       0.61539711 </v>
    <v>       0.59903631       0.75000000       0.38460289 </v>
    <v>       0.90096369       0.75000000       0.88460289 </v>
    <v>       0.02605052       0.25000000       0.35587398 </v>
    <v>       0.47394948       0.25000000       0.85675466 </v>
    <v>       0.52605052       0.75000000       0.14324534 </v>
    <v>       0.97394948       0.75000000       0.64324534 </v>
   </varray>
  </structure>
  <varray name="forces" >
   <v>      -0.00799869       0.00000000      -0.02842446 </v>
   <v>       0.00847925       0.00000000       0.00841914 </v>
   <v>      -0.00558899       0.00000000      -0.00865870 </v>
   <v>       0.00862159       0.00000000       0.00211578 </v>
   <v>      -0.00685350       0.00000000       0.04645036 </v>
   <v>       0.00367693       0.00000000      -0.01188454 </v>
   <v>      -0.00513603       0.00000000      -0.00019214 </v>
   <v>       0.00479943       0.00000000      -0.00782544 </v>
  </varray>
  <varray name="stress" >
   <v>       0.00463143       0.00000000      -0.03400928 </v>
   <v>       0.00000000       0.00962272       0.00000000 </v>
   <v>      -0.03400970       0.00000000       0.12100955 </v>
  </varray>
  <energy>
   <i name="e_fr_energy">    -37.43171475 </i>
   <i name="e_wo_entrp">    -37.43171475 </i>
   <i name="e_0_energy">    -37.43171475 </i>
  </energy>
  <dynmat>
   <i name="unit" type="string">THz^2 </i>
   <varray name="hessian" >
    <v>      -5.92337315      -0.00000000      -1.54804854      -0.30464906      -0.00000000      -0.26275897       0.72379996       0.00000000       0.62580097       0.32936283       0.00000000       0.69868301      -0.25708951       0.00000000       0.09373444       0.19116320       0.00000000       0.18679055       6.36392049       0.00000000       0.53607727       0.04753227      -0.00000000      -0.22273515 </v>
    <v>      -0.00000000      -4.40368160       0.00000000      -0.00000000       0.09526738       0.00000000       0.00000000       0.16448236       0.00000000       0.00000000       0.82957314       0.00000000       0.00000000      -0.32043995       0.00000000       0.00000000      -0.40316788       0.00000000       0.00000000       4.78685005       0.00000000       0.00000000      -0.00033420      -0.00000000 </v>
    <v>      -1.54804854       0.00000000      -9.62197238       0.26275897       0.00000000       2.05836787      -0.62580097       0.00000000       0.46844821       0.69868301       0.00000000       1.78499452       0.40803975       0.00000000       7.92213855      -0.60536643       0.00000000      -1.15893291       1.41742626       0.00000000       1.22792246       0.27197872       0.00000000      -1.48560069 </v>
    <v>      -0.30464906      -0.00000000       0.26275897      -5.92337315      -0.00000000       1.54804854       0.32936283       0.00000000      -0.69868301       0.72379996       0.00000000      -0.62580097       0.19116320       0.00000000      -0.18679055      -0.25708951       0.00000000      -0.09373444       0.04753227      -0.00000000       0.22273515       6.36392049       0.00000000      -0.53607727 </v>
    <v>      -0.00000000       0.09526738       0.00000000      -0.00000000      -4.40368160       0.00000000       0.00000000       0.82957314       0.00000000       0.00000000       0.16448236       0.00000000       0.00000000      -0.40316788      -0.00000000       0.00000000      -0.32043995      -0.00000000       0.00000000      -0.00033420       0.00000000       0.00000000       4.78685005       0.00000000 </v>
    <v>      -0.26275897       0.00000000       2.05836787       1.54804854       0.00000000      -9.62197238      -0.69868301       0.00000000       1.78499452       0.62580097       0.00000000       0.46844821       0.60536643       0.00000000      -1.15893291      -0.40803975       0.00000000       7.92213855      -0.27197872       0.00000000      -1.48560069      -1.41742626       0.00000000       1.22792246 </v>
    <v>       0.72379996       0.00000000      -0.62580097       0.32936283       0.00000000      -0.69868301      -5.92337315      -0.00000000       1.54804854      -0.30464906      -0.00000000       0.26275897       6.36392049       0.00000000      -0.53607727       0.04753227      -0.00000000       0.22273515      -0.25708951       0.00000000      -0.09373444       0.19116320       0.00000000      -0.18679055 </v>
    <v>       0.00000000       0.16448236       0.00000000       0.00000000       0.82957314       0.00000000      -0.00000000      -4.40368160       0.00000000      -0.00000000       0.09526738       0.00000000       0.00000000       4.78685005       0.00000000       0.00000000      -0.00033420       0.00000000       0.00000000      -0.32043995      -0.00000000       0.00000000      -0.40316788      -0.00000000 </v>
    <v>       0.62580097       0.00000000       0.46844821      -0.69868301       0.00000000       1.78499452       1.54804854       0.00000000      -9.62197238      -0.26275897       0.00000000       2.05836787      -1.41742626       0.00000000       1.22792246      -0.27197872       0.00000000      -1.48560069      -0.40803975       0.00000000       7.92213855       0.60536643       0.00000000      -1.15893291 </v>
    <v>       0.32936283       0.00000000       0.69868301       0.72379996       0.00000000       0.62580097      -0.30464906      -0.00000000      -0.26275897      -5.92337315      -0.00000000      -1.54804854       0.04753227      -0.00000000      -0.22273515       6.36392049       0.00000000       0.53607727       0.19116320       0.00000000       0.18679055      -0.25708951       0.00000000       0.09373444 </v>
    <v>       0.00000000       0.82957314       0.00000000       0.00000000       0.16448236       0.00000000      -0.00000000       0.09526738       0.00000000      -0.00000000      -4.40368160       0.00000000       0.00000000      -0.00033420      -0.00000000       0.00000000       4.78685005       0.00000000       0.00000000      -0.40316788       0.00000000       0.00000000      -0.32043995       0.00000000 </v>
    <v>       0.69868301       0.00000000       1.78499452      -0.62580097       0.00000000       0.46844821       0.26275897       0.00000000       2.05836787      -1.54804854       0.00000000      -9.62197238       0.27197872       0.00000000      -1.48560069       1.41742626       0.00000000       1.22792246      -0.60536643       0.00000000      -1.15893291       0.40803975       0.00000000       7.92213855 </v>
    <v>      -0.25708951       0.00000000       0.40803975       0.19116320       0.00000000       0.60536643       6.36392049       0.00000000      -1.41742626       0.04753227       0.00000000       0.27197872     -12.26725957       0.00000000       0.99379147       0.26653792       0.00000000       0.05017144       3.24292473      -0.00000000      -0.49258544       0.97677282       0.00000000      -0.39112247 </v>
    <v>       0.00000000      -0.32043995       0.00000000       0.00000000      -0.40316788       0.00000000       0.00000000       4.78685005       0.00000000      -0.00000000      -0.00033420       0.00000000       0.00000000      -9.71254854      -0.00000000       0.00000000       0.12309379       0.00000000      -0.00000000       3.56249375       0.00000000       0.00000000       1.04644377       0.00000000 </v>
    <v>       0.09373444       0.00000000       7.92213855      -0.18679055      -0.00000000      -1.15893291      -0.53607727       0.00000000       1.22792246      -0.22273515      -0.00000000      -1.48560069       0.99379147      -0.00000000     -15.03650770      -0.05017144       0.00000000       2.79877276       0.49258544       0.00000000       0.95286181      -0.39112247       0.00000000       3.31489809 </v>
    <v>       0.19116320       0.00000000      -0.60536643      -0.25708951       0.00000000      -0.40803975       0.04753227       0.00000000      -0.27197872       6.36392049       0.00000000       1.41742626       0.26653792       0.00000000      -0.05017144     -12.26725957       0.00000000      -0.99379147       0.97677282       0.00000000       0.39112247       3.24292473      -0.00000000       0.49258544 </v>
    <v>       0.00000000      -0.40316788       0.00000000       0.00000000      -0.32043995       0.00000000      -0.00000000      -0.00033420       0.00000000       0.00000000       4.78685005       0.00000000       0.00000000       0.12309379       0.00000000       0.00000000      -9.71254854       0.00000000       0.00000000       1.04644377       0.00000000      -0.00000000       3.56249375       0.00000000 </v>
    <v>       0.18679055       0.00000000      -1.15893291      -0.09373444      -0.00000000       7.92213855       0.22273515       0.00000000      -1.48560069       0.53607727       0.00000000       1.22792246       0.05017144       0.00000000       2.79877276      -0.99379147       0.00000000     -15.03650770       0.39112247       0.00000000       3.31489809      -0.49258544       0.00000000       0.95286181 </v>
    <v>       6.36392049       0.00000000       1.41742626       0.04753227       0.00000000      -0.27197872      -0.25708951       0.00000000      -0.40803975       0.19116320       0.00000000      -0.60536643       3.24292473      -0.00000000       0.49258544       0.97677282       0.00000000       0.39112247     -12.26725957       0.00000000      -0.99379147       0.26653792       0.00000000      -0.05017144 </v>
    <v>       0.00000000       4.78685005       0.00000000      -0.00000000      -0.00033420       0.00000000       0.00000000      -0.32043995       0.00000000       0.00000000      -0.40316788       0.00000000      -0.00000000       3.56249375       0.00000000       0.00000000       1.04644377       0.00000000       0.00000000      -9.71254854       0.00000000       0.00000000       0.12309379       0.00000000 </v>
    <v>       0.53607727       0.00000000       1.22792246       0.22273515       0.00000000      -1.48560069      -0.09373444      -0.00000000       7.92213855       0.18679055       0.00000000      -1.15893291      -0.49258544       0.00000000       0.95286181       0.39112247       0.00000000       3.31489809      -0.99379147       0.00000000     -15.03650770       0.05017144       0.00000000       2.79877276 </v>
    <v>       0.04753227       0.00000000       0.27197872       6.36392049       0.00000000      -1.41742626       0.19116320       0.00000000       0.60536643      -0.25708951       0.00000000       0.40803975       0.97677282       0.00000000      -0.39112247       3.24292473      -0.00000000      -0.49258544       0.26653792       0.00000000       0.05017144     -12.26725957       0.00000000       0.99379147 </v>
    <v>      -0.00000000      -0.00033420       0.00000000       0.00000000       4.78685005       0.00000000       0.00000000      -0.40316788       0.00000000       0.00000000      -0.32043995       0.00000000       0.00000000       1.04644377       0.00000000      -0.00000000       3.56249375       0.00000000       0.00000000       0.12309379       0.00000000       0.00000000      -9.71254854      -0.00000000 </v>
    <v>      -0.22273515      -0.00000000      -1.48560069      -0.53607727       0.00000000       1.22792246      -0.18679055      -0.00000000      -1.15893291       0.09373444       0.00000000       7.92213855      -0.39112247       0.00000000       3.31489809       0.49258544       0.00000000       0.95286181      -0.05017144       0.00000000       2.79877276       0.99379147      -0.00000000     -15.03650770 </v>
   </varray>
   <v name="eigenvalues"> -2.94378240E+001 -2.11185573E+001 -1.97796916E+001 -1.92146148E+001 -1.85302508E+001 -1.68318025E+001 -1.55461031E+001 -1.44386624E+001 -1.36789232E+001 -1.32528058E+001 -1.12295657E+001 -8.29487606E+000 -5.33430858E+000 -4.22786121E+000 -4.06813459E+000 -3.81550744E+000 -2.66905948E+000 -2.31019341E+000 -1.74688811E+000 -1.25406641E+000 -1.08167963E+000  1.11098050E-007  1.75254072E-006  2.53249213E-006</v>
   <varray name="eigenvectors" >
    <v>   5.74832149E-002 -9.07845417E-018  2.94414241E-001  5.74832149E-002 -2.66889429E-017 -2.94414241E-001 -5.74832149E-002  6.60599592E-018  2.94414241E-001 -5.74832149E-002  7.85508701E-018 -2.94414241E-001  9.49560014E-002 -1.99690755E-017 -3.88586274E-001  9.49560014E-002 -2.65874303E-017  3.88586274E-001 -9.49560014E-002  4.71531596E-017 -3.88586274E-001 -9.49560014E-002  1.68224025E-016  3.88586274E-001</v>
    <v>  -5.81798002E-002 -1.09334881E-016 -2.75250356E-001  5.81798002E-002  2.99216839E-017 -2.75250356E-001 -5.81798002E-002  3.88061457E-017  2.75250356E-001  5.81798002E-002  3.56945879E-017  2.75250356E-001  1.28309173E-002 -1.31565941E-016  4.13143704E-001 -1.28309173E-002 -6.75207532E-017  4.13143704E-001  1.28309173E-002  3.92474154E-016 -4.13143704E-001 -1.28309173E-002 -1.18456763E-016 -4.13143704E-001</v>
    <v>   1.99333312E-003 -7.17546608E-017 -2.79653136E-001  1.99333312E-003 -7.03112077E-017  2.79653136E-001  1.99333312E-003  3.76776423E-017  2.79653136E-001  1.99333312E-003  1.11018873E-016 -2.79653136E-001 -2.37849796E-003 -8.28426726E-017  4.14468929E-001 -2.37849796E-003 -2.72399328E-016 -4.14468929E-001 -2.37849796E-003  2.26314180E-016 -4.14468929E-001 -2.37849796E-003  1.37783294E-016  4.14468929E-001</v>
    <v>  -2.23926484E-001  8.80645558E-017  3.40415793E-002 -2.23926484E-001 -2.34888132E-017 -3.40415793E-002  2.23926484E-001  8.09381590E-019  3.40415793E-002  2.23926484E-001 -1.03882129E-016 -3.40415793E-002 -4.31268405E-001  9.75998586E-018 -1.12719400E-001 -4.31268405E-001  1.92622492E-016  1.12719400E-001  4.31268405E-001 -3.13232120E-016 -1.12719400E-001  4.31268405E-001  1.21525497E-016  1.12719400E-001</v>
    <v>  -2.38896396E-001 -9.56927516E-017 -3.30229940E-002  2.38896396E-001 -1.52897128E-016 -3.30229940E-002  2.38896396E-001  8.05952362E-017 -3.30229940E-002 -2.38896396E-001  2.85998958E-016 -3.30229940E-002 -4.36126280E-001 -1.99105361E-016  4.03963052E-002  4.36126280E-001 -6.09894796E-016  4.03963052E-002  4.36126280E-001  1.41700752E-016  4.03963052E-002 -4.36126280E-001  3.56535293E-016  4.03963052E-002</v>
    <v>  -6.39548214E-016  2.15603386E-001 -2.54242492E-016  3.29507894E-016  2.15603386E-001  1.56286167E-017 -5.36469518E-016 -2.15603386E-001  3.97420733E-016  1.57020684E-016 -2.15603386E-001  2.46149123E-016  7.84490023E-017  4.51126568E-001 -1.27170377E-016  2.66136786E-016  4.51126568E-001 -3.82385015E-016  5.14170082E-016 -4.51126568E-001 -2.16589327E-016 -4.44430048E-016 -4.51126568E-001  1.66931488E-016</v>
    <v>  -2.58657541E-001 -7.33406887E-016 -1.25555758E-001  2.58657541E-001  1.89953895E-016 -1.25555758E-001 -2.58657541E-001  6.70881209E-016  1.25555758E-001  2.58657541E-001 -3.85105274E-016  1.25555758E-001  3.87146242E-001 -1.50368035E-015 -1.32097747E-001 -3.87146242E-001  9.85196183E-016 -1.32097747E-001  3.87146242E-001  1.71388991E-015  1.32097747E-001 -3.87146242E-001 -6.02808122E-016  1.32097747E-001</v>
    <v>   9.49676149E-016 -2.02752840E-001  3.58549430E-016 -3.46072608E-016  2.02752840E-001 -2.98686196E-017  1.35898130E-015  2.02752840E-001 -9.38361033E-016 -2.94590292E-016 -2.02752840E-001 -5.41252626E-016 -1.64359568E-015 -4.57046262E-001  9.55583419E-016  2.53879863E-016  4.57046262E-001  8.00369074E-016 -1.41658483E-015  4.57046262E-001  3.42565247E-017  3.18451797E-016 -4.57046262E-001  4.16594763E-016</v>
    <v>  -3.01962273E-001 -3.16959967E-016 -1.23686009E-001 -3.01962273E-001  1.95649873E-016  1.23686009E-001 -3.01962273E-001  4.68847840E-016  1.23686009E-001 -3.01962273E-001 -3.58320002E-016 -1.23686009E-001  3.70324524E-001 -9.36589141E-016 -7.98768027E-002  3.70324524E-001  6.74820749E-016  7.98768027E-002  3.70324524E-001  6.18550095E-016  7.98768027E-002  3.70324524E-001 -4.67529265E-016 -7.98768027E-002</v>
    <v>   1.89234902E-003  1.11104874E-016 -3.14003792E-001 -1.89234902E-003  6.60774203E-017 -3.14003792E-001 -1.89234902E-003 -5.46699812E-016 -3.14003792E-001  1.89234902E-003  3.68282947E-016 -3.14003792E-001  5.83719771E-002  9.68112929E-016  3.84695659E-001 -5.83719771E-002 -6.95667798E-016  3.84695659E-001 -5.83719771E-002 -2.27228377E-016  3.84695659E-001  5.83719771E-002 -9.66303400E-018  3.84695659E-001</v>
    <v>   1.14015795E-016  3.13032610E-001 -3.82880999E-016  1.84403136E-016 -3.13032610E-001 -2.90773823E-016 -8.50345256E-017  3.13032610E-001 -3.35555491E-016  4.65603822E-017 -3.13032610E-001 -2.22813907E-016 -1.15146562E-016 -3.89885349E-001  3.62742179E-016  8.36344991E-017  3.89885349E-001  1.78524380E-016 -3.56172045E-016 -3.89885349E-001  1.16062553E-016 -1.71342931E-016  3.89885349E-001  2.16282705E-016</v>
    <v>  -2.21175964E-017  3.16056563E-001 -2.08518452E-016  9.49177138E-017  3.16056563E-001 -2.11742179E-016  7.73481883E-017  3.16056563E-001  2.18851472E-016  3.08811479E-016  3.16056563E-001  3.25688424E-016  2.20224503E-016 -3.87438058E-001 -2.00118167E-016  1.06244238E-016 -3.87438058E-001 -1.67374236E-016  4.39046668E-017 -3.87438058E-001  1.55900446E-016  1.15097987E-016 -3.87438058E-001  2.23212754E-016</v>
    <v>  -9.32408291E-002 -5.90599442E-017  3.95595545E-001 -9.32408291E-002 -1.52842893E-016 -3.95595545E-001 -9.32408291E-002  1.42433252E-017 -3.95595545E-001 -9.32408291E-002  6.43141397E-017  3.95595545E-001  1.13908395E-001  2.56454990E-017  2.68020876E-001  1.13908395E-001 -5.30092042E-018 -2.68020876E-001  1.13908395E-001  3.86959151E-017 -2.68020876E-001  1.13908395E-001  5.25233950E-017  2.68020876E-001</v>
    <v>  -1.52553499E-001  6.37049857E-017 -3.70369256E-001 -1.52553499E-001 -1.79054705E-017  3.70369256E-001  1.52553499E-001 -1.19079900E-016 -3.70369256E-001  1.52553499E-001 -4.87314971E-016  3.70369256E-001  1.21459081E-001  3.81654207E-017 -2.73499060E-001  1.21459081E-001 -2.98218146E-016  2.73499060E-001 -1.21459081E-001  1.02267454E-016 -2.73499060E-001 -1.21459081E-001  6.03248720E-017  2.73499060E-001</v>
    <v>   5.94161597E-003 -9.71416076E-016 -3.82865304E-001 -5.94161597E-003 -6.15360740E-016 -3.82865304E-001  5.94161597E-003  2.08424177E-016  3.82865304E-001 -5.94161597E-003  8.04194051E-016  3.82865304E-001 -2.04777083E-001  1.01058682E-016 -2.47881429E-001  2.04777083E-001  6.82641266E-016 -2.47881429E-001 -2.04777083E-001 -2.36382752E-016  2.47881429E-001  2.04777083E-001 -4.20743277E-017  2.47881429E-001</v>
    <v>   4.16269191E-001 -1.41079004E-016 -1.58076055E-001  4.16269191E-001  6.03602201E-016  1.58076055E-001 -4.16269191E-001  1.04377714E-016 -1.58076055E-001 -4.16269191E-001 -5.14624353E-016  1.58076055E-001 -2.00595643E-001 -6.45517935E-017 -1.07206851E-001 -2.00595643E-001 -3.89018179E-016  1.07206851E-001  2.00595643E-001 -1.73084569E-017 -1.07206851E-001  2.00595643E-001  1.36035132E-016  1.07206851E-001</v>
    <v>  -7.18389512E-016  4.51126568E-001 -2.53923859E-016  2.84330344E-016  4.51126568E-001 -7.16499721E-016  8.34012805E-016 -4.51126568E-001  6.13750892E-016 -6.84951432E-016 -4.51126568E-001  3.18035160E-016  1.72643048E-016 -2.15603386E-001 -1.88410157E-016 -1.75650428E-016 -2.15603386E-001 -4.62224198E-016 -5.82228580E-016  2.15603386E-001  3.45679436E-016  4.23466247E-016  2.15603386E-001  1.38128225E-016</v>
    <v>   4.39232185E-001  4.58762736E-016 -1.64881984E-002 -4.39232185E-001  6.22642801E-016 -1.64881984E-002 -4.39232185E-001 -7.28320206E-016 -1.64881984E-002  4.39232185E-001 -7.06445879E-016 -1.64881984E-002 -2.37458584E-001 -3.87468404E-016  2.04119528E-002  2.37458584E-001 -3.00510153E-016  2.04119528E-002  2.37458584E-001  2.86138904E-016  2.04119528E-002 -2.37458584E-001  2.88590552E-016  2.04119528E-002</v>
    <v>  -6.58137792E-016 -4.57046262E-001 -6.53017554E-017  2.21674278E-016  4.57046262E-001 -3.84108638E-016 -1.93235823E-016  4.57046262E-001 -2.06686496E-016  5.79541174E-016 -4.57046262E-001 -4.39406274E-016 -9.12703981E-017  2.02752840E-001 -1.13497361E-016  3.05464952E-016 -2.02752840E-001 -3.72549667E-016 -3.95995333E-016 -2.02752840E-001 -1.47393941E-016  9.69386043E-017  2.02752840E-001 -2.87272274E-016</v>
    <v>  -2.19494659E-015 -3.89885349E-001  1.29710905E-016  2.66604554E-015  3.89885349E-001  2.52346496E-016 -1.92903271E-015 -3.89885349E-001 -1.39602201E-015  2.75542447E-015  3.89885349E-001 -1.21665360E-015 -9.32106512E-016 -3.13032610E-001 -2.43103417E-016  1.59506730E-015  3.13032610E-001 -2.53978462E-016 -1.17858228E-015 -3.13032610E-001 -7.18006396E-016  1.38446071E-015  3.13032610E-001 -6.06177237E-016</v>
    <v>  -4.23882158E-001  2.51822229E-015  1.09028217E-001  4.23882158E-001 -2.59436705E-015  1.09028217E-001 -4.23882158E-001  1.52069722E-015 -1.09028217E-001  4.23882158E-001 -1.96472457E-015 -1.09028217E-001 -2.40872375E-001  1.32062275E-015  2.04270080E-002  2.40872375E-001 -1.86855464E-015  2.04270080E-002 -2.40872375E-001  2.22865278E-015 -2.04270080E-002  2.40872375E-001 -1.93731401E-015 -2.04270080E-002</v>
    <v>  -8.04245505E-011  3.87438058E-001 -8.73648144E-011 -8.04858180E-011  3.87438058E-001 -8.72633532E-011 -8.04859649E-011  3.87438058E-001 -8.72634634E-011 -8.04242943E-011  3.87438058E-001 -8.73647762E-011 -6.56320518E-011  3.16056563E-001 -7.12922193E-011 -6.56182448E-011  3.16056563E-001 -7.12443959E-011 -6.56184668E-011  3.16056563E-001 -7.12444950E-011 -6.56318828E-011  3.16056563E-001 -7.12921349E-011</v>
    <v>  -3.87454462E-001 -8.04520228E-011 -2.44131109E-004 -3.87454462E-001 -8.04514353E-011  2.44132210E-004 -3.87454462E-001 -8.04518993E-011  2.44132210E-004 -3.87454462E-001 -8.04514257E-011 -2.44131109E-004 -3.16036338E-001 -6.56296807E-011 -1.14937374E-004 -3.16036338E-001 -6.56294830E-011  1.14938274E-004 -3.16036338E-001 -6.56298212E-011  1.14938274E-004 -3.16036338E-001 -6.56293068E-011 -1.14937374E-004</v>
    <v>   1.36109540E-004 -8.73334432E-011 -3.87348990E-001 -1.36110642E-004 -8.73349226E-011 -3.87348990E-001 -1.36110642E-004 -8.73339160E-011 -3.87348990E-001  1.36109540E-004 -8.73342560E-011 -3.87348990E-001 -2.98504510E-005 -7.12434511E-011 -3.16165685E-001  2.98495522E-005 -7.12440046E-011 -3.16165685E-001  2.98495522E-005 -7.12431661E-011 -3.16165685E-001 -2.98504510E-005 -7.12443900E-011 -3.16165685E-001</v>
   </varray>
   <array name="force_constants" >
    <dimension dim="1">cart_super</dimension>
    <dimension dim="2">ion_super</dimension>
    <dimension dim="3">ion_primitive</dimension>
    <field>f_cart_prim_1</field>
    <field>f_cart_prim_2</field>
    <field>f_cart_prim_3</field>
    <set>
     <set comment="ionprim 1">
      <set comment="ion 1">
       <r>      -2.87709992     -0.00000000     -0.75191790</r>
       <r>      -0.00000000     -2.13895557      0.00000000</r>
       <r>      -0.75191790      0.00000000     -4.67358299</r>
      </set>
      <set comment="ion 2">
       <r>      -0.14797409     -0.00000000      0.12762725</r>
       <r>      -0.00000000      0.04627326      0.00000000</r>
       <r>      -0.12762725      0.00000000      0.99979013</r>
      </set>
      <set comment="ion 3">
       <r>       0.35156401      0.00000000     -0.30396395</r>
       <r>       0.00000000      0.07989235      0.00000000</r>
       <r>       0.30396395      0.00000000      0.22753459</r>
      </set>
      <set comment="ion 4">
       <r>       0.15997807      0.00000000      0.33936421</r>
       <r>       0.00000000      0.40294014      0.00000000</r>
       <r>       0.33936421      0.00000000      0.86700727</r>
      </set>
      <set comment="ion 5">
       <r>      -0.10184275      0.00000000      0.16163978</r>
       <r>       0.00000000     -0.12693822      0.00000000</r>
       <r>       0.03713171      0.00000000      3.13825482</r>
      </set>
      <set comment="ion 6">
       <r>       0.07572688      0.00000000     -0.23980824</r>
       <r>       0.00000000     -0.15970985      0.00000000</r>
       <r>       0.07399471      0.00000000     -0.45909659</r>
      </set>
      <set comment="ion 7">
       <r>       2.52098648      0.00000000      0.56149545</r>
       <r>       0.00000000      1.89625000      0.00000000</r>
       <r>       0.21236022      0.00000000      0.48642593</r>
      </set>
      <set comment="ion 8">
       <r>       0.01882931      0.00000000      0.10774092</r>
       <r>      -0.00000000     -0.00013239      0.00000000</r>
       <r>      -0.08823371     -0.00000000     -0.58850189</r>
      </set>
     </set>
     <set comment="ionprim 2">
      <set comment="ion 1">
       <r>      -0.14797409     -0.00000000     -0.12762725</r>
       <r>      -0.00000000      0.04627326      0.00000000</r>
       <r>       0.12762725      0.00000000      0.99979013</r>
      </set>
      <set comment="ion 2">
       <r>      -2.87709992     -0.00000000      0.75191790</r>
       <r>      -0.00000000     -2.13895557      0.00000000</r>
       <r>       0.75191790      0.00000000     -4.67358299</r>
      </set>
      <set comment="ion 3">
       <r>       0.15997807      0.00000000     -0.33936421</r>
       <r>       0.00000000      0.40294014      0.00000000</r>
       <r>      -0.33936421      0.00000000      0.86700727</r>
      </set>
      <set comment="ion 4">
       <r>       0.35156401      0.00000000      0.30396395</r>
       <r>       0.00000000      0.07989235      0.00000000</r>
       <r>      -0.30396395      0.00000000      0.22753459</r>
      </set>
      <set comment="ion 5">
       <r>       0.07572688      0.00000000      0.23980824</r>
       <r>       0.00000000     -0.15970985      0.00000000</r>
       <r>      -0.07399471     -0.00000000     -0.45909659</r>
      </set>
      <set comment="ion 6">
       <r>      -0.10184275      0.00000000     -0.16163978</r>
       <r>       0.00000000     -0.12693822      0.00000000</r>
       <r>      -0.03713171     -0.00000000      3.13825482</r>
      </set>
      <set comment="ion 7">
       <r>       0.01882931      0.00000000     -0.10774092</r>
       <r>      -0.00000000     -0.00013239      0.00000000</r>
       <r>       0.08823371      0.00000000     -0.58850189</r>
      </set>
      <set comment="ion 8">
       <r>       2.52098648      0.00000000     -0.56149545</r>
       <r>       0.00000000      1.89625000      0.00000000</r>
       <r>      -0.21236022      0.00000000      0.48642593</r>
      </set>
     </set>
     <set comment="ionprim 3">
      <set comment="ion 1">
       <r>       0.35156401      0.00000000      0.30396395</r>
       <r>       0.00000000      0.07989235      0.00000000</r>
       <r>      -0.30396395      0.00000000      0.22753459</r>
      </set>
      <set comment="ion 2">
       <r>       0.15997807      0.00000000     -0.33936421</r>
       <r>       0.00000000      0.40294014      0.00000000</r>
       <r>      -0.33936421      0.00000000      0.86700727</r>
      </set>
      <set comment="ion 3">
       <r>      -2.87709992     -0.00000000      0.75191790</r>
       <r>      -0.00000000     -2.13895557      0.00000000</r>
       <r>       0.75191790      0.00000000     -4.67358299</r>
      </set>
      <set comment="ion 4">
       <r>      -0.14797409     -0.00000000     -0.12762725</r>
       <r>      -0.00000000      0.04627326      0.00000000</r>
       <r>       0.12762725      0.00000000      0.99979013</r>
      </set>
      <set comment="ion 5">
       <r>       2.52098648      0.00000000     -0.56149545</r>
       <r>       0.00000000      1.89625000      0.00000000</r>
       <r>      -0.21236022      0.00000000      0.48642593</r>
      </set>
      <set comment="ion 6">
       <r>       0.01882931      0.00000000     -0.10774092</r>
       <r>      -0.00000000     -0.00013239      0.00000000</r>
       <r>       0.08823371      0.00000000     -0.58850189</r>
      </set>
      <set comment="ion 7">
       <r>      -0.10184275      0.00000000     -0.16163978</r>
       <r>       0.00000000     -0.12693822      0.00000000</r>
       <r>      -0.03713171     -0.00000000      3.13825482</r>
      </set>
      <set comment="ion 8">
       <r>       0.07572688      0.00000000      0.23980824</r>
       <r>       0.00000000     -0.15970985      0.00000000</r>
       <r>      -0.07399471     -0.00000000     -0.45909659</r>
      </set>
     </set>
     <set comment="ionprim 4">
      <set comment="ion 1">
       <r>       0.15997807      0.00000000      0.33936421</r>
       <r>       0.00000000      0.40294014      0.00000000</r>
       <r>       0.33936421      0.00000000      0.86700727</r>
      </set>
      <set comment="ion 2">
       <r>       0.35156401      0.00000000     -0.30396395</r>
       <r>       0.00000000      0.07989235      0.00000000</r>
       <r>       0.30396395      0.00000000      0.22753459</r>
      </set>
      <set comment="ion 3">
       <r>      -0.14797409     -0.00000000      0.12762725</r>
       <r>      -0.00000000      0.04627326      0.00000000</r>
       <r>      -0.12762725      0.00000000      0.99979013</r>
      </set>
      <set comment="ion 4">
       <r>      -2.87709992     -0.00000000     -0.75191790</r>
       <r>      -0.00000000     -2.13895557      0.00000000</r>
       <r>      -0.75191790      0.00000000     -4.67358299</r>
      </set>
      <set comment="ion 5">
       <r>       0.01882931      0.00000000      0.10774092</r>
       <r>      -0.00000000     -0.00013239      0.00000000</r>
       <r>      -0.08823371     -0.00000000     -0.58850189</r>
      </set>
      <set comment="ion 6">
       <r>       2.52098648      0.00000000      0.56149545</r>
       <r>       0.00000000      1.89625000      0.00000000</r>
       <r>       0.21236022      0.00000000      0.48642593</r>
      </set>
      <set comment="ion 7">
       <r>       0.07572688      0.00000000     -0.23980824</r>
       <r>       0.00000000     -0.15970985      0.00000000</r>
       <r>       0.07399471      0.00000000     -0.45909659</r>
      </set>
      <set comment="ion 8">
       <r>      -0.10184275      0.00000000      0.16163978</r>
       <r>       0.00000000     -0.12693822      0.00000000</r>
       <r>       0.03713171      0.00000000      3.13825482</r>
      </set>
     </set>
     <set comment="ionprim 5">
      <set comment="ion 1">
       <r>      -0.10184275      0.00000000      0.03713171</r>
       <r>       0.00000000     -0.12693822      0.00000000</r>
       <r>       0.16163978      0.00000000      3.13825482</r>
      </set>
      <set comment="ion 2">
       <r>       0.07572688      0.00000000     -0.07399471</r>
       <r>       0.00000000     -0.15970985     -0.00000000</r>
       <r>       0.23980824      0.00000000     -0.45909659</r>
      </set>
      <set comment="ion 3">
       <r>       2.52098648      0.00000000     -0.21236022</r>
       <r>       0.00000000      1.89625000      0.00000000</r>
       <r>      -0.56149545      0.00000000      0.48642593</r>
      </set>
      <set comment="ion 4">
       <r>       0.01882931     -0.00000000     -0.08823371</r>
       <r>       0.00000000     -0.00013239     -0.00000000</r>
       <r>       0.10774092      0.00000000     -0.58850189</r>
      </set>
      <set comment="ion 5">
       <r>      -3.96326619      0.00000000      0.32107090</r>
       <r>       0.00000000     -3.13789849     -0.00000000</r>
       <r>       0.32107090     -0.00000000     -4.85794584</r>
      </set>
      <set comment="ion 6">
       <r>       0.08611220      0.00000000     -0.01620922</r>
       <r>       0.00000000      0.03976874      0.00000000</r>
       <r>       0.01620922      0.00000000      0.90421837</r>
      </set>
      <set comment="ion 7">
       <r>       1.04771354     -0.00000000      0.15914290</r>
       <r>      -0.00000000      1.15095886      0.00000000</r>
       <r>      -0.15914290      0.00000000      0.30784748</r>
      </set>
      <set comment="ion 8">
       <r>       0.31557257      0.00000000     -0.12636257</r>
       <r>       0.00000000      0.33808164      0.00000000</r>
       <r>      -0.12636257      0.00000000      1.07096646</r>
      </set>
     </set>
     <set comment="ionprim 6">
      <set comment="ion 1">
       <r>       0.07572688      0.00000000      0.07399471</r>
       <r>       0.00000000     -0.15970985      0.00000000</r>
       <r>      -0.23980824      0.00000000     -0.45909659</r>
      </set>
      <set comment="ion 2">
       <r>      -0.10184275      0.00000000     -0.03713171</r>
       <r>       0.00000000     -0.12693822     -0.00000000</r>
       <r>      -0.16163978      0.00000000      3.13825482</r>
      </set>
      <set comment="ion 3">
       <r>       0.01882931     -0.00000000      0.08823371</r>
       <r>       0.00000000     -0.00013239      0.00000000</r>
       <r>      -0.10774092      0.00000000     -0.58850189</r>
      </set>
      <set comment="ion 4">
       <r>       2.52098648      0.00000000      0.21236022</r>
       <r>       0.00000000      1.89625000      0.00000000</r>
       <r>       0.56149545      0.00000000      0.48642593</r>
      </set>
      <set comment="ion 5">
       <r>       0.08611220      0.00000000      0.01620922</r>
       <r>       0.00000000      0.03976874      0.00000000</r>
       <r>      -0.01620922      0.00000000      0.90421837</r>
      </set>
      <set comment="ion 6">
       <r>      -3.96326619      0.00000000     -0.32107090</r>
       <r>       0.00000000     -3.13789849      0.00000000</r>
       <r>      -0.32107090      0.00000000     -4.85794584</r>
      </set>
      <set comment="ion 7">
       <r>       0.31557257      0.00000000      0.12636257</r>
       <r>       0.00000000      0.33808164      0.00000000</r>
       <r>       0.12636257      0.00000000      1.07096646</r>
      </set>
      <set comment="ion 8">
       <r>       1.04771354     -0.00000000     -0.15914290</r>
       <r>      -0.00000000      1.15095886      0.00000000</r>
       <r>       0.15914290      0.00000000      0.30784748</r>
      </set>
     </set>
     <set comment="ionprim 7">
      <set comment="ion 1">
       <r>       2.52098648      0.00000000      0.21236022</r>
       <r>       0.00000000      1.89625000      0.00000000</r>
       <r>       0.56149545      0.00000000      0.48642593</r>
      </set>
      <set comment="ion 2">
       <r>       0.01882931     -0.00000000      0.08823371</r>
       <r>       0.00000000     -0.00013239      0.00000000</r>
       <r>      -0.10774092      0.00000000     -0.58850189</r>
      </set>
      <set comment="ion 3">
       <r>      -0.10184275      0.00000000     -0.03713171</r>
       <r>       0.00000000     -0.12693822     -0.00000000</r>
       <r>      -0.16163978      0.00000000      3.13825482</r>
      </set>
      <set comment="ion 4">
       <r>       0.07572688      0.00000000      0.07399471</r>
       <r>       0.00000000     -0.15970985      0.00000000</r>
       <r>      -0.23980824      0.00000000     -0.45909659</r>
      </set>
      <set comment="ion 5">
       <r>       1.04771354     -0.00000000     -0.15914290</r>
       <r>      -0.00000000      1.15095886      0.00000000</r>
       <r>       0.15914290      0.00000000      0.30784748</r>
      </set>
      <set comment="ion 6">
       <r>       0.31557257      0.00000000      0.12636257</r>
       <r>       0.00000000      0.33808164      0.00000000</r>
       <r>       0.12636257      0.00000000      1.07096646</r>
      </set>
      <set comment="ion 7">
       <r>      -3.96326619      0.00000000     -0.32107090</r>
       <r>       0.00000000     -3.13789849      0.00000000</r>
       <r>      -0.32107090      0.00000000     -4.85794584</r>
      </set>
      <set comment="ion 8">
       <r>       0.08611220      0.00000000      0.01620922</r>
       <r>       0.00000000      0.03976874      0.00000000</r>
       <r>      -0.01620922      0.00000000      0.90421837</r>
      </set>
     </set>
     <set comment="ionprim 8">
      <set comment="ion 1">
       <r>       0.01882931     -0.00000000     -0.08823371</r>
       <r>       0.00000000     -0.00013239     -0.00000000</r>
       <r>       0.10774092      0.00000000     -0.58850189</r>
      </set>
      <set comment="ion 2">
       <r>       2.52098648      0.00000000     -0.21236022</r>
       <r>       0.00000000      1.89625000      0.00000000</r>
       <r>      -0.56149545      0.00000000      0.48642593</r>
      </set>
      <set comment="ion 3">
       <r>       0.07572688      0.00000000     -0.07399471</r>
       <r>       0.00000000     -0.15970985     -0.00000000</r>
       <r>       0.23980824      0.00000000     -0.45909659</r>
      </set>
      <set comment="ion 4">
       <r>      -0.10184275      0.00000000      0.03713171</r>
       <r>       0.00000000     -0.12693822      0.00000000</r>
       <r>       0.16163978      0.00000000      3.13825482</r>
      </set>
      <set comment="ion 5">
       <r>       0.31557257      0.00000000     -0.12636257</r>
       <r>       0.00000000      0.33808164      0.00000000</r>
       <r>      -0.12636257      0.00000000      1.07096646</r>
      </set>
      <set comment="ion 6">
       <r>       1.04771354     -0.00000000      0.15914290</r>
       <r>      -0.00000000      1.15095886      0.00000000</r>
       <r>      -0.15914290      0.00000000      0.30784748</r>
      </set>
      <set comment="ion 7">
       <r>       0.08611220      0.00000000     -0.01620922</r>
       <r>       0.00000000      0.03976874      0.00000000</r>
       <r>       0.01620922      0.00000000      0.90421837</r>
      </set>
      <set comment="ion 8">
       <r>      -3.96326619      0.00000000      0.32107090</r>
       <r>       0.00000000     -3.13789849     -0.00000000</r>
       <r>       0.32107090     -0.00000000     -4.85794584</r>
      </set>
     </set>
    </set>
   </array>
  </dynmat>
  <varray name="epsilon_ion" >
   <v>      24.88858138       0.00000000       0.00000000 </v>
   <v>       0.00000000      46.25074225      -0.00000000 </v>
   <v>      -0.00000000      -0.00000000      26.11182546 </v>
  </varray>
  <varray name="dielectric_ion" >
   <v>      24.88858138       0.00000000       0.00000000 </v>
   <v>       0.00000000      46.25074225      -0.00000000 </v>
   <v>      -0.00000000      -0.00000000      26.11182546 </v>
  </varray>
  <dielectricfunction>
   <imag>
    <array>
     <dimension dim="1">gridpoints</dimension>
     <field>energy</field>
     <field>xx</field>
     <field>yy</field>
     <field>zz</field>
     <field>xy</field>
     <field>yz</field>
     <field>zx</field>
     <set>
      <r>     0.0000     0.0000     0.0000     0.0000     0.0000     0.0000     0.0000 </r>
      <r>     0.0205     0.0001     0.0002     0.0001     0.0000     0.0000     0.0000 </r>
      <r>     0.0409     0.0002     0.0005     0.0002     0.0000     0.0000     0.0000 </r>
      <r>     0.0614     0.0003     0.0007     0.0003     0.0000     0.0000     0.0000 </r>
      <r>     0.0819     0.0004     0.0009     0.0004     0.0000     0.0000     0.0000 </r>
      <r>     0.1023     0.0005     0.0012     0.0005     0.0000     0.0000     0.0000 </r>
      <r>     0.1228     0.0006     0.0014     0.0006     0.0000     0.0000     0.0000 </r>
      <r>     0.1433     0.0007     0.0017     0.0007     0.0000     0.0000     0.0000 </r>
      <r>     0.1637     0.0008     0.0019     0.0008     0.0000     0.0000     0.0000 </r>
      <r>     0.1842     0.0009     0.0021     0.0009     0.0000     0.0000     0.0000 </r>
      <r>     0.2046     0.0010     0.0024     0.0011     0.0000     0.0000     0.0000 </r>
      <r>     0.2251     0.0011     0.0026     0.0012     0.0000     0.0000     0.0000 </r>
      <r>     0.2456     0.0012     0.0028     0.0013     0.0000     0.0000     0.0000 </r>
      <r>     0.2660     0.0013     0.0031     0.0014     0.0000     0.0000     0.0000 </r>
      <r>     0.2865     0.0014     0.0033     0.0015     0.0000     0.0000     0.0000 </r>
      <r>     0.3070     0.0015     0.0036     0.0016     0.0000     0.0000     0.0000 </r>
      <r>     0.3274     0.0016     0.0038     0.0017     0.0000     0.0000     0.0000 </r>
      <r>     0.3479     0.0017     0.0040     0.0018     0.0000     0.0000     0.0000 </r>
      <r>     0.3684     0.0018     0.0043     0.0019     0.0000     0.0000     0.0000 </r>
      <r>     0.3888     0.0019     0.0045     0.0020     0.0000     0.0000     0.0000 </r>
      <r>     0.4093     0.0020     0.0047     0.0021     0.0000     0.0000     0.0000 </r>
      <r>     0.4298     0.0021     0.0050     0.0022     0.0000     0.0000     0.0000 </r>
      <r>     0.4502     0.0023     0.0052     0.0023     0.0000     0.0000     0.0000 </r>
      <r>     0.4707     0.0024     0.0054     0.0024     0.0000     0.0000     0.0000 </r>
      <r>     0.4911     0.0025     0.0057     0.0025     0.0000     0.0000     0.0000 </r>
      <r>     0.5116     0.0026     0.0059     0.0026     0.0000     0.0000     0.0000 </r>
      <r>     0.5321     0.0027     0.0062     0.0027     0.0000     0.0000     0.0000 </r>
      <r>     0.5525     0.0028     0.0064     0.0028     0.0000     0.0000     0.0000 </r>
      <r>     0.5730     0.0029     0.0066     0.0029     0.0000     0.0000     0.0000 </r>
      <r>     0.5935     0.0030     0.0069     0.0031     0.0000     0.0000     0.0000 </r>
      <r>     0.6139     0.0031     0.0071     0.0032     0.0000     0.0000     0.0000 </r>
      <r>     0.6344     0.0032     0.0074     0.0033     0.0000     0.0000     0.0000 </r>
      <r>     0.6549     0.0033     0.0076     0.0034     0.0000     0.0000     0.0000 </r>
      <r>     0.6753     0.0034     0.0078     0.0035     0.0000     0.0000     0.0000 </r>
      <r>     0.6958     0.0035     0.0081     0.0036     0.0000     0.0000     0.0000 </r>
      <r>     0.7163     0.0036     0.0083     0.0037     0.0000     0.0000     0.0000 </r>
      <r>     0.7367     0.0037     0.0085     0.0038     0.0000     0.0000     0.0000 </r>
      <r>     0.7572     0.0038     0.0088     0.0039     0.0000     0.0000     0.0000 </r>
      <r>     0.7777     0.0039     0.0090     0.0040     0.0000     0.0000     0.0000 </r>
      <r>     0.7981     0.0040     0.0093     0.0041     0.0000     0.0000     0.0000 </r>
      <r>     0.8186     0.0041     0.0095     0.0042     0.0000     0.0000     0.0000 </r>
      <r>     0.8390     0.0042     0.0097     0.0043     0.0000     0.0000     0.0000 </r>
      <r>     0.8595     0.0043     0.0100     0.0044     0.0000     0.0000     0.0000 </r>
      <r>     0.8800     0.0044     0.0102     0.0045     0.0000     0.0000     0.0000 </r>
      <r>     0.9004     0.0045     0.0105     0.0047     0.0000     0.0000     0.0000 </r>
      <r>     0.9209     0.0046     0.0107     0.0048     0.0000     0.0000     0.0000 </r>
      <r>     0.9414     0.0047     0.0109     0.0049     0.0000     0.0000     0.0000 </r>
      <r>     0.9618     0.0048     0.0112     0.0050     0.0000     0.0000     0.0000 </r>
      <r>     0.9823     0.0049     0.0114     0.0051     0.0000     0.0000     0.0000 </r>
      <r>     1.0028     0.0050     0.0117     0.0052     0.0000     0.0000     0.0000 </r>
      <r>     1.0232     0.0051     0.0119     0.0053     0.0000     0.0000     0.0000 </r>
      <r>     1.0437     0.0052     0.0121     0.0054     0.0000     0.0000     0.0000 </r>
      <r>     1.0642     0.0054     0.0124     0.0055     0.0000     0.0000     0.0000 </r>
      <r>     1.0846     0.0055     0.0126     0.0056     0.0000     0.0000     0.0000 </r>
      <r>     1.1051     0.0056     0.0129     0.0057     0.0000     0.0000     0.0000 </r>
      <r>     1.1255     0.0057     0.0131     0.0058     0.0000     0.0000     0.0000 </r>
      <r>     1.1460     0.0058     0.0134     0.0059     0.0000     0.0000     0.0000 </r>
      <r>     1.1665     0.0059     0.0136     0.0061     0.0000     0.0000     0.0000 </r>
      <r>     1.1869     0.0060     0.0138     0.0062     0.0000     0.0000     0.0000 </r>
      <r>     1.2074     0.0061     0.0141     0.0063     0.0000     0.0000     0.0000 </r>
      <r>     1.2279     0.0062     0.0143     0.0064     0.0000     0.0000     0.0000 </r>
      <r>     1.2483     0.0063     0.0146     0.0065     0.0000     0.0000     0.0000 </r>
      <r>     1.2688     0.0064     0.0148     0.0066     0.0000     0.0000     0.0000 </r>
      <r>     1.2893     0.0065     0.0151     0.0067     0.0000     0.0000     0.0000 </r>
      <r>     1.3097     0.0066     0.0153     0.0068     0.0000     0.0000     0.0000 </r>
      <r>     1.3302     0.0067     0.0155     0.0069     0.0000     0.0000     0.0000 </r>
      <r>     1.3507     0.0068     0.0158     0.0070     0.0000     0.0000     0.0000 </r>
      <r>     1.3711     0.0069     0.0160     0.0072     0.0000     0.0000     0.0000 </r>
      <r>     1.3916     0.0070     0.0163     0.0073     0.0000     0.0000     0.0000 </r>
      <r>     1.4121     0.0071     0.0165     0.0074     0.0000     0.0000     0.0000 </r>
      <r>     1.4325     0.0072     0.0168     0.0075     0.0000     0.0000     0.0000 </r>
      <r>     1.4530     0.0074     0.0170     0.0076     0.0000     0.0000     0.0000 </r>
      <r>     1.4734     0.0075     0.0173     0.0077     0.0000     0.0000     0.0000 </r>
      <r>     1.4939     0.0076     0.0175     0.0078     0.0000     0.0000     0.0000 </r>
      <r>     1.5144     0.0077     0.0178     0.0079     0.0000     0.0000     0.0000 </r>
      <r>     1.5348     0.0078     0.0180     0.0080     0.0000     0.0000     0.0000 </r>
      <r>     1.5553     0.0079     0.0183     0.0081     0.0000     0.0000     0.0000 </r>
      <r>     1.5758     0.0080     0.0185     0.0083     0.0000     0.0000     0.0000 </r>
      <r>     1.5962     0.0081     0.0187     0.0084     0.0000     0.0000     0.0000 </r>
      <r>     1.6167     0.0082     0.0190     0.0085     0.0000     0.0000     0.0000 </r>
      <r>     1.6372     0.0083     0.0192     0.0086     0.0000     0.0000     0.0000 </r>
      <r>     1.6576     0.0084     0.0195     0.0087     0.0000     0.0000     0.0000 </r>
      <r>     1.6781     0.0085     0.0197     0.0088     0.0000     0.0000     0.0000 </r>
      <r>     1.6986     0.0086     0.0200     0.0089     0.0000     0.0000     0.0000 </r>
      <r>     1.7190     0.0087     0.0202     0.0090     0.0000     0.0000     0.0000 </r>
      <r>     1.7395     0.0088     0.0205     0.0092     0.0000     0.0000     0.0000 </r>
      <r>     1.7599     0.0090     0.0207     0.0093     0.0000     0.0000     0.0000 </r>
      <r>     1.7804     0.0091     0.0210     0.0094     0.0000     0.0000     0.0000 </r>
      <r>     1.8009     0.0092     0.0212     0.0095     0.0000     0.0000     0.0000 </r>
      <r>     1.8213     0.0093     0.0215     0.0096     0.0000     0.0000     0.0000 </r>
      <r>     1.8418     0.0094     0.0217     0.0097     0.0000     0.0000     0.0000 </r>
      <r>     1.8623     0.0095     0.0220     0.0098     0.0000     0.0000     0.0000 </r>
      <r>     1.8827     0.0096     0.0222     0.0100     0.0000     0.0000     0.0000 </r>
      <r>     1.9032     0.0097     0.0225     0.0101     0.0000     0.0000     0.0000 </r>
      <r>     1.9237     0.0098     0.0228     0.0102     0.0000     0.0000     0.0000 </r>
      <r>     1.9441     0.0099     0.0230     0.0103     0.0000     0.0000     0.0000 </r>
      <r>     1.9646     0.0100     0.0233     0.0104     0.0000     0.0000     0.0000 </r>
      <r>     1.9851     0.0102     0.0235     0.0105     0.0000     0.0000     0.0000 </r>
      <r>     2.0055     0.0103     0.0238     0.0107     0.0000     0.0000     0.0000 </r>
      <r>     2.0260     0.0104     0.0240     0.0108     0.0000     0.0000     0.0000 </r>
      <r>     2.0465     0.0105     0.0243     0.0109     0.0000     0.0000     0.0000 </r>
      <r>     2.0669     0.0106     0.0245     0.0110     0.0000     0.0000     0.0000 </r>
      <r>     2.0874     0.0107     0.0248     0.0111     0.0000     0.0000     0.0000 </r>
      <r>     2.1078     0.0108     0.0250     0.0112     0.0000     0.0000     0.0000 </r>
      <r>     2.1283     0.0109     0.0253     0.0114     0.0000     0.0000     0.0000 </r>
      <r>     2.1488     0.0110     0.0256     0.0115     0.0000     0.0000     0.0000 </r>
      <r>     2.1692     0.0112     0.0258     0.0116     0.0000     0.0000     0.0000 </r>
      <r>     2.1897     0.0113     0.0261     0.0117     0.0000     0.0000     0.0000 </r>
      <r>     2.2102     0.0114     0.0263     0.0118     0.0000     0.0000     0.0000 </r>
      <r>     2.2306     0.0115     0.0266     0.0120     0.0000     0.0000     0.0000 </r>
      <r>     2.2511     0.0116     0.0269     0.0121     0.0000     0.0000     0.0000 </r>
      <r>     2.2716     0.0117     0.0271     0.0122     0.0000     0.0000     0.0000 </r>
      <r>     2.2920     0.0118     0.0274     0.0123     0.0000     0.0000     0.0000 </r>
      <r>     2.3125     0.0119     0.0276     0.0124     0.0000     0.0000     0.0000 </r>
      <r>     2.3330     0.0120     0.0279     0.0126     0.0000     0.0000     0.0000 </r>
      <r>     2.3534     0.0122     0.0282     0.0127     0.0000     0.0000     0.0000 </r>
      <r>     2.3739     0.0123     0.0284     0.0128     0.0000     0.0000     0.0000 </r>
      <r>     2.3943     0.0124     0.0287     0.0129     0.0000     0.0000     0.0000 </r>
      <r>     2.4148     0.0125     0.0289     0.0130     0.0000     0.0000     0.0000 </r>
      <r>     2.4353     0.0126     0.0292     0.0132     0.0000     0.0000     0.0000 </r>
      <r>     2.4557     0.0127     0.0295     0.0133     0.0000     0.0000     0.0000 </r>
      <r>     2.4762     0.0128     0.0297     0.0134     0.0000     0.0000     0.0000 </r>
      <r>     2.4967     0.0130     0.0300     0.0135     0.0000     0.0000     0.0000 </r>
      <r>     2.5171     0.0131     0.0303     0.0137     0.0000     0.0000     0.0000 </r>
      <r>     2.5376     0.0132     0.0305     0.0138     0.0000     0.0000     0.0000 </r>
      <r>     2.5581     0.0133     0.0308     0.0139     0.0000     0.0000     0.0000 </r>
      <r>     2.5785     0.0134     0.0311     0.0140     0.0000     0.0000     0.0000 </r>
      <r>     2.5990     0.0135     0.0313     0.0142     0.0000     0.0000     0.0000 </r>
      <r>     2.6195     0.0136     0.0316     0.0143     0.0000     0.0000     0.0000 </r>
      <r>     2.6399     0.0138     0.0319     0.0144     0.0000     0.0000     0.0000 </r>
      <r>     2.6604     0.0139     0.0321     0.0145     0.0000     0.0000     0.0000 </r>
      <r>     2.6808     0.0140     0.0324     0.0147     0.0000     0.0000     0.0000 </r>
      <r>     2.7013     0.0141     0.0327     0.0148     0.0000     0.0000     0.0000 </r>
      <r>     2.7218     0.0142     0.0329     0.0149     0.0000     0.0000     0.0000 </r>
      <r>     2.7422     0.0143     0.0332     0.0151     0.0000     0.0000     0.0000 </r>
      <r>     2.7627     0.0145     0.0335     0.0152     0.0000     0.0000     0.0000 </r>
      <r>     2.7832     0.0146     0.0338     0.0153     0.0000     0.0000     0.0000 </r>
      <r>     2.8036     0.0147     0.0340     0.0154     0.0000     0.0000     0.0000 </r>
      <r>     2.8241     0.0148     0.0343     0.0156     0.0000     0.0000     0.0000 </r>
      <r>     2.8446     0.0149     0.0346     0.0157     0.0000     0.0000     0.0000 </r>
      <r>     2.8650     0.0151     0.0349     0.0158     0.0000     0.0000     0.0000 </r>
      <r>     2.8855     0.0152     0.0351     0.0160     0.0000     0.0000     0.0000 </r>
      <r>     2.9060     0.0153     0.0354     0.0161     0.0000     0.0000     0.0000 </r>
      <r>     2.9264     0.0154     0.0357     0.0162     0.0000     0.0000     0.0000 </r>
      <r>     2.9469     0.0155     0.0360     0.0164     0.0000     0.0000     0.0000 </r>
      <r>     2.9674     0.0156     0.0362     0.0165     0.0000     0.0000     0.0000 </r>
      <r>     2.9878     0.0158     0.0365     0.0166     0.0000     0.0000     0.0000 </r>
      <r>     3.0083     0.0159     0.0368     0.0168     0.0000     0.0000     0.0000 </r>
      <r>     3.0287     0.0160     0.0371     0.0169     0.0000     0.0000     0.0000 </r>
      <r>     3.0492     0.0161     0.0373     0.0170     0.0000     0.0000     0.0000 </r>
      <r>     3.0697     0.0163     0.0376     0.0172     0.0000     0.0000     0.0000 </r>
      <r>     3.0901     0.0164     0.0379     0.0173     0.0000     0.0000     0.0000 </r>
      <r>     3.1106     0.0165     0.0382     0.0174     0.0000     0.0000     0.0000 </r>
      <r>     3.1311     0.0166     0.0385     0.0176     0.0000     0.0000     0.0000 </r>
      <r>     3.1515     0.0167     0.0388     0.0177     0.0000     0.0000     0.0000 </r>
      <r>     3.1720     0.0169     0.0390     0.0179     0.0000     0.0000     0.0000 </r>
      <r>     3.1925     0.0170     0.0393     0.0180     0.0000     0.0000     0.0000 </r>
      <r>     3.2129     0.0171     0.0396     0.0181     0.0000     0.0000     0.0000 </r>
      <r>     3.2334     0.0172     0.0399     0.0183     0.0000     0.0000     0.0000 </r>
      <r>     3.2539     0.0174     0.0402     0.0184     0.0000     0.0000     0.0000 </r>
      <r>     3.2743     0.0175     0.0405     0.0186     0.0000     0.0000     0.0000 </r>
      <r>     3.2948     0.0176     0.0408     0.0187     0.0000     0.0000     0.0000 </r>
      <r>     3.3152     0.0177     0.0410     0.0188     0.0000     0.0000     0.0000 </r>
      <r>     3.3357     0.0179     0.0413     0.0190     0.0000     0.0000     0.0000 </r>
      <r>     3.3562     0.0180     0.0416     0.0191     0.0000     0.0000     0.0000 </r>
      <r>     3.3766     0.0181     0.0419     0.0193     0.0000     0.0000     0.0000 </r>
      <r>     3.3971     0.0182     0.0422     0.0194     0.0000     0.0000     0.0000 </r>
      <r>     3.4176     0.0184     0.0425     0.0196     0.0000     0.0000     0.0000 </r>
      <r>     3.4380     0.0185     0.0428     0.0197     0.0000     0.0000     0.0000 </r>
      <r>     3.4585     0.0186     0.0431     0.0198     0.0000     0.0000     0.0000 </r>
      <r>     3.4790     0.0187     0.0434     0.0200     0.0000     0.0000     0.0000 </r>
      <r>     3.4994     0.0189     0.0437     0.0201     0.0000     0.0000     0.0000 </r>
      <r>     3.5199     0.0190     0.0440     0.0203     0.0000     0.0000     0.0000 </r>
      <r>     3.5404     0.0191     0.0443     0.0204     0.0000     0.0000     0.0000 </r>
      <r>     3.5608     0.0193     0.0446     0.0206     0.0000     0.0000     0.0000 </r>
      <r>     3.5813     0.0194     0.0449     0.0207     0.0000     0.0000     0.0000 </r>
      <r>     3.6018     0.0195     0.0451     0.0209     0.0000     0.0000     0.0000 </r>
      <r>     3.6222     0.0196     0.0454     0.0210     0.0000     0.0000     0.0000 </r>
      <r>     3.6427     0.0198     0.0457     0.0212     0.0000     0.0000     0.0000 </r>
      <r>     3.6631     0.0199     0.0460     0.0213     0.0000     0.0000     0.0000 </r>
      <r>     3.6836     0.0200     0.0464     0.0215     0.0000     0.0000     0.0000 </r>
      <r>     3.7041     0.0202     0.0467     0.0217     0.0000     0.0000     0.0000 </r>
      <r>     3.7245     0.0203     0.0470     0.0218     0.0000     0.0000     0.0000 </r>
      <r>     3.7450     0.0204     0.0473     0.0220     0.0000     0.0000     0.0000 </r>
      <r>     3.7655     0.0206     0.0476     0.0221     0.0000     0.0000     0.0000 </r>
      <r>     3.7859     0.0207     0.0479     0.0223     0.0000     0.0000     0.0000 </r>
      <r>     3.8064     0.0208     0.0482     0.0224     0.0000     0.0000     0.0000 </r>
      <r>     3.8269     0.0210     0.0485     0.0226     0.0000     0.0000     0.0000 </r>
      <r>     3.8473     0.0211     0.0488     0.0228     0.0000     0.0000     0.0000 </r>
      <r>     3.8678     0.0212     0.0491     0.0229     0.0000     0.0000     0.0000 </r>
      <r>     3.8883     0.0214     0.0494     0.0231     0.0000     0.0000     0.0000 </r>
      <r>     3.9087     0.0215     0.0497     0.0232     0.0000     0.0000     0.0000 </r>
      <r>     3.9292     0.0216     0.0500     0.0234     0.0000     0.0000     0.0000 </r>
      <r>     3.9496     0.0218     0.0503     0.0236     0.0000     0.0000     0.0000 </r>
      <r>     3.9701     0.0219     0.0507     0.0237     0.0000     0.0000     0.0000 </r>
      <r>     3.9906     0.0220     0.0510     0.0239     0.0000     0.0000     0.0000 </r>
      <r>     4.0110     0.0222     0.0513     0.0241     0.0000     0.0000     0.0000 </r>
      <r>     4.0315     0.0223     0.0516     0.0242     0.0000     0.0000     0.0000 </r>
      <r>     4.0520     0.0224     0.0519     0.0244     0.0000     0.0000     0.0000 </r>
      <r>     4.0724     0.0226     0.0522     0.0246     0.0000     0.0000     0.0000 </r>
      <r>     4.0929     0.0227     0.0526     0.0247     0.0000     0.0000     0.0000 </r>
      <r>     4.1134     0.0229     0.0529     0.0249     0.0000     0.0000     0.0000 </r>
      <r>     4.1338     0.0230     0.0532     0.0251     0.0000     0.0000     0.0000 </r>
      <r>     4.1543     0.0231     0.0535     0.0253     0.0000     0.0000     0.0000 </r>
      <r>     4.1748     0.0233     0.0538     0.0254     0.0000     0.0000     0.0000 </r>
      <r>     4.1952     0.0234     0.0542     0.0256     0.0000     0.0000     0.0000 </r>
      <r>     4.2157     0.0236     0.0545     0.0258     0.0000     0.0000     0.0000 </r>
      <r>     4.2362     0.0237     0.0548     0.0260     0.0000     0.0000     0.0000 </r>
      <r>     4.2566     0.0238     0.0551     0.0261     0.0000     0.0000     0.0000 </r>
      <r>     4.2771     0.0240     0.0555     0.0263     0.0000     0.0000     0.0000 </r>
      <r>     4.2975     0.0241     0.0558     0.0265     0.0000     0.0000     0.0000 </r>
      <r>     4.3180     0.0243     0.0561     0.0267     0.0000     0.0000     0.0000 </r>
      <r>     4.3385     0.0244     0.0565     0.0269     0.0000     0.0000     0.0000 </r>
      <r>     4.3589     0.0246     0.0568     0.0270     0.0000     0.0000     0.0000 </r>
      <r>     4.3794     0.0247     0.0571     0.0272     0.0000     0.0000     0.0000 </r>
      <r>     4.3999     0.0249     0.0575     0.0274     0.0000     0.0000     0.0000 </r>
      <r>     4.4203     0.0250     0.0578     0.0276     0.0000     0.0000     0.0000 </r>
      <r>     4.4408     0.0251     0.0581     0.0278     0.0000     0.0000     0.0000 </r>
      <r>     4.4613     0.0253     0.0585     0.0280     0.0000     0.0000     0.0000 </r>
      <r>     4.4817     0.0254     0.0588     0.0282     0.0000     0.0000     0.0000 </r>
      <r>     4.5022     0.0256     0.0591     0.0284     0.0000     0.0000     0.0000 </r>
      <r>     4.5227     0.0257     0.0595     0.0286     0.0000     0.0000     0.0000 </r>
      <r>     4.5431     0.0259     0.0598     0.0288     0.0000     0.0000     0.0000 </r>
      <r>     4.5636     0.0260     0.0602     0.0290     0.0000     0.0000     0.0000 </r>
      <r>     4.5840     0.0262     0.0605     0.0292     0.0000     0.0000     0.0000 </r>
      <r>     4.6045     0.0263     0.0609     0.0294     0.0000     0.0000     0.0000 </r>
      <r>     4.6250     0.0265     0.0612     0.0296     0.0000     0.0000     0.0000 </r>
      <r>     4.6454     0.0266     0.0616     0.0298     0.0000     0.0000     0.0000 </r>
      <r>     4.6659     0.0268     0.0619     0.0300     0.0000     0.0000     0.0000 </r>
      <r>     4.6864     0.0269     0.0623     0.0302     0.0000     0.0000     0.0000 </r>
      <r>     4.7068     0.0271     0.0626     0.0304     0.0000     0.0000     0.0000 </r>
      <r>     4.7273     0.0273     0.0630     0.0306     0.0000     0.0000     0.0000 </r>
      <r>     4.7478     0.0274     0.0633     0.0308     0.0000     0.0000     0.0000 </r>
      <r>     4.7682     0.0276     0.0637     0.0310     0.0000     0.0000     0.0000 </r>
      <r>     4.7887     0.0277     0.0640     0.0312     0.0000     0.0000     0.0000 </r>
      <r>     4.8092     0.0279     0.0644     0.0314     0.0000     0.0000     0.0000 </r>
      <r>     4.8296     0.0280     0.0647     0.0316     0.0000     0.0000     0.0000 </r>
      <r>     4.8501     0.0282     0.0651     0.0319     0.0000     0.0000     0.0000 </r>
      <r>     4.8706     0.0283     0.0655     0.0321     0.0000     0.0000     0.0000 </r>
      <r>     4.8910     0.0285     0.0658     0.0323     0.0000     0.0000     0.0000 </r>
      <r>     4.9115     0.0287     0.0662     0.0325     0.0000     0.0000     0.0000 </r>
      <r>     4.9319     0.0288     0.0665     0.0327     0.0000     0.0000     0.0000 </r>
      <r>     4.9524     0.0290     0.0669     0.0330     0.0000     0.0000     0.0000 </r>
      <r>     4.9729     0.0291     0.0673     0.0332     0.0000     0.0000     0.0000 </r>
      <r>     4.9933     0.0293     0.0676     0.0334     0.0000     0.0000     0.0000 </r>
      <r>     5.0138     0.0295     0.0680     0.0337     0.0000     0.0000     0.0000 </r>
      <r>     5.0343     0.0296     0.0684     0.0339     0.0000     0.0000     0.0000 </r>
      <r>     5.0547     0.0298     0.0688     0.0341     0.0000     0.0000     0.0000 </r>
      <r>     5.0752     0.0300     0.0691     0.0344     0.0000     0.0000     0.0000 </r>
      <r>     5.0957     0.0301     0.0695     0.0346     0.0000     0.0000     0.0000 </r>
      <r>     5.1161     0.0303     0.0699     0.0349     0.0000     0.0000     0.0000 </r>
      <r>     5.1366     0.0305     0.0703     0.0351     0.0000     0.0000     0.0000 </r>
      <r>     5.1571     0.0306     0.0706     0.0353     0.0000     0.0000     0.0000 </r>
      <r>     5.1775     0.0308     0.0710     0.0356     0.0000     0.0000     0.0000 </r>
      <r>     5.1980     0.0310     0.0714     0.0358     0.0000     0.0000     0.0000 </r>
      <r>     5.2184     0.0311     0.0718     0.0361     0.0000     0.0000     0.0000 </r>
      <r>     5.2389     0.0313     0.0722     0.0363     0.0000     0.0000     0.0000 </r>
      <r>     5.2594     0.0315     0.0725     0.0366     0.0000     0.0000     0.0000 </r>
      <r>     5.2798     0.0316     0.0729     0.0369     0.0000     0.0000     0.0000 </r>
      <r>     5.3003     0.0318     0.0733     0.0371     0.0000     0.0000     0.0000 </r>
      <r>     5.3208     0.0320     0.0737     0.0374     0.0000     0.0000     0.0000 </r>
      <r>     5.3412     0.0321     0.0741     0.0377     0.0000     0.0000     0.0000 </r>
      <r>     5.3617     0.0323     0.0745     0.0379     0.0000     0.0000     0.0000 </r>
      <r>     5.3822     0.0325     0.0749     0.0382     0.0000     0.0000     0.0000 </r>
      <r>     5.4026     0.0327     0.0753     0.0385     0.0000     0.0000     0.0000 </r>
      <r>     5.4231     0.0328     0.0757     0.0387     0.0000     0.0000     0.0000 </r>
      <r>     5.4436     0.0330     0.0761     0.0390     0.0000     0.0000     0.0000 </r>
      <r>     5.4640     0.0332     0.0765     0.0393     0.0000     0.0000     0.0000 </r>
      <r>     5.4845     0.0334     0.0769     0.0396     0.0000     0.0000     0.0000 </r>
      <r>     5.5050     0.0336     0.0773     0.0399     0.0000     0.0000     0.0000 </r>
      <r>     5.5254     0.0337     0.0777     0.0402     0.0000     0.0000     0.0000 </r>
      <r>     5.5459     0.0339     0.0781     0.0405     0.0000     0.0000     0.0000 </r>
      <r>     5.5663     0.0341     0.0785     0.0408     0.0000     0.0000     0.0000 </r>
      <r>     5.5868     0.0343     0.0789     0.0411     0.0000     0.0000     0.0000 </r>
      <r>     5.6073     0.0345     0.0793     0.0414     0.0000     0.0000     0.0000 </r>
      <r>     5.6277     0.0346     0.0797     0.0417     0.0000     0.0000     0.0000 </r>
      <r>     5.6482     0.0348     0.0802     0.0420     0.0000     0.0000     0.0000 </r>
      <r>     5.6687     0.0350     0.0806     0.0423     0.0000     0.0000     0.0000 </r>
      <r>     5.6891     0.0352     0.0810     0.0426     0.0000     0.0000     0.0000 </r>
      <r>     5.7096     0.0354     0.0814     0.0429     0.0000     0.0000     0.0000 </r>
      <r>     5.7301     0.0356     0.0818     0.0433     0.0000     0.0000     0.0000 </r>
      <r>     5.7505     0.0358     0.0823     0.0436     0.0000     0.0000     0.0000 </r>
      <r>     5.7710     0.0359     0.0827     0.0439     0.0000     0.0000     0.0000 </r>
      <r>     5.7915     0.0361     0.0831     0.0443     0.0000     0.0000     0.0000 </r>
      <r>     5.8119     0.0363     0.0835     0.0446     0.0000     0.0000     0.0000 </r>
      <r>     5.8324     0.0365     0.0840     0.0449     0.0000     0.0000     0.0000 </r>
      <r>     5.8528     0.0367     0.0844     0.0453     0.0000     0.0000     0.0000 </r>
      <r>     5.8733     0.0369     0.0848     0.0456     0.0000     0.0000     0.0000 </r>
      <r>     5.8938     0.0371     0.0853     0.0460     0.0000     0.0000     0.0000 </r>
      <r>     5.9142     0.0373     0.0857     0.0463     0.0000     0.0000     0.0000 </r>
      <r>     5.9347     0.0375     0.0862     0.0467     0.0000     0.0000     0.0000 </r>
      <r>     5.9552     0.0377     0.0866     0.0471     0.0000     0.0000     0.0000 </r>
      <r>     5.9756     0.0379     0.0870     0.0475     0.0000     0.0000     0.0000 </r>
      <r>     5.9961     0.0381     0.0875     0.0478     0.0000     0.0000     0.0000 </r>
      <r>     6.0166     0.0383     0.0879     0.0482     0.0000     0.0000     0.0000 </r>
      <r>     6.0370     0.0385     0.0884     0.0486     0.0000     0.0000     0.0000 </r>
      <r>     6.0575     0.0387     0.0888     0.0490     0.0000     0.0000     0.0000 </r>
      <r>     6.0780     0.0389     0.0893     0.0494     0.0000     0.0000     0.0000 </r>
      <r>     6.0984     0.0391     0.0897     0.0498     0.0000     0.0000     0.0000 </r>
      <r>     6.1189     0.0393     0.0902     0.0502     0.0000     0.0000     0.0000 </r>
      <r>     6.1394     0.0395     0.0906     0.0506     0.0000     0.0000     0.0000 </r>
      <r>     6.1598     0.0397     0.0911     0.0510     0.0000     0.0000     0.0000 </r>
      <r>     6.1803     0.0399     0.0916     0.0515     0.0000     0.0000     0.0000 </r>
      <r>     6.2007     0.0401     0.0920     0.0519     0.0000     0.0000     0.0000 </r>
      <r>     6.2212     0.0403     0.0925     0.0523     0.0000     0.0000     0.0000 </r>
      <r>     6.2417     0.0406     0.0930     0.0528     0.0000     0.0000     0.0000 </r>
      <r>     6.2621     0.0408     0.0934     0.0532     0.0000     0.0000     0.0000 </r>
      <r>     6.2826     0.0410     0.0939     0.0537     0.0000     0.0000     0.0000 </r>
      <r>     6.3031     0.0412     0.0944     0.0541     0.0000     0.0000     0.0000 </r>
      <r>     6.3235     0.0414     0.0949     0.0546     0.0000     0.0000     0.0000 </r>
      <r>     6.3440     0.0416     0.0953     0.0551     0.0000     0.0000     0.0000 </r>
      <r>     6.3645     0.0418     0.0958     0.0556     0.0000     0.0000     0.0000 </r>
      <r>     6.3849     0.0421     0.0963     0.0561     0.0000     0.0000     0.0000 </r>
      <r>     6.4054     0.0423     0.0968     0.0566     0.0000     0.0000     0.0000 </r>
      <r>     6.4259     0.0425     0.0973     0.0571     0.0000     0.0000     0.0000 </r>
      <r>     6.4463     0.0427     0.0978     0.0576     0.0000     0.0000     0.0000 </r>
      <r>     6.4668     0.0429     0.0983     0.0581     0.0000     0.0000     0.0000 </r>
      <r>     6.4872     0.0432     0.0988     0.0586     0.0000     0.0000     0.0000 </r>
      <r>     6.5077     0.0434     0.0993     0.0592     0.0000     0.0000     0.0000 </r>
      <r>     6.5282     0.0436     0.0998     0.0597     0.0000     0.0000     0.0000 </r>
      <r>     6.5486     0.0438     0.1003     0.0603     0.0000     0.0000     0.0000 </r>
      <r>     6.5691     0.0441     0.1008     0.0608     0.0000     0.0000     0.0000 </r>
      <r>     6.5896     0.0443     0.1013     0.0614     0.0000     0.0000     0.0000 </r>
      <r>     6.6100     0.0445     0.1018     0.0620     0.0000     0.0000     0.0000 </r>
      <r>     6.6305     0.0448     0.1023     0.0626     0.0000     0.0000     0.0000 </r>
      <r>     6.6510     0.0450     0.1028     0.0632     0.0000     0.0000     0.0000 </r>
      <r>     6.6714     0.0452     0.1033     0.0638     0.0000     0.0000     0.0000 </r>
      <r>     6.6919     0.0455     0.1038     0.0644     0.0000     0.0000     0.0000 </r>
      <r>     6.7124     0.0457     0.1043     0.0651     0.0000     0.0000     0.0000 </r>
      <r>     6.7328     0.0460     0.1049     0.0657     0.0000     0.0000     0.0000 </r>
      <r>     6.7533     0.0462     0.1054     0.0664     0.0000     0.0000     0.0000 </r>
      <r>     6.7738     0.0464     0.1059     0.0671     0.0000     0.0000     0.0000 </r>
      <r>     6.7942     0.0467     0.1064     0.0678     0.0000     0.0000     0.0000 </r>
      <r>     6.8147     0.0469     0.1070     0.0684     0.0000     0.0000     0.0000 </r>
      <r>     6.8351     0.0472     0.1075     0.0692     0.0000     0.0000     0.0000 </r>
      <r>     6.8556     0.0474     0.1081     0.0699     0.0000     0.0000     0.0000 </r>
      <r>     6.8761     0.0477     0.1086     0.0706     0.0000     0.0000     0.0000 </r>
      <r>     6.8965     0.0479     0.1091     0.0714     0.0000     0.0000     0.0000 </r>
      <r>     6.9170     0.0482     0.1097     0.0721     0.0000     0.0000     0.0000 </r>
      <r>     6.9375     0.0484     0.1102     0.0729     0.0000     0.0000     0.0000 </r>
      <r>     6.9579     0.0487     0.1108     0.0737     0.0000     0.0000     0.0000 </r>
      <r>     6.9784     0.0489     0.1113     0.0745     0.0000     0.0000     0.0000 </r>
      <r>     6.9989     0.0492     0.1119     0.0754     0.0000     0.0000     0.0000 </r>
      <r>     7.0193     0.0495     0.1124     0.0762     0.0000     0.0000     0.0000 </r>
      <r>     7.0398     0.0497     0.1130     0.0771     0.0000     0.0000     0.0000 </r>
      <r>     7.0603     0.0500     0.1136     0.0780     0.0000     0.0000     0.0000 </r>
      <r>     7.0807     0.0502     0.1141     0.0789     0.0000     0.0000     0.0000 </r>
      <r>     7.1012     0.0505     0.1147     0.0798     0.0000     0.0000     0.0000 </r>
      <r>     7.1216     0.0508     0.1153     0.0808     0.0000     0.0000     0.0000 </r>
      <r>     7.1421     0.0510     0.1159     0.0817     0.0000     0.0000     0.0000 </r>
      <r>     7.1626     0.0513     0.1164     0.0827     0.0000     0.0000     0.0000 </r>
      <r>     7.1830     0.0516     0.1170     0.0837     0.0000     0.0000     0.0000 </r>
      <r>     7.2035     0.0519     0.1176     0.0848     0.0000     0.0000     0.0000 </r>
      <r>     7.2240     0.0521     0.1182     0.0858     0.0000     0.0000     0.0000 </r>
      <r>     7.2444     0.0524     0.1188     0.0869     0.0000     0.0000     0.0000 </r>
      <r>     7.2649     0.0527     0.1194     0.0880     0.0000     0.0000     0.0000 </r>
      <r>     7.2854     0.0530     0.1200     0.0891     0.0000     0.0000     0.0000 </r>
      <r>     7.3058     0.0533     0.1206     0.0903     0.0000     0.0000     0.0000 </r>
      <r>     7.3263     0.0535     0.1212     0.0915     0.0000     0.0000     0.0000 </r>
      <r>     7.3468     0.0538     0.1218     0.0927     0.0000     0.0000     0.0000 </r>
      <r>     7.3672     0.0541     0.1224     0.0940     0.0000     0.0000     0.0000 </r>
      <r>     7.3877     0.0544     0.1230     0.0953     0.0000     0.0000     0.0000 </r>
      <r>     7.4081     0.0547     0.1236     0.0966     0.0000     0.0000     0.0000 </r>
      <r>     7.4286     0.0550     0.1242     0.0979     0.0000     0.0000     0.0000 </r>
      <r>     7.4491     0.0553     0.1249     0.0993     0.0000     0.0000     0.0000 </r>
      <r>     7.4695     0.0556     0.1255     0.1008     0.0000     0.0000     0.0000 </r>
      <r>     7.4900     0.0559     0.1261     0.1022     0.0000     0.0000     0.0000 </r>
      <r>     7.5105     0.0562     0.1267     0.1037     0.0000     0.0000     0.0000 </r>
      <r>     7.5309     0.0565     0.1274     0.1053     0.0000     0.0000     0.0000 </r>
      <r>     7.5514     0.0568     0.1280     0.1069     0.0000     0.0000     0.0000 </r>
      <r>     7.5719     0.0571     0.1286     0.1085     0.0000     0.0000     0.0000 </r>
      <r>     7.5923     0.0574     0.1293     0.1102     0.0000     0.0000     0.0000 </r>
      <r>     7.6128     0.0577     0.1299     0.1119     0.0000     0.0000     0.0000 </r>
      <r>     7.6333     0.0580     0.1306     0.1137     0.0000     0.0000     0.0000 </r>
      <r>     7.6537     0.0583     0.1312     0.1155     0.0000     0.0000     0.0000 </r>
      <r>     7.6742     0.0586     0.1319     0.1174     0.0000     0.0000     0.0000 </r>
      <r>     7.6947     0.0590     0.1326     0.1194     0.0000     0.0000     0.0000 </r>
      <r>     7.7151     0.0593     0.1332     0.1214     0.0000     0.0000     0.0000 </r>
      <r>     7.7356     0.0596     0.1339     0.1235     0.0000     0.0000     0.0000 </r>
      <r>     7.7560     0.0599     0.1346     0.1256     0.0000     0.0000     0.0000 </r>
      <r>     7.7765     0.0603     0.1353     0.1278     0.0000     0.0000     0.0000 </r>
      <r>     7.7970     0.0606     0.1359     0.1301     0.0000     0.0000     0.0000 </r>
      <r>     7.8174     0.0609     0.1366     0.1325     0.0000     0.0000     0.0000 </r>
      <r>     7.8379     0.0613     0.1373     0.1349     0.0000     0.0000     0.0000 </r>
      <r>     7.8584     0.0616     0.1380     0.1375     0.0000     0.0000     0.0000 </r>
      <r>     7.8788     0.0619     0.1387     0.1401     0.0000     0.0000     0.0000 </r>
      <r>     7.8993     0.0623     0.1394     0.1428     0.0000     0.0000     0.0000 </r>
      <r>     7.9198     0.0626     0.1401     0.1456     0.0000     0.0000     0.0000 </r>
      <r>     7.9402     0.0630     0.1408     0.1485     0.0000     0.0000     0.0000 </r>
      <r>     7.9607     0.0633     0.1415     0.1515     0.0000     0.0000     0.0000 </r>
      <r>     7.9812     0.0637     0.1422     0.1546     0.0000     0.0000     0.0000 </r>
      <r>     8.0016     0.0640     0.1429     0.1579     0.0000     0.0000     0.0000 </r>
      <r>     8.0221     0.0644     0.1437     0.1613     0.0000     0.0000     0.0000 </r>
      <r>     8.0425     0.0647     0.1444     0.1648     0.0000     0.0000     0.0000 </r>
      <r>     8.0630     0.0651     0.1451     0.1684     0.0000     0.0000     0.0000 </r>
      <r>     8.0835     0.0655     0.1459     0.1722     0.0000     0.0000     0.0000 </r>
      <r>     8.1039     0.0658     0.1466     0.1762     0.0000     0.0000     0.0000 </r>
      <r>     8.1244     0.0662     0.1473     0.1803     0.0000     0.0000     0.0000 </r>
      <r>     8.1449     0.0666     0.1481     0.1846     0.0000     0.0000     0.0000 </r>
      <r>     8.1653     0.0670     0.1488     0.1890     0.0000     0.0000     0.0000 </r>
      <r>     8.1858     0.0673     0.1496     0.1937     0.0000     0.0000     0.0000 </r>
      <r>     8.2063     0.0677     0.1504     0.1986     0.0000     0.0000     0.0000 </r>
      <r>     8.2267     0.0681     0.1511     0.2037     0.0000     0.0000     0.0000 </r>
      <r>     8.2472     0.0685     0.1519     0.2090     0.0000     0.0000     0.0000 </r>
      <r>     8.2677     0.0689     0.1527     0.2146     0.0000     0.0000     0.0000 </r>
      <r>     8.2881     0.0693     0.1535     0.2204     0.0000     0.0000     0.0000 </r>
      <r>     8.3086     0.0697     0.1542     0.2265     0.0000     0.0000     0.0000 </r>
      <r>     8.3291     0.0701     0.1550     0.2330     0.0000     0.0000     0.0000 </r>
      <r>     8.3495     0.0705     0.1558     0.2397     0.0000     0.0000     0.0000 </r>
      <r>     8.3700     0.0709     0.1566     0.2468     0.0000     0.0000     0.0000 </r>
      <r>     8.3904     0.0713     0.1574     0.2543     0.0000     0.0000     0.0000 </r>
      <r>     8.4109     0.0717     0.1582     0.2621     0.0000     0.0000     0.0000 </r>
      <r>     8.4314     0.0721     0.1590     0.2704     0.0000     0.0000     0.0000 </r>
      <r>     8.4518     0.0725     0.1599     0.2792     0.0000     0.0000     0.0000 </r>
      <r>     8.4723     0.0729     0.1607     0.2884     0.0000     0.0000     0.0000 </r>
      <r>     8.4928     0.0734     0.1615     0.2982     0.0000     0.0000     0.0000 </r>
      <r>     8.5132     0.0738     0.1623     0.3085     0.0000     0.0000     0.0000 </r>
      <r>     8.5337     0.0742     0.1632     0.3195     0.0000     0.0000     0.0000 </r>
      <r>     8.5542     0.0747     0.1640     0.3311     0.0000     0.0000     0.0000 </r>
      <r>     8.5746     0.0751     0.1649     0.3435     0.0000     0.0000     0.0000 </r>
      <r>     8.5951     0.0755     0.1657     0.3567     0.0000     0.0000     0.0000 </r>
      <r>     8.6156     0.0760     0.1666     0.3707     0.0000     0.0000     0.0000 </r>
      <r>     8.6360     0.0764     0.1674     0.3856     0.0000     0.0000     0.0000 </r>
      <r>     8.6565     0.0769     0.1683     0.4016     0.0000     0.0000     0.0000 </r>
      <r>     8.6769     0.0773     0.1692     0.4187     0.0000     0.0000     0.0000 </r>
      <r>     8.6974     0.0778     0.1700     0.4370     0.0000     0.0000     0.0000 </r>
      <r>     8.7179     0.0783     0.1709     0.4567     0.0000     0.0000     0.0000 </r>
      <r>     8.7383     0.0787     0.1718     0.4779     0.0000     0.0000     0.0000 </r>
      <r>     8.7588     0.0792     0.1727     0.5007     0.0000     0.0000     0.0000 </r>
      <r>     8.7793     0.0797     0.1736     0.5253     0.0000     0.0000     0.0000 </r>
      <r>     8.7997     0.0802     0.1745     0.5520     0.0000     0.0000     0.0000 </r>
      <r>     8.8202     0.0807     0.1754     0.5809     0.0000     0.0000     0.0000 </r>
      <r>     8.8407     0.0811     0.1763     0.6123     0.0000     0.0000     0.0000 </r>
      <r>     8.8611     0.0816     0.1773     0.6465     0.0000     0.0000     0.0000 </r>
      <r>     8.8816     0.0821     0.1782     0.6839     0.0000     0.0000     0.0000 </r>
      <r>     8.9021     0.0826     0.1791     0.7249     0.0000     0.0000     0.0000 </r>
      <r>     8.9225     0.0831     0.1801     0.7699     0.0000     0.0000     0.0000 </r>
      <r>     8.9430     0.0837     0.1810     0.8194     0.0000     0.0000     0.0000 </r>
      <r>     8.9635     0.0842     0.1820     0.8742     0.0000     0.0000     0.0000 </r>
      <r>     8.9839     0.0847     0.1829     0.9350     0.0000     0.0000     0.0000 </r>
      <r>     9.0044     0.0852     0.1839     1.0027     0.0000     0.0000     0.0000 </r>
      <r>     9.0248     0.0858     0.1849     1.0783     0.0000     0.0000     0.0000 </r>
      <r>     9.0453     0.0863     0.1858     1.1632     0.0000     0.0000     0.0000 </r>
      <r>     9.0658     0.0868     0.1868     1.2590     0.0000     0.0000     0.0000 </r>
      <r>     9.0862     0.0874     0.1878     1.3676     0.0000     0.0000     0.0000 </r>
      <r>     9.1067     0.0879     0.1888     1.4914     0.0000     0.0000     0.0000 </r>
      <r>     9.1272     0.0885     0.1898     1.6334     0.0000     0.0000     0.0000 </r>
      <r>     9.1476     0.0890     0.1908     1.7972     0.0000     0.0000     0.0000 </r>
      <r>     9.1681     0.0896     0.1918     1.9876     0.0000     0.0000     0.0000 </r>
      <r>     9.1886     0.0902     0.1929     2.2107     0.0000     0.0000     0.0000 </r>
      <r>     9.2090     0.0907     0.1939     2.4744     0.0000     0.0000     0.0000 </r>
      <r>     9.2295     0.0913     0.1949     2.7890     0.0000     0.0000     0.0000 </r>
      <r>     9.2500     0.0919     0.1960     3.1686     0.0000     0.0000     0.0000 </r>
      <r>     9.2704     0.0925     0.1970     3.6322     0.0000     0.0000     0.0000 </r>
      <r>     9.2909     0.0931     0.1981     4.2063     0.0000     0.0000     0.0000 </r>
      <r>     9.3113     0.0937     0.1991     4.9286     0.0000     0.0000     0.0000 </r>
      <r>     9.3318     0.0943     0.2002     5.8542     0.0000     0.0000     0.0000 </r>
      <r>     9.3523     0.0949     0.2013     7.0660     0.0000     0.0000     0.0000 </r>
      <r>     9.3727     0.0956     0.2024     8.6927     0.0000     0.0000     0.0000 </r>
      <r>     9.3932     0.0962     0.2035    10.9425     0.0000     0.0000     0.0000 </r>
      <r>     9.4137     0.0968     0.2046    14.1670     0.0000     0.0000     0.0000 </r>
      <r>     9.4341     0.0975     0.2057    18.9914     0.0000     0.0000     0.0000 </r>
      <r>     9.4546     0.0981     0.2068    26.5894     0.0000     0.0000     0.0000 </r>
      <r>     9.4751     0.0988     0.2079    39.2766     0.0000     0.0000     0.0000 </r>
      <r>     9.4955     0.0994     0.2091    61.6505     0.0000     0.0000     0.0000 </r>
      <r>     9.5160     0.1001     0.2102   101.0382     0.0000     0.0000     0.0000 </r>
      <r>     9.5365     0.1008     0.2113   153.9309     0.0000     0.0000     0.0000 </r>
      <r>     9.5569     0.1014     0.2125   166.0830     0.0000     0.0000     0.0000 </r>
      <r>     9.5774     0.1021     0.2137   118.0408     0.0000     0.0000     0.0000 </r>
      <r>     9.5979     0.1028     0.2148    72.2241     0.0000     0.0000     0.0000 </r>
      <r>     9.6183     0.1035     0.2160    45.1703     0.0000     0.0000     0.0000 </r>
      <r>     9.6388     0.1042     0.2172    29.9924     0.0000     0.0000     0.0000 </r>
      <r>     9.6592     0.1050     0.2184    21.0771     0.0000     0.0000     0.0000 </r>
      <r>     9.6797     0.1057     0.2196    15.5197     0.0000     0.0000     0.0000 </r>
      <r>     9.7002     0.1064     0.2208    11.8633     0.0000     0.0000     0.0000 </r>
      <r>     9.7206     0.1072     0.2220     9.3455     0.0000     0.0000     0.0000 </r>
      <r>     9.7411     0.1079     0.2233     7.5449     0.0000     0.0000     0.0000 </r>
      <r>     9.7616     0.1087     0.2245     6.2158     0.0000     0.0000     0.0000 </r>
      <r>     9.7820     0.1094     0.2258     5.2085     0.0000     0.0000     0.0000 </r>
      <r>     9.8025     0.1102     0.2270     4.4277     0.0000     0.0000     0.0000 </r>
      <r>     9.8230     0.1110     0.2283     3.8107     0.0000     0.0000     0.0000 </r>
      <r>     9.8434     0.1118     0.2296     3.3150     0.0000     0.0000     0.0000 </r>
      <r>     9.8639     0.1126     0.2308     2.9109     0.0000     0.0000     0.0000 </r>
      <r>     9.8844     0.1134     0.2321     2.5774     0.0000     0.0000     0.0000 </r>
      <r>     9.9048     0.1142     0.2334     2.2988     0.0000     0.0000     0.0000 </r>
      <r>     9.9253     0.1150     0.2347     2.0640     0.0000     0.0000     0.0000 </r>
      <r>     9.9457     0.1159     0.2361     1.8641     0.0000     0.0000     0.0000 </r>
      <r>     9.9662     0.1167     0.2374     1.6926     0.0000     0.0000     0.0000 </r>
      <r>     9.9867     0.1176     0.2387     1.5444     0.0000     0.0000     0.0000 </r>
      <r>    10.0071     0.1185     0.2401     1.4155     0.0000     0.0000     0.0000 </r>
      <r>    10.0276     0.1193     0.2414     1.3027     0.0000     0.0000     0.0000 </r>
      <r>    10.0481     0.1202     0.2428     1.2034     0.0000     0.0000     0.0000 </r>
      <r>    10.0685     0.1211     0.2442     1.1156     0.0000     0.0000     0.0000 </r>
      <r>    10.0890     0.1220     0.2456     1.0375     0.0000     0.0000     0.0000 </r>
      <r>    10.1095     0.1229     0.2470     0.9678     0.0000     0.0000     0.0000 </r>
      <r>    10.1299     0.1239     0.2484     0.9053     0.0000     0.0000     0.0000 </r>
      <r>    10.1504     0.1248     0.2498     0.8491     0.0000     0.0000     0.0000 </r>
      <r>    10.1709     0.1258     0.2513     0.7983     0.0000     0.0000     0.0000 </r>
      <r>    10.1913     0.1267     0.2527     0.7524     0.0000     0.0000     0.0000 </r>
      <r>    10.2118     0.1277     0.2542     0.7106     0.0000     0.0000     0.0000 </r>
      <r>    10.2323     0.1287     0.2556     0.6725     0.0000     0.0000     0.0000 </r>
      <r>    10.2527     0.1297     0.2571     0.6377     0.0000     0.0000     0.0000 </r>
      <r>    10.2732     0.1307     0.2586     0.6059     0.0000     0.0000     0.0000 </r>
      <r>    10.2936     0.1318     0.2601     0.5766     0.0000     0.0000     0.0000 </r>
      <r>    10.3141     0.1328     0.2616     0.5497     0.0000     0.0000     0.0000 </r>
      <r>    10.3346     0.1338     0.2631     0.5248     0.0000     0.0000     0.0000 </r>
      <r>    10.3550     0.1349     0.2647     0.5019     0.0000     0.0000     0.0000 </r>
      <r>    10.3755     0.1360     0.2662     0.4806     0.0000     0.0000     0.0000 </r>
      <r>    10.3960     0.1371     0.2678     0.4609     0.0000     0.0000     0.0000 </r>
      <r>    10.4164     0.1382     0.2694     0.4426     0.0000     0.0000     0.0000 </r>
      <r>    10.4369     0.1393     0.2709     0.4255     0.0000     0.0000     0.0000 </r>
      <r>    10.4574     0.1405     0.2725     0.4096     0.0000     0.0000     0.0000 </r>
      <r>    10.4778     0.1416     0.2741     0.3948     0.0000     0.0000     0.0000 </r>
      <r>    10.4983     0.1428     0.2758     0.3809     0.0000     0.0000     0.0000 </r>
      <r>    10.5188     0.1440     0.2774     0.3679     0.0000     0.0000     0.0000 </r>
      <r>    10.5392     0.1452     0.2790     0.3558     0.0000     0.0000     0.0000 </r>
      <r>    10.5597     0.1464     0.2807     0.3443     0.0000     0.0000     0.0000 </r>
      <r>    10.5801     0.1476     0.2824     0.3336     0.0000     0.0000     0.0000 </r>
      <r>    10.6006     0.1489     0.2841     0.3235     0.0000     0.0000     0.0000 </r>
      <r>    10.6211     0.1502     0.2858     0.3140     0.0000     0.0000     0.0000 </r>
      <r>    10.6415     0.1515     0.2875     0.3050     0.0000     0.0000     0.0000 </r>
      <r>    10.6620     0.1528     0.2892     0.2965     0.0000     0.0000     0.0000 </r>
      <r>    10.6825     0.1541     0.2910     0.2885     0.0000     0.0000     0.0000 </r>
      <r>    10.7029     0.1554     0.2927     0.2810     0.0000     0.0000     0.0000 </r>
      <r>    10.7234     0.1568     0.2945     0.2738     0.0000     0.0000     0.0000 </r>
      <r>    10.7439     0.1582     0.2963     0.2671     0.0000     0.0000     0.0000 </r>
      <r>    10.7643     0.1596     0.2981     0.2606     0.0000     0.0000     0.0000 </r>
      <r>    10.7848     0.1610     0.2999     0.2546     0.0000     0.0000     0.0000 </r>
      <r>    10.8053     0.1624     0.3017     0.2488     0.0000     0.0000     0.0000 </r>
      <r>    10.8257     0.1639     0.3036     0.2433     0.0000     0.0000     0.0000 </r>
      <r>    10.8462     0.1654     0.3054     0.2381     0.0000     0.0000     0.0000 </r>
      <r>    10.8667     0.1669     0.3073     0.2331     0.0000     0.0000     0.0000 </r>
      <r>    10.8871     0.1685     0.3092     0.2284     0.0000     0.0000     0.0000 </r>
      <r>    10.9076     0.1700     0.3111     0.2239     0.0000     0.0000     0.0000 </r>
      <r>    10.9280     0.1716     0.3130     0.2196     0.0000     0.0000     0.0000 </r>
      <r>    10.9485     0.1732     0.3150     0.2155     0.0000     0.0000     0.0000 </r>
      <r>    10.9690     0.1748     0.3169     0.2116     0.0000     0.0000     0.0000 </r>
      <r>    10.9894     0.1765     0.3189     0.2079     0.0000     0.0000     0.0000 </r>
      <r>    11.0099     0.1782     0.3209     0.2044     0.0000     0.0000     0.0000 </r>
      <r>    11.0304     0.1799     0.3229     0.2010     0.0000     0.0000     0.0000 </r>
      <r>    11.0508     0.1816     0.3249     0.1978     0.0000     0.0000     0.0000 </r>
      <r>    11.0713     0.1834     0.3270     0.1947     0.0000     0.0000     0.0000 </r>
      <r>    11.0918     0.1852     0.3290     0.1917     0.0000     0.0000     0.0000 </r>
      <r>    11.1122     0.1870     0.3311     0.1889     0.0000     0.0000     0.0000 </r>
      <r>    11.1327     0.1889     0.3332     0.1862     0.0000     0.0000     0.0000 </r>
      <r>    11.1532     0.1908     0.3353     0.1836     0.0000     0.0000     0.0000 </r>
      <r>    11.1736     0.1927     0.3374     0.1811     0.0000     0.0000     0.0000 </r>
      <r>    11.1941     0.1946     0.3396     0.1787     0.0000     0.0000     0.0000 </r>
      <r>    11.2145     0.1966     0.3418     0.1764     0.0000     0.0000     0.0000 </r>
      <r>    11.2350     0.1986     0.3439     0.1742     0.0000     0.0000     0.0000 </r>
      <r>    11.2555     0.2007     0.3462     0.1722     0.0000     0.0000     0.0000 </r>
      <r>    11.2759     0.2028     0.3484     0.1701     0.0000     0.0000     0.0000 </r>
      <r>    11.2964     0.2049     0.3506     0.1682     0.0000     0.0000     0.0000 </r>
      <r>    11.3169     0.2070     0.3529     0.1664     0.0000     0.0000     0.0000 </r>
      <r>    11.3373     0.2092     0.3552     0.1646     0.0000     0.0000     0.0000 </r>
      <r>    11.3578     0.2115     0.3575     0.1629     0.0000     0.0000     0.0000 </r>
      <r>    11.3783     0.2138     0.3598     0.1613     0.0000     0.0000     0.0000 </r>
      <r>    11.3987     0.2161     0.3622     0.1597     0.0000     0.0000     0.0000 </r>
      <r>    11.4192     0.2185     0.3645     0.1582     0.0000     0.0000     0.0000 </r>
      <r>    11.4397     0.2209     0.3669     0.1568     0.0000     0.0000     0.0000 </r>
      <r>    11.4601     0.2233     0.3693     0.1554     0.0000     0.0000     0.0000 </r>
      <r>    11.4806     0.2258     0.3718     0.1541     0.0000     0.0000     0.0000 </r>
      <r>    11.5011     0.2284     0.3742     0.1528     0.0000     0.0000     0.0000 </r>
      <r>    11.5215     0.2310     0.3767     0.1516     0.0000     0.0000     0.0000 </r>
      <r>    11.5420     0.2336     0.3792     0.1504     0.0000     0.0000     0.0000 </r>
      <r>    11.5624     0.2363     0.3818     0.1493     0.0000     0.0000     0.0000 </r>
      <r>    11.5829     0.2390     0.3843     0.1482     0.0000     0.0000     0.0000 </r>
      <r>    11.6034     0.2419     0.3869     0.1472     0.0000     0.0000     0.0000 </r>
      <r>    11.6238     0.2447     0.3895     0.1462     0.0000     0.0000     0.0000 </r>
      <r>    11.6443     0.2476     0.3921     0.1452     0.0000     0.0000     0.0000 </r>
      <r>    11.6648     0.2506     0.3948     0.1443     0.0000     0.0000     0.0000 </r>
      <r>    11.6852     0.2536     0.3974     0.1434     0.0000     0.0000     0.0000 </r>
      <r>    11.7057     0.2567     0.4001     0.1426     0.0000     0.0000     0.0000 </r>
      <r>    11.7262     0.2599     0.4029     0.1418     0.0000     0.0000     0.0000 </r>
      <r>    11.7466     0.2631     0.4056     0.1410     0.0000     0.0000     0.0000 </r>
      <r>    11.7671     0.2664     0.4084     0.1403     0.0000     0.0000     0.0000 </r>
      <r>    11.7876     0.2698     0.4112     0.1396     0.0000     0.0000     0.0000 </r>
      <r>    11.8080     0.2732     0.4140     0.1389     0.0000     0.0000     0.0000 </r>
      <r>    11.8285     0.2767     0.4169     0.1382     0.0000     0.0000     0.0000 </r>
      <r>    11.8489     0.2803     0.4198     0.1376     0.0000     0.0000     0.0000 </r>
      <r>    11.8694     0.2840     0.4227     0.1370     0.0000     0.0000     0.0000 </r>
      <r>    11.8899     0.2877     0.4256     0.1365     0.0000     0.0000     0.0000 </r>
      <r>    11.9103     0.2916     0.4286     0.1359     0.0000     0.0000     0.0000 </r>
      <r>    11.9308     0.2955     0.4316     0.1354     0.0000     0.0000     0.0000 </r>
      <r>    11.9513     0.2995     0.4346     0.1349     0.0000     0.0000     0.0000 </r>
      <r>    11.9717     0.3036     0.4377     0.1344     0.0000     0.0000     0.0000 </r>
      <r>    11.9922     0.3078     0.4408     0.1340     0.0000     0.0000     0.0000 </r>
      <r>    12.0127     0.3121     0.4439     0.1336     0.0000     0.0000     0.0000 </r>
      <r>    12.0331     0.3165     0.4471     0.1332     0.0000     0.0000     0.0000 </r>
      <r>    12.0536     0.3210     0.4503     0.1328     0.0000     0.0000     0.0000 </r>
      <r>    12.0741     0.3256     0.4535     0.1324     0.0000     0.0000     0.0000 </r>
      <r>    12.0945     0.3303     0.4567     0.1321     0.0000     0.0000     0.0000 </r>
      <r>    12.1150     0.3351     0.4600     0.1318     0.0000     0.0000     0.0000 </r>
      <r>    12.1354     0.3401     0.4633     0.1315     0.0000     0.0000     0.0000 </r>
      <r>    12.1559     0.3452     0.4667     0.1312     0.0000     0.0000     0.0000 </r>
      <r>    12.1764     0.3504     0.4701     0.1309     0.0000     0.0000     0.0000 </r>
      <r>    12.1968     0.3557     0.4735     0.1307     0.0000     0.0000     0.0000 </r>
      <r>    12.2173     0.3612     0.4770     0.1305     0.0000     0.0000     0.0000 </r>
      <r>    12.2378     0.3668     0.4805     0.1303     0.0000     0.0000     0.0000 </r>
      <r>    12.2582     0.3725     0.4840     0.1301     0.0000     0.0000     0.0000 </r>
      <r>    12.2787     0.3785     0.4875     0.1299     0.0000     0.0000     0.0000 </r>
      <r>    12.2992     0.3845     0.4912     0.1297     0.0000     0.0000     0.0000 </r>
      <r>    12.3196     0.3908     0.4948     0.1296     0.0000     0.0000     0.0000 </r>
      <r>    12.3401     0.3972     0.4985     0.1294     0.0000     0.0000     0.0000 </r>
      <r>    12.3606     0.4038     0.5022     0.1293     0.0000     0.0000     0.0000 </r>
      <r>    12.3810     0.4105     0.5060     0.1292     0.0000     0.0000     0.0000 </r>
      <r>    12.4015     0.4175     0.5098     0.1291     0.0000     0.0000     0.0000 </r>
      <r>    12.4220     0.4246     0.5136     0.1290     0.0000     0.0000     0.0000 </r>
      <r>    12.4424     0.4320     0.5175     0.1289     0.0000     0.0000     0.0000 </r>
      <r>    12.4629     0.4396     0.5214     0.1289     0.0000     0.0000     0.0000 </r>
      <r>    12.4833     0.4474     0.5254     0.1288     0.0000     0.0000     0.0000 </r>
      <r>    12.5038     0.4554     0.5294     0.1288     0.0000     0.0000     0.0000 </r>
      <r>    12.5243     0.4637     0.5334     0.1288     0.0000     0.0000     0.0000 </r>
      <r>    12.5447     0.4722     0.5375     0.1288     0.0000     0.0000     0.0000 </r>
      <r>    12.5652     0.4810     0.5417     0.1288     0.0000     0.0000     0.0000 </r>
      <r>    12.5857     0.4900     0.5459     0.1288     0.0000     0.0000     0.0000 </r>
      <r>    12.6061     0.4994     0.5501     0.1288     0.0000     0.0000     0.0000 </r>
      <r>    12.6266     0.5090     0.5544     0.1288     0.0000     0.0000     0.0000 </r>
      <r>    12.6471     0.5189     0.5587     0.1289     0.0000     0.0000     0.0000 </r>
      <r>    12.6675     0.5292     0.5631     0.1289     0.0000     0.0000     0.0000 </r>
      <r>    12.6880     0.5398     0.5675     0.1290     0.0000     0.0000     0.0000 </r>
      <r>    12.7085     0.5508     0.5720     0.1291     0.0000     0.0000     0.0000 </r>
      <r>    12.7289     0.5621     0.5766     0.1292     0.0000     0.0000     0.0000 </r>
      <r>    12.7494     0.5738     0.5811     0.1293     0.0000     0.0000     0.0000 </r>
      <r>    12.7698     0.5859     0.5858     0.1294     0.0000     0.0000     0.0000 </r>
      <r>    12.7903     0.5985     0.5905     0.1295     0.0000     0.0000     0.0000 </r>
      <r>    12.8108     0.6115     0.5952     0.1296     0.0000     0.0000     0.0000 </r>
      <r>    12.8312     0.6249     0.6000     0.1297     0.0000     0.0000     0.0000 </r>
      <r>    12.8517     0.6389     0.6049     0.1299     0.0000     0.0000     0.0000 </r>
      <r>    12.8722     0.6533     0.6098     0.1300     0.0000     0.0000     0.0000 </r>
      <r>    12.8926     0.6683     0.6147     0.1302     0.0000     0.0000     0.0000 </r>
      <r>    12.9131     0.6839     0.6198     0.1304     0.0000     0.0000     0.0000 </r>
      <r>    12.9336     0.7001     0.6249     0.1305     0.0000     0.0000     0.0000 </r>
      <r>    12.9540     0.7169     0.6300     0.1307     0.0000     0.0000     0.0000 </r>
      <r>    12.9745     0.7343     0.6352     0.1309     0.0000     0.0000     0.0000 </r>
      <r>    12.9950     0.7525     0.6405     0.1311     0.0000     0.0000     0.0000 </r>
      <r>    13.0154     0.7714     0.6458     0.1313     0.0000     0.0000     0.0000 </r>
      <r>    13.0359     0.7910     0.6512     0.1315     0.0000     0.0000     0.0000 </r>
      <r>    13.0564     0.8115     0.6567     0.1318     0.0000     0.0000     0.0000 </r>
      <r>    13.0768     0.8329     0.6622     0.1320     0.0000     0.0000     0.0000 </r>
      <r>    13.0973     0.8552     0.6678     0.1322     0.0000     0.0000     0.0000 </r>
      <r>    13.1177     0.8784     0.6735     0.1325     0.0000     0.0000     0.0000 </r>
      <r>    13.1382     0.9027     0.6792     0.1327     0.0000     0.0000     0.0000 </r>
      <r>    13.1587     0.9281     0.6850     0.1330     0.0000     0.0000     0.0000 </r>
      <r>    13.1791     0.9546     0.6909     0.1333     0.0000     0.0000     0.0000 </r>
      <r>    13.1996     0.9824     0.6969     0.1335     0.0000     0.0000     0.0000 </r>
      <r>    13.2201     1.0114     0.7029     0.1338     0.0000     0.0000     0.0000 </r>
      <r>    13.2405     1.0419     0.7090     0.1341     0.0000     0.0000     0.0000 </r>
      <r>    13.2610     1.0739     0.7152     0.1344     0.0000     0.0000     0.0000 </r>
      <r>    13.2815     1.1074     0.7215     0.1347     0.0000     0.0000     0.0000 </r>
      <r>    13.3019     1.1427     0.7278     0.1350     0.0000     0.0000     0.0000 </r>
      <r>    13.3224     1.1797     0.7342     0.1354     0.0000     0.0000     0.0000 </r>
      <r>    13.3429     1.2188     0.7407     0.1357     0.0000     0.0000     0.0000 </r>
      <r>    13.3633     1.2598     0.7473     0.1360     0.0000     0.0000     0.0000 </r>
      <r>    13.3838     1.3032     0.7540     0.1364     0.0000     0.0000     0.0000 </r>
      <r>    13.4042     1.3489     0.7608     0.1367     0.0000     0.0000     0.0000 </r>
      <r>    13.4247     1.3972     0.7676     0.1371     0.0000     0.0000     0.0000 </r>
      <r>    13.4452     1.4483     0.7746     0.1374     0.0000     0.0000     0.0000 </r>
      <r>    13.4656     1.5024     0.7816     0.1378     0.0000     0.0000     0.0000 </r>
      <r>    13.4861     1.5597     0.7887     0.1382     0.0000     0.0000     0.0000 </r>
      <r>    13.5066     1.6205     0.7960     0.1385     0.0000     0.0000     0.0000 </r>
      <r>    13.5270     1.6851     0.8033     0.1389     0.0000     0.0000     0.0000 </r>
      <r>    13.5475     1.7539     0.8107     0.1393     0.0000     0.0000     0.0000 </r>
      <r>    13.5680     1.8271     0.8182     0.1397     0.0000     0.0000     0.0000 </r>
      <r>    13.5884     1.9052     0.8259     0.1401     0.0000     0.0000     0.0000 </r>
      <r>    13.6089     1.9887     0.8336     0.1405     0.0000     0.0000     0.0000 </r>
      <r>    13.6294     2.0780     0.8414     0.1410     0.0000     0.0000     0.0000 </r>
      <r>    13.6498     2.1736     0.8494     0.1414     0.0000     0.0000     0.0000 </r>
      <r>    13.6703     2.2763     0.8574     0.1418     0.0000     0.0000     0.0000 </r>
      <r>    13.6908     2.3867     0.8656     0.1423     0.0000     0.0000     0.0000 </r>
      <r>    13.7112     2.5056     0.8739     0.1427     0.0000     0.0000     0.0000 </r>
      <r>    13.7317     2.6339     0.8822     0.1432     0.0000     0.0000     0.0000 </r>
      <r>    13.7521     2.7727     0.8908     0.1436     0.0000     0.0000     0.0000 </r>
      <r>    13.7726     2.9231     0.8994     0.1441     0.0000     0.0000     0.0000 </r>
      <r>    13.7931     3.0864     0.9082     0.1446     0.0000     0.0000     0.0000 </r>
      <r>    13.8135     3.2641     0.9170     0.1450     0.0000     0.0000     0.0000 </r>
      <r>    13.8340     3.4581     0.9260     0.1455     0.0000     0.0000     0.0000 </r>
      <r>    13.8545     3.6704     0.9352     0.1460     0.0000     0.0000     0.0000 </r>
      <r>    13.8749     3.9033     0.9445     0.1465     0.0000     0.0000     0.0000 </r>
      <r>    13.8954     4.1596     0.9539     0.1470     0.0000     0.0000     0.0000 </r>
      <r>    13.9159     4.4426     0.9634     0.1475     0.0000     0.0000     0.0000 </r>
      <r>    13.9363     4.7560     0.9731     0.1480     0.0000     0.0000     0.0000 </r>
      <r>    13.9568     5.1044     0.9829     0.1485     0.0000     0.0000     0.0000 </r>
      <r>    13.9773     5.4933     0.9929     0.1491     0.0000     0.0000     0.0000 </r>
      <r>    13.9977     5.9290     1.0030     0.1496     0.0000     0.0000     0.0000 </r>
      <r>    14.0182     6.4196     1.0133     0.1502     0.0000     0.0000     0.0000 </r>
      <r>    14.0386     6.9745     1.0238     0.1507     0.0000     0.0000     0.0000 </r>
      <r>    14.0591     7.6054     1.0343     0.1513     0.0000     0.0000     0.0000 </r>
      <r>    14.0796     8.3270     1.0451     0.1518     0.0000     0.0000     0.0000 </r>
      <r>    14.1000     9.1573     1.0560     0.1524     0.0000     0.0000     0.0000 </r>
      <r>    14.1205    10.1194     1.0671     0.1530     0.0000     0.0000     0.0000 </r>
      <r>    14.1410    11.2425     1.0784     0.1535     0.0000     0.0000     0.0000 </r>
      <r>    14.1614    12.5646     1.0898     0.1541     0.0000     0.0000     0.0000 </r>
      <r>    14.1819    14.1351     1.1014     0.1547     0.0000     0.0000     0.0000 </r>
      <r>    14.2024    16.0204     1.1132     0.1553     0.0000     0.0000     0.0000 </r>
      <r>    14.2228    18.3096     1.1252     0.1559     0.0000     0.0000     0.0000 </r>
      <r>    14.2433    21.1262     1.1374     0.1565     0.0000     0.0000     0.0000 </r>
      <r>    14.2638    24.6437     1.1498     0.1571     0.0000     0.0000     0.0000 </r>
      <r>    14.2842    29.1125     1.1624     0.1578     0.0000     0.0000     0.0000 </r>
      <r>    14.3047    34.9043     1.1751     0.1584     0.0000     0.0000     0.0000 </r>
      <r>    14.3252    42.5873     1.1881     0.1590     0.0000     0.0000     0.0000 </r>
      <r>    14.3456    53.0635     1.2013     0.1597     0.0000     0.0000     0.0000 </r>
      <r>    14.3661    67.8255     1.2147     0.1603     0.0000     0.0000     0.0000 </r>
      <r>    14.3865    89.4639     1.2284     0.1610     0.0000     0.0000     0.0000 </r>
      <r>    14.4070   122.7222     1.2422     0.1617     0.0000     0.0000     0.0000 </r>
      <r>    14.4275   176.7688     1.2563     0.1623     0.0000     0.0000     0.0000 </r>
      <r>    14.4479   269.9472     1.2707     0.1630     0.0000     0.0000     0.0000 </r>
      <r>    14.4684   436.4665     1.2852     0.1637     0.0000     0.0000     0.0000 </r>
      <r>    14.4889   705.3669     1.3001     0.1644     0.0000     0.0000     0.0000 </r>
      <r>    14.5093   922.1127     1.3152     0.1651     0.0000     0.0000     0.0000 </r>
      <r>    14.5298   774.2705     1.3305     0.1658     0.0000     0.0000     0.0000 </r>
      <r>    14.5503   490.4752     1.3461     0.1665     0.0000     0.0000     0.0000 </r>
      <r>    14.5707   300.6536     1.3620     0.1672     0.0000     0.0000     0.0000 </r>
      <r>    14.5912   194.0696     1.3781     0.1679     0.0000     0.0000     0.0000 </r>
      <r>    14.6117   133.0098     1.3946     0.1687     0.0000     0.0000     0.0000 </r>
      <r>    14.6321    95.9552     1.4113     0.1694     0.0000     0.0000     0.0000 </r>
      <r>    14.6526    72.1422     1.4283     0.1702     0.0000     0.0000     0.0000 </r>
      <r>    14.6730    56.0639     1.4457     0.1709     0.0000     0.0000     0.0000 </r>
      <r>    14.6935    44.7511     1.4633     0.1717     0.0000     0.0000     0.0000 </r>
      <r>    14.7140    36.5141     1.4813     0.1725     0.0000     0.0000     0.0000 </r>
      <r>    14.7344    30.3422     1.4996     0.1732     0.0000     0.0000     0.0000 </r>
      <r>    14.7549    25.6045     1.5182     0.1740     0.0000     0.0000     0.0000 </r>
      <r>    14.7754    21.8920     1.5372     0.1748     0.0000     0.0000     0.0000 </r>
      <r>    14.7958    18.9308     1.5566     0.1756     0.0000     0.0000     0.0000 </r>
      <r>    14.8163    16.5322     1.5763     0.1764     0.0000     0.0000     0.0000 </r>
      <r>    14.8368    14.5628     1.5963     0.1772     0.0000     0.0000     0.0000 </r>
      <r>    14.8572    12.9265     1.6168     0.1781     0.0000     0.0000     0.0000 </r>
      <r>    14.8777    11.5526     1.6376     0.1789     0.0000     0.0000     0.0000 </r>
      <r>    14.8982    10.3880     1.6589     0.1797     0.0000     0.0000     0.0000 </r>
      <r>    14.9186     9.3924     1.6805     0.1806     0.0000     0.0000     0.0000 </r>
      <r>    14.9391     8.5347     1.7026     0.1814     0.0000     0.0000     0.0000 </r>
      <r>    14.9596     7.7907     1.7251     0.1823     0.0000     0.0000     0.0000 </r>
      <r>    14.9800     7.1412     1.7481     0.1832     0.0000     0.0000     0.0000 </r>
      <r>    15.0005     6.5708     1.7715     0.1840     0.0000     0.0000     0.0000 </r>
      <r>    15.0209     6.0674     1.7954     0.1849     0.0000     0.0000     0.0000 </r>
      <r>    15.0414     5.6208     1.8197     0.1858     0.0000     0.0000     0.0000 </r>
      <r>    15.0619     5.2228     1.8446     0.1867     0.0000     0.0000     0.0000 </r>
      <r>    15.0823     4.8666     1.8700     0.1876     0.0000     0.0000     0.0000 </r>
      <r>    15.1028     4.5466     1.8958     0.1886     0.0000     0.0000     0.0000 </r>
      <r>    15.1233     4.2581     1.9223     0.1895     0.0000     0.0000     0.0000 </r>
      <r>    15.1437     3.9971     1.9492     0.1904     0.0000     0.0000     0.0000 </r>
      <r>    15.1642     3.7602     1.9768     0.1914     0.0000     0.0000     0.0000 </r>
      <r>    15.1847     3.5445     2.0049     0.1923     0.0000     0.0000     0.0000 </r>
      <r>    15.2051     3.3477     2.0336     0.1933     0.0000     0.0000     0.0000 </r>
      <r>    15.2256     3.1675     2.0629     0.1943     0.0000     0.0000     0.0000 </r>
      <r>    15.2461     3.0021     2.0929     0.1952     0.0000     0.0000     0.0000 </r>
      <r>    15.2665     2.8501     2.1235     0.1962     0.0000     0.0000     0.0000 </r>
      <r>    15.2870     2.7099     2.1548     0.1972     0.0000     0.0000     0.0000 </r>
      <r>    15.3074     2.5805     2.1868     0.1982     0.0000     0.0000     0.0000 </r>
      <r>    15.3279     2.4607     2.2195     0.1992     0.0000     0.0000     0.0000 </r>
      <r>    15.3484     2.3496     2.2529     0.2003     0.0000     0.0000     0.0000 </r>
      <r>    15.3688     2.2464     2.2871     0.2013     0.0000     0.0000     0.0000 </r>
      <r>    15.3893     2.1504     2.3220     0.2024     0.0000     0.0000     0.0000 </r>
      <r>    15.4098     2.0609     2.3578     0.2034     0.0000     0.0000     0.0000 </r>
      <r>    15.4302     1.9774     2.3944     0.2045     0.0000     0.0000     0.0000 </r>
      <r>    15.4507     1.8993     2.4318     0.2055     0.0000     0.0000     0.0000 </r>
      <r>    15.4712     1.8262     2.4701     0.2066     0.0000     0.0000     0.0000 </r>
      <r>    15.4916     1.7577     2.5094     0.2077     0.0000     0.0000     0.0000 </r>
      <r>    15.5121     1.6934     2.5495     0.2088     0.0000     0.0000     0.0000 </r>
      <r>    15.5326     1.6329     2.5906     0.2099     0.0000     0.0000     0.0000 </r>
      <r>    15.5530     1.5761     2.6327     0.2111     0.0000     0.0000     0.0000 </r>
      <r>    15.5735     1.5225     2.6759     0.2122     0.0000     0.0000     0.0000 </r>
      <r>    15.5940     1.4720     2.7201     0.2133     0.0000     0.0000     0.0000 </r>
      <r>    15.6144     1.4243     2.7654     0.2145     0.0000     0.0000     0.0000 </r>
      <r>    15.6349     1.3793     2.8118     0.2157     0.0000     0.0000     0.0000 </r>
      <r>    15.6553     1.3367     2.8594     0.2168     0.0000     0.0000     0.0000 </r>
      <r>    15.6758     1.2964     2.9082     0.2180     0.0000     0.0000     0.0000 </r>
      <r>    15.6963     1.2582     2.9583     0.2192     0.0000     0.0000     0.0000 </r>
      <r>    15.7167     1.2220     3.0097     0.2204     0.0000     0.0000     0.0000 </r>
      <r>    15.7372     1.1876     3.0624     0.2217     0.0000     0.0000     0.0000 </r>
      <r>    15.7577     1.1550     3.1165     0.2229     0.0000     0.0000     0.0000 </r>
      <r>    15.7781     1.1240     3.1720     0.2241     0.0000     0.0000     0.0000 </r>
      <r>    15.7986     1.0945     3.2291     0.2254     0.0000     0.0000     0.0000 </r>
      <r>    15.8191     1.0664     3.2876     0.2267     0.0000     0.0000     0.0000 </r>
      <r>    15.8395     1.0396     3.3478     0.2279     0.0000     0.0000     0.0000 </r>
      <r>    15.8600     1.0142     3.4096     0.2292     0.0000     0.0000     0.0000 </r>
      <r>    15.8805     0.9899     3.4732     0.2305     0.0000     0.0000     0.0000 </r>
      <r>    15.9009     0.9667     3.5385     0.2318     0.0000     0.0000     0.0000 </r>
      <r>    15.9214     0.9445     3.6057     0.2332     0.0000     0.0000     0.0000 </r>
      <r>    15.9418     0.9234     3.6748     0.2345     0.0000     0.0000     0.0000 </r>
      <r>    15.9623     0.9032     3.7459     0.2359     0.0000     0.0000     0.0000 </r>
      <r>    15.9828     0.8838     3.8191     0.2372     0.0000     0.0000     0.0000 </r>
      <r>    16.0032     0.8654     3.8944     0.2386     0.0000     0.0000     0.0000 </r>
      <r>    16.0237     0.8477     3.9720     0.2400     0.0000     0.0000     0.0000 </r>
      <r>    16.0442     0.8307     4.0519     0.2414     0.0000     0.0000     0.0000 </r>
      <r>    16.0646     0.8145     4.1342     0.2428     0.0000     0.0000     0.0000 </r>
      <r>    16.0851     0.7990     4.2191     0.2443     0.0000     0.0000     0.0000 </r>
      <r>    16.1056     0.7840     4.3066     0.2457     0.0000     0.0000     0.0000 </r>
      <r>    16.1260     0.7698     4.3968     0.2472     0.0000     0.0000     0.0000 </r>
      <r>    16.1465     0.7560     4.4899     0.2486    -0.0000     0.0000     0.0000 </r>
      <r>    16.1670     0.7429     4.5859     0.2501    -0.0000     0.0000     0.0000 </r>
      <r>    16.1874     0.7302     4.6851     0.2516    -0.0000     0.0000     0.0000 </r>
      <r>    16.2079     0.7181     4.7874     0.2531    -0.0000     0.0000     0.0000 </r>
      <r>    16.2284     0.7065     4.8932     0.2547    -0.0000     0.0000     0.0000 </r>
      <r>    16.2488     0.6953     5.0025     0.2562    -0.0000     0.0000     0.0000 </r>
      <r>    16.2693     0.6845     5.1155     0.2578    -0.0000     0.0000     0.0000 </r>
      <r>    16.2897     0.6742     5.2324     0.2593    -0.0000     0.0000     0.0000 </r>
      <r>    16.3102     0.6642     5.3533     0.2609    -0.0000     0.0000     0.0000 </r>
      <r>    16.3307     0.6547     5.4784     0.2625    -0.0000     0.0000     0.0000 </r>
      <r>    16.3511     0.6455     5.6079     0.2642    -0.0000     0.0000     0.0000 </r>
      <r>    16.3716     0.6366     5.7421     0.2658    -0.0000     0.0000     0.0000 </r>
      <r>    16.3921     0.6281     5.8811     0.2675    -0.0000     0.0000     0.0000 </r>
      <r>    16.4125     0.6199     6.0252     0.2691    -0.0000     0.0000     0.0000 </r>
      <r>    16.4330     0.6121     6.1747     0.2708    -0.0000     0.0000     0.0000 </r>
      <r>    16.4535     0.6045     6.3298     0.2725    -0.0000     0.0000     0.0000 </r>
      <r>    16.4739     0.5972     6.4908     0.2742    -0.0000     0.0000     0.0000 </r>
      <r>    16.4944     0.5902     6.6580     0.2760    -0.0000     0.0000     0.0000 </r>
      <r>    16.5149     0.5834     6.8317     0.2777    -0.0000     0.0000     0.0000 </r>
      <r>    16.5353     0.5769     7.0123     0.2795    -0.0000     0.0000     0.0000 </r>
      <r>    16.5558     0.5706     7.2002     0.2813    -0.0000     0.0000     0.0000 </r>
      <r>    16.5762     0.5646     7.3956     0.2831    -0.0000     0.0000     0.0000 </r>
      <r>    16.5967     0.5588     7.5991     0.2849    -0.0000     0.0000     0.0000 </r>
      <r>    16.6172     0.5532     7.8112     0.2868    -0.0000     0.0000     0.0000 </r>
      <r>    16.6376     0.5478     8.0322     0.2886    -0.0000     0.0000     0.0000 </r>
      <r>    16.6581     0.5426     8.2626     0.2905    -0.0000     0.0000     0.0000 </r>
      <r>    16.6786     0.5377     8.5032     0.2924    -0.0000     0.0000     0.0000 </r>
      <r>    16.6990     0.5329     8.7543     0.2943    -0.0000     0.0000     0.0000 </r>
      <r>    16.7195     0.5283     9.0167     0.2963    -0.0000     0.0000     0.0000 </r>
      <r>    16.7400     0.5238     9.2911     0.2982    -0.0000     0.0000     0.0000 </r>
      <r>    16.7604     0.5196     9.5782     0.3002    -0.0000     0.0000     0.0000 </r>
      <r>    16.7809     0.5155     9.8788     0.3022    -0.0000     0.0000     0.0000 </r>
      <r>    16.8014     0.5115    10.1937     0.3042    -0.0000     0.0000     0.0000 </r>
      <r>    16.8218     0.5078    10.5238     0.3063    -0.0000     0.0000     0.0000 </r>
      <r>    16.8423     0.5041    10.8703     0.3083    -0.0000     0.0000     0.0000 </r>
      <r>    16.8627     0.5006    11.2341     0.3104    -0.0000     0.0000     0.0000 </r>
      <r>    16.8832     0.4973    11.6165     0.3125    -0.0000     0.0000     0.0000 </r>
      <r>    16.9037     0.4941    12.0186     0.3146    -0.0000     0.0000     0.0000 </r>
      <r>    16.9241     0.4910    12.4420     0.3168    -0.0000     0.0000     0.0000 </r>
      <r>    16.9446     0.4881    12.8882     0.3190    -0.0000     0.0000     0.0000 </r>
      <r>    16.9651     0.4853    13.3587     0.3212    -0.0000     0.0000     0.0000 </r>
      <r>    16.9855     0.4826    13.8554     0.3234    -0.0000     0.0000     0.0000 </r>
      <r>    17.0060     0.4800    14.3803     0.3256    -0.0000     0.0000     0.0000 </r>
      <r>    17.0265     0.4775    14.9356     0.3279    -0.0000     0.0000     0.0000 </r>
      <r>    17.0469     0.4752    15.5236     0.3302    -0.0000     0.0000     0.0000 </r>
      <r>    17.0674     0.4730    16.1469     0.3325    -0.0000     0.0000     0.0000 </r>
      <r>    17.0879     0.4708    16.8086     0.3348    -0.0000     0.0000     0.0000 </r>
      <r>    17.1083     0.4688    17.5116     0.3372    -0.0000     0.0000     0.0000 </r>
      <r>    17.1288     0.4669    18.2597     0.3396    -0.0000     0.0000     0.0000 </r>
      <r>    17.1493     0.4650    19.0567     0.3420    -0.0000     0.0000     0.0000 </r>
      <r>    17.1697     0.4633    19.9069     0.3445    -0.0000     0.0000     0.0000 </r>
      <r>    17.1902     0.4617    20.8153     0.3469    -0.0000     0.0000     0.0000 </r>
      <r>    17.2106     0.4602    21.7871     0.3494    -0.0000     0.0000     0.0000 </r>
      <r>    17.2311     0.4587    22.8286     0.3520    -0.0000     0.0000     0.0000 </r>
      <r>    17.2516     0.4573    23.9464     0.3545    -0.0000     0.0000     0.0000 </r>
      <r>    17.2720     0.4561    25.1483     0.3571    -0.0000     0.0000     0.0000 </r>
      <r>    17.2925     0.4549    26.4429     0.3597    -0.0000     0.0000     0.0000 </r>
      <r>    17.3130     0.4538    27.8398     0.3623    -0.0000     0.0000     0.0000 </r>
      <r>    17.3334     0.4528    29.3503     0.3650    -0.0000     0.0000     0.0000 </r>
      <r>    17.3539     0.4518    30.9870     0.3677    -0.0000     0.0000     0.0000 </r>
      <r>    17.3744     0.4510    32.7643     0.3704    -0.0000     0.0000     0.0000 </r>
      <r>    17.3948     0.4502    34.6987     0.3732    -0.0000     0.0000     0.0000 </r>
      <r>    17.4153     0.4495    36.8093     0.3760    -0.0000     0.0000     0.0000 </r>
      <r>    17.4358     0.4488    39.1182     0.3788    -0.0000     0.0000     0.0000 </r>
      <r>    17.4562     0.4483    41.6509     0.3817    -0.0000     0.0000     0.0000 </r>
      <r>    17.4767     0.4478    44.4373     0.3846    -0.0000     0.0000     0.0000 </r>
      <r>    17.4971     0.4474    47.5124     0.3875    -0.0000     0.0000     0.0000 </r>
      <r>    17.5176     0.4470    50.9174     0.3904    -0.0000     0.0000     0.0000 </r>
      <r>    17.5381     0.4468    54.7013     0.3934    -0.0000     0.0000     0.0000 </r>
      <r>    17.5585     0.4465    58.9221     0.3964    -0.0000     0.0000     0.0000 </r>
      <r>    17.5790     0.4464    63.6497     0.3995    -0.0000     0.0000     0.0000 </r>
      <r>    17.5995     0.4463    68.9685     0.4026    -0.0000     0.0000     0.0000 </r>
      <r>    17.6199     0.4463    74.9810     0.4057    -0.0000     0.0000     0.0000 </r>
      <r>    17.6404     0.4464    81.8130     0.4089    -0.0000     0.0000     0.0000 </r>
      <r>    17.6609     0.4465    89.6198     0.4121    -0.0000     0.0000     0.0000 </r>
      <r>    17.6813     0.4467    98.5957     0.4154    -0.0000     0.0000     0.0000 </r>
      <r>    17.7018     0.4469   108.9852     0.4186    -0.0000     0.0000     0.0000 </r>
      <r>    17.7223     0.4472   121.1003     0.4220    -0.0000     0.0000     0.0000 </r>
      <r>    17.7427     0.4476   135.3435     0.4253    -0.0000     0.0000     0.0000 </r>
      <r>    17.7632     0.4480   152.2410     0.4287    -0.0000     0.0000     0.0000 </r>
      <r>    17.7837     0.4485   172.4917     0.4322    -0.0000     0.0000     0.0000 </r>
      <r>    17.8041     0.4491   197.0384     0.4357    -0.0000     0.0000     0.0000 </r>
      <r>    17.8246     0.4497   227.1776     0.4392    -0.0000     0.0000     0.0000 </r>
      <r>    17.8450     0.4504   264.7289     0.4428    -0.0000     0.0000     0.0000 </r>
      <r>    17.8655     0.4511   312.3076     0.4464    -0.0000     0.0000     0.0000 </r>
      <r>    17.8860     0.4519   373.7752     0.4501    -0.0000     0.0000     0.0000 </r>
      <r>    17.9064     0.4527   455.0110     0.4538    -0.0000     0.0000     0.0000 </r>
      <r>    17.9269     0.4536   565.2908     0.4575    -0.0000     0.0000     0.0000 </r>
      <r>    17.9474     0.4546   719.8598     0.4613    -0.0000     0.0000     0.0000 </r>
      <r>    17.9678     0.4556   944.9806     0.4652    -0.0000     0.0000     0.0000 </r>
      <r>    17.9883     0.4567  1288.3446     0.4691    -0.0000     0.0000     0.0000 </r>
      <r>    18.0088     0.4578  1841.4190     0.4730    -0.0000     0.0000     0.0000 </r>
      <r>    18.0292     0.4590  2786.8293     0.4770    -0.0000     0.0000     0.0000 </r>
      <r>    18.0497     0.4603  4474.2136     0.4811    -0.0000     0.0000     0.0000 </r>
      <r>    18.0702     0.4616  7295.2440     0.4852    -0.0000     0.0000     0.0000 </r>
      <r>    18.0906     0.4629 10045.3710     0.4893    -0.0000     0.0000     0.0000 </r>
      <r>    18.1111     0.4644  9015.4244     0.4935    -0.0000     0.0000     0.0000 </r>
      <r>    18.1315     0.4658  5841.3375     0.4978    -0.0000     0.0000     0.0000 </r>
      <r>    18.1520     0.4674  3566.7594     0.5021    -0.0000     0.0000     0.0000 </r>
      <r>    18.1725     0.4690  2280.8136     0.5065    -0.0000     0.0000     0.0000 </r>
      <r>    18.1929     0.4706  1549.3913     0.5109    -0.0000     0.0000     0.0000 </r>
      <r>    18.2134     0.4723  1109.5189     0.5154    -0.0000     0.0000     0.0000 </r>
      <r>    18.2339     0.4741   829.1384     0.5199    -0.0000     0.0000     0.0000 </r>
      <r>    18.2543     0.4759   641.1263     0.5246    -0.0000     0.0000     0.0000 </r>
      <r>    18.2748     0.4778   509.5945     0.5292    -0.0000     0.0000     0.0000 </r>
      <r>    18.2953     0.4797   414.2775     0.5340    -0.0000     0.0000     0.0000 </r>
      <r>    18.3157     0.4817   343.1420     0.5388    -0.0000     0.0000     0.0000 </r>
      <r>    18.3362     0.4837   288.7202     0.5436    -0.0000     0.0000    -0.0000 </r>
      <r>    18.3567     0.4858   246.1969     0.5486    -0.0000     0.0000    -0.0000 </r>
      <r>    18.3771     0.4880   212.3624     0.5536    -0.0000     0.0000    -0.0000 </r>
      <r>    18.3976     0.4902   185.0142     0.5586    -0.0000     0.0000    -0.0000 </r>
      <r>    18.4181     0.4925   162.6024     0.5638    -0.0000     0.0000    -0.0000 </r>
      <r>    18.4385     0.4948   144.0118     0.5690    -0.0000     0.0000    -0.0000 </r>
      <r>    18.4590     0.4972   128.4241     0.5742    -0.0000     0.0000    -0.0000 </r>
      <r>    18.4794     0.4997   115.2279     0.5796    -0.0000     0.0000    -0.0000 </r>
      <r>    18.4999     0.5022   103.9593     0.5850    -0.0000     0.0000    -0.0000 </r>
      <r>    18.5204     0.5048    94.2617     0.5905    -0.0000     0.0000    -0.0000 </r>
      <r>    18.5408     0.5074    85.8566     0.5961    -0.0000     0.0000    -0.0000 </r>
      <r>    18.5613     0.5102    78.5248     0.6018    -0.0000     0.0000    -0.0000 </r>
      <r>    18.5818     0.5129    72.0914     0.6075    -0.0000     0.0000    -0.0000 </r>
      <r>    18.6022     0.5158    66.4157     0.6134    -0.0000     0.0000    -0.0000 </r>
      <r>    18.6227     0.5187    61.3834     0.6193    -0.0000     0.0000    -0.0000 </r>
      <r>    18.6432     0.5216    56.9011     0.6253    -0.0000     0.0000    -0.0000 </r>
      <r>    18.6636     0.5246    52.8915     0.6314    -0.0000     0.0000    -0.0000 </r>
      <r>    18.6841     0.5277    49.2905     0.6375    -0.0000     0.0000    -0.0000 </r>
      <r>    18.7046     0.5309    46.0445     0.6438    -0.0000     0.0000    -0.0000 </r>
      <r>    18.7250     0.5341    43.1085     0.6502    -0.0000     0.0000    -0.0000 </r>
      <r>    18.7455     0.5374    40.4441     0.6566    -0.0000     0.0000    -0.0000 </r>
      <r>    18.7659     0.5408    38.0190     0.6632    -0.0000     0.0000    -0.0000 </r>
      <r>    18.7864     0.5442    35.8053     0.6698    -0.0000     0.0000    -0.0000 </r>
      <r>    18.8069     0.5477    33.7792     0.6766    -0.0000     0.0000    -0.0000 </r>
      <r>    18.8273     0.5513    31.9202     0.6834    -0.0000     0.0000    -0.0000 </r>
      <r>    18.8478     0.5549    30.2103     0.6904    -0.0000     0.0000    -0.0000 </r>
      <r>    18.8683     0.5587    28.6340     0.6974    -0.0000     0.0000    -0.0000 </r>
      <r>    18.8887     0.5625    27.1778     0.7046    -0.0000     0.0000    -0.0000 </r>
      <r>    18.9092     0.5663    25.8298     0.7119    -0.0000     0.0000    -0.0000 </r>
      <r>    18.9297     0.5703    24.5795     0.7193    -0.0000     0.0000    -0.0000 </r>
      <r>    18.9501     0.5743    23.4177     0.7268    -0.0000     0.0000    -0.0000 </r>
      <r>    18.9706     0.5784    22.3364     0.7345    -0.0000     0.0000    -0.0000 </r>
      <r>    18.9911     0.5826    21.3281     0.7422    -0.0000     0.0000    -0.0000 </r>
      <r>    19.0115     0.5869    20.3865     0.7501    -0.0000     0.0000    -0.0000 </r>
      <r>    19.0320     0.5912    19.5059     0.7581    -0.0000     0.0000    -0.0000 </r>
      <r>    19.0525     0.5956    18.6810     0.7662    -0.0000     0.0000    -0.0000 </r>
      <r>    19.0729     0.6001    17.9073     0.7745    -0.0000     0.0000    -0.0000 </r>
      <r>    19.0934     0.6047    17.1807     0.7829    -0.0000     0.0000    -0.0000 </r>
      <r>    19.1138     0.6094    16.4973     0.7914    -0.0000     0.0000    -0.0000 </r>
      <r>    19.1343     0.6142    15.8539     0.8001    -0.0000     0.0000    -0.0000 </r>
      <r>    19.1548     0.6191    15.2474     0.8089    -0.0000     0.0000    -0.0000 </r>
      <r>    19.1752     0.6240    14.6749     0.8179    -0.0000     0.0000    -0.0000 </r>
      <r>    19.1957     0.6291    14.1341     0.8270    -0.0000     0.0000    -0.0000 </r>
      <r>    19.2162     0.6342    13.6226     0.8363    -0.0000     0.0000    -0.0000 </r>
      <r>    19.2366     0.6394    13.1383     0.8457    -0.0000     0.0000    -0.0000 </r>
      <r>    19.2571     0.6448    12.6794     0.8553    -0.0000     0.0000    -0.0000 </r>
      <r>    19.2776     0.6502    12.2441     0.8650    -0.0000     0.0000    -0.0000 </r>
      <r>    19.2980     0.6558    11.8307     0.8749    -0.0000     0.0000    -0.0000 </r>
      <r>    19.3185     0.6614    11.4380     0.8850    -0.0000     0.0000    -0.0000 </r>
      <r>    19.3390     0.6671    11.0644     0.8953    -0.0000     0.0000    -0.0000 </r>
      <r>    19.3594     0.6730    10.7089     0.9057    -0.0000     0.0000    -0.0000 </r>
      <r>    19.3799     0.6790    10.3702     0.9164    -0.0000     0.0000    -0.0000 </r>
      <r>    19.4003     0.6850    10.0472     0.9272    -0.0000     0.0000    -0.0000 </r>
      <r>    19.4208     0.6912     9.7391     0.9382    -0.0000     0.0000    -0.0000 </r>
      <r>    19.4413     0.6975     9.4450     0.9494    -0.0000     0.0000    -0.0000 </r>
      <r>    19.4617     0.7039     9.1639     0.9608    -0.0000     0.0000    -0.0000 </r>
      <r>    19.4822     0.7105     8.8952     0.9724    -0.0000     0.0000    -0.0000 </r>
      <r>    19.5027     0.7171     8.6382     0.9842    -0.0000     0.0000    -0.0000 </r>
      <r>    19.5231     0.7239     8.3921     0.9963    -0.0000     0.0000    -0.0000 </r>
      <r>    19.5436     0.7308     8.1563     1.0086    -0.0000     0.0000    -0.0000 </r>
      <r>    19.5641     0.7379     7.9303     1.0211    -0.0000     0.0000    -0.0000 </r>
      <r>    19.5845     0.7451     7.7136     1.0338    -0.0000     0.0000    -0.0000 </r>
      <r>    19.6050     0.7524     7.5056     1.0467    -0.0000     0.0000    -0.0000 </r>
      <r>    19.6255     0.7598     7.3060     1.0600    -0.0000     0.0000    -0.0000 </r>
      <r>    19.6459     0.7674     7.1141     1.0734    -0.0000     0.0000    -0.0000 </r>
      <r>    19.6664     0.7752     6.9297     1.0871    -0.0000     0.0000    -0.0000 </r>
      <r>    19.6869     0.7831     6.7524     1.1011    -0.0000     0.0000    -0.0000 </r>
      <r>    19.7073     0.7911     6.5818     1.1154    -0.0000     0.0000    -0.0000 </r>
      <r>    19.7278     0.7993     6.4175     1.1299    -0.0000     0.0000    -0.0000 </r>
      <r>    19.7482     0.8076     6.2594     1.1447    -0.0000     0.0000    -0.0000 </r>
      <r>    19.7687     0.8161     6.1069     1.1599    -0.0000     0.0000    -0.0000 </r>
      <r>    19.7892     0.8248     5.9600     1.1753    -0.0000     0.0000    -0.0000 </r>
      <r>    19.8096     0.8337     5.8183     1.1910    -0.0000     0.0000    -0.0000 </r>
      <r>    19.8301     0.8427     5.6816     1.2071    -0.0000     0.0000    -0.0000 </r>
      <r>    19.8506     0.8519     5.5496     1.2234    -0.0000     0.0000    -0.0000 </r>
      <r>    19.8710     0.8612     5.4222     1.2401    -0.0000     0.0000    -0.0000 </r>
      <r>    19.8915     0.8708     5.2991     1.2572    -0.0000     0.0000    -0.0000 </r>
      <r>    19.9120     0.8805     5.1802     1.2746    -0.0000     0.0000    -0.0000 </r>
      <r>    19.9324     0.8905     5.0652     1.2924    -0.0000     0.0000    -0.0000 </r>
      <r>    19.9529     0.9006     4.9539     1.3105    -0.0000     0.0000    -0.0000 </r>
      <r>    19.9734     0.9109     4.8463     1.3290    -0.0000     0.0000    -0.0000 </r>
      <r>    19.9938     0.9215     4.7422     1.3480    -0.0000     0.0000    -0.0000 </r>
      <r>    20.0143     0.9322     4.6413     1.3673    -0.0000     0.0000    -0.0000 </r>
      <r>    20.0347     0.9432     4.5437     1.3870    -0.0000     0.0000    -0.0000 </r>
      <r>    20.0552     0.9544     4.4490     1.4072    -0.0000     0.0000    -0.0000 </r>
      <r>    20.0757     0.9658     4.3573     1.4278    -0.0000     0.0000    -0.0000 </r>
      <r>    20.0961     0.9775     4.2684     1.4489    -0.0000     0.0000    -0.0000 </r>
      <r>    20.1166     0.9894     4.1822     1.4705    -0.0000     0.0000    -0.0000 </r>
      <r>    20.1371     1.0015     4.0986     1.4925    -0.0000     0.0000    -0.0000 </r>
      <r>    20.1575     1.0139     4.0174     1.5151    -0.0000     0.0000    -0.0000 </r>
      <r>    20.1780     1.0266     3.9387     1.5381    -0.0000     0.0000    -0.0000 </r>
      <r>    20.1985     1.0395     3.8622     1.5617    -0.0000     0.0000    -0.0000 </r>
      <r>    20.2189     1.0528     3.7879     1.5858    -0.0000     0.0000    -0.0000 </r>
      <r>    20.2394     1.0662     3.7157     1.6105    -0.0000     0.0000    -0.0000 </r>
      <r>    20.2599     1.0800     3.6456     1.6358    -0.0000     0.0000    -0.0000 </r>
      <r>    20.2803     1.0941     3.5774     1.6616    -0.0000     0.0000    -0.0000 </r>
      <r>    20.3008     1.1085     3.5111     1.6881    -0.0000     0.0000    -0.0000 </r>
      <r>    20.3213     1.1232     3.4466     1.7153    -0.0000     0.0000    -0.0000 </r>
      <r>    20.3417     1.1382     3.3839     1.7431    -0.0000     0.0000    -0.0000 </r>
      <r>    20.3622     1.1535     3.3229     1.7715    -0.0000     0.0000    -0.0000 </r>
      <r>    20.3826     1.1692     3.2635     1.8007    -0.0000     0.0000    -0.0000 </r>
      <r>    20.4031     1.1852     3.2057     1.8306    -0.0000     0.0000    -0.0000 </r>
      <r>    20.4236     1.2016     3.1494     1.8612    -0.0000     0.0000    -0.0000 </r>
      <r>    20.4440     1.2184     3.0946     1.8927    -0.0000     0.0000    -0.0000 </r>
      <r>    20.4645     1.2356     3.0412     1.9249    -0.0000     0.0000    -0.0000 </r>
      <r>    20.4850     1.2531     2.9891     1.9580    -0.0000     0.0000    -0.0000 </r>
      <r>    20.5054     1.2711     2.9384     1.9919    -0.0000     0.0000    -0.0000 </r>
      <r>    20.5259     1.2894     2.8889     2.0267    -0.0000     0.0000    -0.0000 </r>
      <r>    20.5464     1.3082     2.8407     2.0624    -0.0000     0.0000    -0.0000 </r>
      <r>    20.5668     1.3275     2.7937     2.0991    -0.0000     0.0000    -0.0000 </r>
      <r>    20.5873     1.3472     2.7478     2.1368    -0.0000     0.0000    -0.0000 </r>
      <r>    20.6078     1.3673     2.7031     2.1755    -0.0000     0.0000    -0.0000 </r>
      <r>    20.6282     1.3880     2.6594     2.2152    -0.0000     0.0000    -0.0000 </r>
      <r>    20.6487     1.4091     2.6167     2.2561    -0.0000     0.0000    -0.0000 </r>
      <r>    20.6691     1.4308     2.5751     2.2981    -0.0000     0.0000    -0.0000 </r>
      <r>    20.6896     1.4530     2.5345     2.3413    -0.0000     0.0000    -0.0000 </r>
      <r>    20.7101     1.4757     2.4948     2.3857    -0.0000     0.0000    -0.0000 </r>
      <r>    20.7305     1.4990     2.4560     2.4314    -0.0000     0.0000    -0.0000 </r>
      <r>    20.7510     1.5230     2.4182     2.4784    -0.0000     0.0000    -0.0000 </r>
      <r>    20.7715     1.5475     2.3812     2.5268    -0.0000     0.0000    -0.0000 </r>
      <r>    20.7919     1.5726     2.3450     2.5766    -0.0000     0.0000    -0.0000 </r>
      <r>    20.8124     1.5984     2.3097     2.6279    -0.0000     0.0000    -0.0000 </r>
      <r>    20.8329     1.6248     2.2751     2.6808    -0.0000     0.0000    -0.0000 </r>
      <r>    20.8533     1.6520     2.2413     2.7353    -0.0000     0.0000    -0.0000 </r>
      <r>    20.8738     1.6798     2.2082     2.7914    -0.0000     0.0000    -0.0000 </r>
      <r>    20.8943     1.7084     2.1759     2.8493    -0.0000     0.0000    -0.0000 </r>
      <r>    20.9147     1.7378     2.1443     2.9090    -0.0000     0.0000    -0.0000 </r>
      <r>    20.9352     1.7680     2.1134     2.9707    -0.0000     0.0000    -0.0000 </r>
      <r>    20.9557     1.7989     2.0831     3.0343    -0.0000     0.0000    -0.0000 </r>
      <r>    20.9761     1.8308     2.0534     3.0999    -0.0000     0.0000    -0.0000 </r>
      <r>    20.9966     1.8635     2.0244     3.1677    -0.0000     0.0000    -0.0000 </r>
      <r>    21.0170     1.8971     1.9960     3.2378    -0.0000     0.0000    -0.0000 </r>
      <r>    21.0375     1.9317     1.9682     3.3102    -0.0000     0.0000    -0.0000 </r>
      <r>    21.0580     1.9673     1.9410     3.3851    -0.0000     0.0000    -0.0000 </r>
      <r>    21.0784     2.0039     1.9143     3.4626    -0.0000     0.0000    -0.0000 </r>
      <r>    21.0989     2.0415     1.8881     3.5427    -0.0000     0.0000    -0.0000 </r>
      <r>    21.1194     2.0803     1.8625     3.6257    -0.0000     0.0000    -0.0000 </r>
      <r>    21.1398     2.1202     1.8374     3.7116    -0.0000     0.0000    -0.0000 </r>
      <r>    21.1603     2.1613     1.8128     3.8006    -0.0000     0.0000    -0.0000 </r>
      <r>    21.1808     2.2036     1.7887     3.8929    -0.0000     0.0000    -0.0000 </r>
      <r>    21.2012     2.2473     1.7651     3.9885    -0.0000     0.0000    -0.0000 </r>
      <r>    21.2217     2.2922     1.7419     4.0878    -0.0000     0.0000    -0.0000 </r>
      <r>    21.2422     2.3386     1.7192     4.1908    -0.0000     0.0000    -0.0000 </r>
      <r>    21.2626     2.3864     1.6969     4.2977    -0.0000     0.0000    -0.0000 </r>
      <r>    21.2831     2.4358     1.6751     4.4087    -0.0000     0.0000    -0.0000 </r>
      <r>    21.3035     2.4867     1.6537     4.5242    -0.0000     0.0000    -0.0000 </r>
      <r>    21.3240     2.5393     1.6326     4.6442    -0.0000     0.0000    -0.0000 </r>
      <r>    21.3445     2.5935     1.6120     4.7691    -0.0000     0.0000    -0.0000 </r>
      <r>    21.3649     2.6496     1.5918     4.8991    -0.0000     0.0000    -0.0000 </r>
      <r>    21.3854     2.7076     1.5719     5.0344    -0.0000     0.0000    -0.0000 </r>
      <r>    21.4059     2.7675     1.5524     5.1755    -0.0000     0.0000    -0.0000 </r>
      <r>    21.4263     2.8295     1.5333     5.3226    -0.0000     0.0000    -0.0000 </r>
      <r>    21.4468     2.8936     1.5145     5.4760    -0.0000     0.0000    -0.0000 </r>
      <r>    21.4673     2.9599     1.4960     5.6362    -0.0000     0.0000    -0.0000 </r>
      <r>    21.4877     3.0286     1.4779     5.8035    -0.0000     0.0000    -0.0000 </r>
      <r>    21.5082     3.0997     1.4601     5.9784    -0.0000     0.0000    -0.0000 </r>
      <r>    21.5287     3.1735     1.4426     6.1614    -0.0000     0.0000    -0.0000 </r>
      <r>    21.5491     3.2499     1.4255     6.3528    -0.0000     0.0000    -0.0000 </r>
      <r>    21.5696     3.3291     1.4086     6.5533    -0.0000     0.0000    -0.0000 </r>
      <r>    21.5900     3.4114     1.3920     6.7635    -0.0000     0.0000    -0.0000 </r>
      <r>    21.6105     3.4967     1.3758     6.9839    -0.0000     0.0000    -0.0000 </r>
      <r>    21.6310     3.5854     1.3598     7.2153    -0.0000     0.0000    -0.0000 </r>
      <r>    21.6514     3.6775     1.3440     7.4584    -0.0000     0.0000    -0.0000 </r>
      <r>    21.6719     3.7732     1.3286     7.7140    -0.0000     0.0000    -0.0000 </r>
      <r>    21.6924     3.8728     1.3134     7.9830    -0.0000     0.0000    -0.0000 </r>
      <r>    21.7128     3.9764     1.2985     8.2663    -0.0000     0.0000    -0.0000 </r>
      <r>    21.7333     4.0843     1.2838     8.5650    -0.0000     0.0000    -0.0000 </r>
      <r>    21.7538     4.1966     1.2694     8.8801    -0.0000     0.0000    -0.0000 </r>
      <r>    21.7742     4.3137     1.2552     9.2130    -0.0000     0.0000    -0.0000 </r>
      <r>    21.7947     4.4358     1.2412     9.5650    -0.0000     0.0000    -0.0000 </r>
      <r>    21.8152     4.5633     1.2275     9.9375    -0.0000     0.0000    -0.0000 </r>
      <r>    21.8356     4.6963     1.2140    10.3322    -0.0000     0.0000    -0.0000 </r>
      <r>    21.8561     4.8353     1.2007    10.7509    -0.0000     0.0000    -0.0000 </r>
      <r>    21.8766     4.9806     1.1876    11.1956    -0.0000     0.0000    -0.0000 </r>
      <r>    21.8970     5.1326     1.1748    11.6685    -0.0000     0.0000    -0.0000 </r>
      <r>    21.9175     5.2918     1.1621    12.1720    -0.0000     0.0000    -0.0000 </r>
      <r>    21.9379     5.4585     1.1497    12.7088    -0.0000     0.0000    -0.0000 </r>
      <r>    21.9584     5.6332     1.1374    13.2819    -0.0000     0.0000    -0.0000 </r>
      <r>    21.9789     5.8165     1.1254    13.8946    -0.0000     0.0000    -0.0000 </r>
      <r>    21.9993     6.0090     1.1135    14.5508    -0.0000     0.0000    -0.0000 </r>
      <r>    22.0198     6.2113     1.1018    15.2545    -0.0000     0.0000    -0.0000 </r>
      <r>    22.0403     6.4240     1.0903    16.0106    -0.0000     0.0000    -0.0000 </r>
      <r>    22.0607     6.6479     1.0790    16.8243    -0.0000     0.0000    -0.0000 </r>
      <r>    22.0812     6.8837     1.0678    17.7016    -0.0000     0.0000    -0.0000 </r>
      <r>    22.1017     7.1324     1.0569    18.6493    -0.0000     0.0000    -0.0000 </r>
      <r>    22.1221     7.3949     1.0460    19.6752    -0.0000     0.0000    -0.0000 </r>
      <r>    22.1426     7.6722     1.0354    20.7881    -0.0000     0.0000    -0.0000 </r>
      <r>    22.1631     7.9654     1.0249    21.9980    -0.0000     0.0000    -0.0000 </r>
      <r>    22.1835     8.2759     1.0146    23.3167    -0.0000     0.0000    -0.0000 </r>
      <r>    22.2040     8.6049     1.0044    24.7576    -0.0000     0.0000    -0.0000 </r>
      <r>    22.2244     8.9540     0.9944    26.3361    -0.0000     0.0000    -0.0000 </r>
      <r>    22.2449     9.3249     0.9845    28.0704    -0.0000     0.0000    -0.0000 </r>
      <r>    22.2654     9.7194     0.9748    29.9816    -0.0000     0.0000    -0.0000 </r>
      <r>    22.2858    10.1395     0.9652    32.0947    -0.0000     0.0000    -0.0000 </r>
      <r>    22.3063    10.5875     0.9557    34.4389    -0.0000     0.0000    -0.0000 </r>
      <r>    22.3268    11.0660     0.9464    37.0493    -0.0000     0.0000    -0.0000 </r>
      <r>    22.3472    11.5777     0.9372    39.9675    -0.0000     0.0000    -0.0000 </r>
      <r>    22.3677    12.1258     0.9282    43.2440    -0.0000     0.0000    -0.0000 </r>
      <r>    22.3882    12.7139     0.9193    46.9396    -0.0000     0.0000    -0.0000 </r>
      <r>    22.4086    13.3459     0.9105    51.1289    -0.0000     0.0000    -0.0000 </r>
      <r>    22.4291    14.0262     0.9018    55.9035    -0.0000     0.0000    -0.0000 </r>
      <r>    22.4496    14.7600     0.8933    61.3775    -0.0000     0.0000    -0.0000 </r>
      <r>    22.4700    15.5531     0.8848    67.6939    -0.0000     0.0000    -0.0000 </r>
      <r>    22.4905    16.4118     0.8765    75.0342    -0.0000     0.0000    -0.0000 </r>
      <r>    22.5110    17.3438     0.8683    83.6310    -0.0000     0.0000    -0.0000 </r>
      <r>    22.5314    18.3575     0.8603    93.7871    -0.0000     0.0000    -0.0000 </r>
      <r>    22.5519    19.4627     0.8523   105.9013    -0.0000     0.0000    -0.0000 </r>
      <r>    22.5723    20.6709     0.8444   120.5077    -0.0000     0.0000    -0.0000 </r>
      <r>    22.5928    21.9952     0.8367   138.3345    -0.0000     0.0000    -0.0000 </r>
      <r>    22.6133    23.4510     0.8290   160.3937    -0.0000     0.0000    -0.0000 </r>
      <r>    22.6337    25.0562     0.8215   188.1241    -0.0000     0.0000    -0.0000 </r>
      <r>    22.6542    26.8319     0.8141   223.6232    -0.0000     0.0000    -0.0000 </r>
      <r>    22.6747    28.8031     0.8067   270.0390    -0.0000     0.0000    -0.0000 </r>
      <r>    22.6951    30.9997     0.7995   332.2560    -0.0000     0.0000    -0.0000 </r>
      <r>    22.7156    33.4571     0.7923   418.1494    -0.0000     0.0000    -0.0000 </r>
      <r>    22.7361    36.2183     0.7853   540.9906    -0.0000     0.0000    -0.0000 </r>
      <r>    22.7565    39.3354     0.7783   724.2986    -0.0000     0.0000    -0.0000 </r>
      <r>    22.7770    42.8720     0.7714  1012.0956    -0.0000     0.0000    -0.0000 </r>
      <r>    22.7975    46.9069     0.7647  1491.0395    -0.0000     0.0000    -0.0000 </r>
      <r>    22.8179    51.5377     0.7580  2333.6060    -0.0000     0.0000    -0.0000 </r>
      <r>    22.8384    56.8875     0.7514  3822.6853    -0.0000     0.0000    -0.0000 </r>
      <r>    22.8588    63.1126     0.7448  5885.8420    -0.0000     0.0000    -0.0000 </r>
      <r>    22.8793    70.4140     0.7384  6517.5749    -0.0000     0.0000    -0.0000 </r>
      <r>    22.8998    79.0533     0.7320  4712.6999    -0.0000     0.0000    -0.0000 </r>
      <r>    22.9202    89.3767     0.7258  2888.6504    -0.0000     0.0000    -0.0000 </r>
      <r>    22.9407   101.8489     0.7196  1800.5064    -0.0000     0.0000    -0.0000 </r>
      <r>    22.9612   117.1055     0.7135  1190.7018    -0.0000     0.0000    -0.0000 </r>
      <r>    22.9816   136.0330     0.7074   833.6782    -0.0000     0.0000    -0.0000 </r>
      <r>    23.0021   159.8972     0.7015   611.8516    -0.0000     0.0000    -0.0000 </r>
      <r>    23.0226   190.5521     0.6956   466.3148    -0.0000     0.0000    -0.0000 </r>
      <r>    23.0430   230.7954     0.6898   366.3312    -0.0000     0.0000    -0.0000 </r>
      <r>    23.0635   284.9952     0.6840   294.9624    -0.0000     0.0000     0.0000 </r>
      <r>    23.0840   360.2453     0.6783   242.3688    -0.0000     0.0000     0.0000 </r>
      <r>    23.1044   468.5997     0.6727   202.5603    -0.0000     0.0000     0.0000 </r>
      <r>    23.1249   631.6189     0.6672   171.7379    -0.0000     0.0000     0.0000 </r>
      <r>    23.1454   890.0436     0.6617   147.4056    -0.0000     0.0000     0.0000 </r>
      <r>    23.1658  1324.5990     0.6563   127.8720    -0.0000     0.0000     0.0000 </r>
      <r>    23.1863  2094.4470     0.6510   111.9601    -0.0000     0.0000     0.0000 </r>
      <r>    23.2067  3435.6384     0.6457    98.8309    -0.0000     0.0000     0.0000 </r>
      <r>    23.2272  5107.5388     0.6405    87.8741    -0.0000     0.0000     0.0000 </r>
      <r>    23.2477  5218.6309     0.6354    78.6373    -0.0000     0.0000     0.0000 </r>
      <r>    23.2681  3589.8504     0.6303    70.7798    -0.0000     0.0000     0.0000 </r>
      <r>    23.2886  2190.0341     0.6252    64.0407    -0.0000     0.0000     0.0000 </r>
      <r>    23.3091  1377.8449     0.6203    58.2181    -0.0000     0.0000     0.0000 </r>
      <r>    23.3295   920.7838     0.6154    53.1534    -0.0000     0.0000     0.0000 </r>
      <r>    23.3500   650.4531     0.6105    48.7209    -0.0000     0.0000     0.0000 </r>
      <r>    23.3705   480.8060     0.6057    44.8199    -0.0000     0.0000     0.0000 </r>
      <r>    23.3909   368.5444     0.6010    41.3687    -0.0000     0.0000     0.0000 </r>
      <r>    23.4114   290.8675     0.5963    38.3010    -0.0000     0.0000     0.0000 </r>
      <r>    23.4319   235.0910     0.5917    35.5620    -0.0000     0.0000     0.0000 </r>
      <r>    23.4523   193.7830     0.5871    33.1065    -0.0000     0.0000     0.0000 </r>
      <r>    23.4728   162.3852     0.5826    30.8968    -0.0000     0.0000     0.0000 </r>
      <r>    23.4932   137.9879     0.5781    28.9011    -0.0000     0.0000     0.0000 </r>
      <r>    23.5137   118.6683     0.5737    27.0928    -0.0000     0.0000     0.0000 </r>
      <r>    23.5342   103.1174     0.5693    25.4491    -0.0000     0.0000     0.0000 </r>
      <r>    23.5546    90.4199     0.5650    23.9507    -0.0000     0.0000     0.0000 </r>
      <r>    23.5751    79.9213     0.5607    22.5809    -0.0000     0.0000     0.0000 </r>
      <r>    23.5956    71.1438     0.5565    21.3255    -0.0000     0.0000     0.0000 </r>
      <r>    23.6160    63.7320     0.5523    20.1721    -0.0000     0.0000     0.0000 </r>
      <r>    23.6365    57.4175     0.5481    19.1099    -0.0000     0.0000     0.0000 </r>
      <r>    23.6570    51.9947     0.5441    18.1296    -0.0000     0.0000     0.0000 </r>
      <r>    23.6774    47.3035     0.5400    17.2231    -0.0000     0.0000     0.0000 </r>
      <r>    23.6979    43.2185     0.5360    16.3830    -0.0000     0.0000     0.0000 </r>
      <r>    23.7184    39.6398     0.5321    15.6031    -0.0000     0.0000     0.0000 </r>
      <r>    23.7388    36.4872     0.5281    14.8777    -0.0000     0.0000     0.0000 </r>
      <r>    23.7593    33.6957     0.5243    14.2020    -0.0000     0.0000     0.0000 </r>
      <r>    23.7798    31.2124     0.5204    13.5714    -0.0000     0.0000     0.0000 </r>
      <r>    23.8002    28.9935     0.5167    12.9821    -0.0000     0.0000     0.0000 </r>
      <r>    23.8207    27.0030     0.5129    12.4306    -0.0000     0.0000     0.0000 </r>
      <r>    23.8411    25.2105     0.5092    11.9136    -0.0000     0.0000     0.0000 </r>
      <r>    23.8616    23.5906     0.5055    11.4284    -0.0000     0.0000     0.0000 </r>
      <r>    23.8821    22.1219     0.5019    10.9724    -0.0000     0.0000     0.0000 </r>
      <r>    23.9025    20.7863     0.4983    10.5433    -0.0000     0.0000     0.0000 </r>
      <r>    23.9230    19.5680     0.4948    10.1391    -0.0000     0.0000     0.0000 </r>
      <r>    23.9435    18.4538     0.4912     9.7578    -0.0000     0.0000     0.0000 </r>
      <r>    23.9639    17.4321     0.4878     9.3979    -0.0000     0.0000     0.0000 </r>
      <r>    23.9844    16.4931     0.4843     9.0576    -0.0000     0.0000     0.0000 </r>
      <r>    24.0049    15.6279     0.4809     8.7357    -0.0000     0.0000     0.0000 </r>
      <r>    24.0253    14.8292     0.4775     8.4308    -0.0000     0.0000     0.0000 </r>
      <r>    24.0458    14.0902     0.4742     8.1417    -0.0000     0.0000     0.0000 </r>
      <r>    24.0663    13.4051     0.4709     7.8675    -0.0000     0.0000     0.0000 </r>
      <r>    24.0867    12.7689     0.4676     7.6070    -0.0000     0.0000     0.0000 </r>
      <r>    24.1072    12.1770     0.4644     7.3594    -0.0000     0.0000     0.0000 </r>
      <r>    24.1276    11.6254     0.4612     7.1239    -0.0000     0.0000     0.0000 </r>
      <r>    24.1481    11.1105     0.4580     6.8996    -0.0000     0.0000     0.0000 </r>
      <r>    24.1686    10.6291     0.4549     6.6860    -0.0000     0.0000     0.0000 </r>
      <r>    24.1890    10.1784     0.4518     6.4823    -0.0000     0.0000     0.0000 </r>
      <r>    24.2095     9.7558     0.4487     6.2879    -0.0000     0.0000     0.0000 </r>
      <r>    24.2300     9.3591     0.4457     6.1023    -0.0000     0.0000     0.0000 </r>
      <r>    24.2504     8.9861     0.4427     5.9250    -0.0000     0.0000     0.0000 </r>
      <r>    24.2709     8.6351     0.4397     5.7554    -0.0000     0.0000     0.0000 </r>
      <r>    24.2914     8.3043     0.4367     5.5932    -0.0000     0.0000     0.0000 </r>
      <r>    24.3118     7.9922     0.4338     5.4379    -0.0000     0.0000     0.0000 </r>
      <r>    24.3323     7.6974     0.4309     5.2891    -0.0000     0.0000     0.0000 </r>
      <r>    24.3528     7.4187     0.4280     5.1466    -0.0000     0.0000     0.0000 </r>
      <r>    24.3732     7.1550     0.4252     5.0099    -0.0000     0.0000     0.0000 </r>
      <r>    24.3937     6.9051     0.4224     4.8787    -0.0000     0.0000     0.0000 </r>
      <r>    24.4142     6.6681     0.4196     4.7528    -0.0000     0.0000     0.0000 </r>
      <r>    24.4346     6.4432     0.4168     4.6319    -0.0000     0.0000     0.0000 </r>
      <r>    24.4551     6.2295     0.4141     4.5157    -0.0000     0.0000     0.0000 </r>
      <r>    24.4755     6.0264     0.4114     4.4040    -0.0000     0.0000     0.0000 </r>
      <r>    24.4960     5.8330     0.4087     4.2965    -0.0000     0.0000     0.0000 </r>
      <r>    24.5165     5.6489     0.4061     4.1932    -0.0000     0.0000     0.0000 </r>
      <r>    24.5369     5.4734     0.4035     4.0936    -0.0000     0.0000     0.0000 </r>
      <r>    24.5574     5.3060     0.4009     3.9978    -0.0000     0.0000     0.0000 </r>
      <r>    24.5779     5.1463     0.3983     3.9054    -0.0000     0.0000     0.0000 </r>
      <r>    24.5983     4.9937     0.3957     3.8165    -0.0000     0.0000     0.0000 </r>
      <r>    24.6188     4.8478     0.3932     3.7306    -0.0000     0.0000     0.0000 </r>
      <r>    24.6393     4.7083     0.3907     3.6479    -0.0000     0.0000     0.0000 </r>
      <r>    24.6597     4.5747     0.3882     3.5680    -0.0000     0.0000     0.0000 </r>
      <r>    24.6802     4.4469     0.3857     3.4910    -0.0000     0.0000     0.0000 </r>
      <r>    24.7007     4.3243     0.3833     3.4166    -0.0000     0.0000     0.0000 </r>
      <r>    24.7211     4.2068     0.3809     3.3447    -0.0000     0.0000     0.0000 </r>
      <r>    24.7416     4.0941     0.3785     3.2753    -0.0000    -0.0000     0.0000 </r>
      <r>    24.7620     3.9859     0.3761     3.2082    -0.0000    -0.0000     0.0000 </r>
      <r>    24.7825     3.8820     0.3738     3.1433    -0.0000    -0.0000     0.0000 </r>
      <r>    24.8030     3.7821     0.3715     3.0806    -0.0000    -0.0000     0.0000 </r>
      <r>    24.8234     3.6861     0.3692     3.0200    -0.0000    -0.0000     0.0000 </r>
      <r>    24.8439     3.5937     0.3669     2.9614    -0.0000    -0.0000     0.0000 </r>
      <r>    24.8644     3.5049     0.3646     2.9046    -0.0000    -0.0000     0.0000 </r>
      <r>    24.8848     3.4193     0.3624     2.8497    -0.0000    -0.0000     0.0000 </r>
      <r>    24.9053     3.3369     0.3602     2.7966    -0.0000    -0.0000     0.0000 </r>
      <r>    24.9258     3.2574     0.3580     2.7451    -0.0000    -0.0000     0.0000 </r>
      <r>    24.9462     3.1808     0.3558     2.6953    -0.0000    -0.0000     0.0000 </r>
      <r>    24.9667     3.1070     0.3536     2.6470    -0.0000    -0.0000     0.0000 </r>
      <r>    24.9872     3.0357     0.3515     2.6003    -0.0000    -0.0000     0.0000 </r>
      <r>    25.0076     2.9669     0.3493     2.5551    -0.0000    -0.0000     0.0000 </r>
      <r>    25.0281     2.9005     0.3472     2.5112    -0.0000    -0.0000     0.0000 </r>
      <r>    25.0486     2.8363     0.3451     2.4688    -0.0000    -0.0000     0.0000 </r>
      <r>    25.0690     2.7742     0.3431     2.4276    -0.0000    -0.0000     0.0000 </r>
      <r>    25.0895     2.7143     0.3410     2.3878    -0.0000    -0.0000     0.0000 </r>
      <r>    25.1099     2.6563     0.3390     2.3491    -0.0000    -0.0000     0.0000 </r>
      <r>    25.1304     2.6002     0.3370     2.3117    -0.0000    -0.0000     0.0000 </r>
      <r>    25.1509     2.5459     0.3350     2.2755    -0.0000    -0.0000     0.0000 </r>
      <r>    25.1713     2.4933     0.3330     2.2404    -0.0000    -0.0000     0.0000 </r>
      <r>    25.1918     2.4424     0.3310     2.2063    -0.0000    -0.0000     0.0000 </r>
      <r>    25.2123     2.3931     0.3291     2.1734    -0.0000    -0.0000     0.0000 </r>
      <r>    25.2327     2.3453     0.3272     2.1415    -0.0000    -0.0000     0.0000 </r>
      <r>    25.2532     2.2990     0.3253     2.1106    -0.0000    -0.0000     0.0000 </r>
      <r>    25.2737     2.2541     0.3234     2.0807    -0.0000    -0.0000     0.0000 </r>
      <r>    25.2941     2.2105     0.3215     2.0517    -0.0000    -0.0000     0.0000 </r>
      <r>    25.3146     2.1683     0.3196     2.0237    -0.0000    -0.0000     0.0000 </r>
      <r>    25.3351     2.1273     0.3178     1.9967    -0.0000    -0.0000     0.0000 </r>
      <r>    25.3555     2.0875     0.3159     1.9705    -0.0000    -0.0000     0.0000 </r>
      <r>    25.3760     2.0488     0.3141     1.9452    -0.0000    -0.0000     0.0000 </r>
      <r>    25.3964     2.0113     0.3123     1.9207    -0.0000    -0.0000     0.0000 </r>
      <r>    25.4169     1.9749     0.3105     1.8972    -0.0000    -0.0000     0.0000 </r>
      <r>    25.4374     1.9395     0.3088     1.8744    -0.0000    -0.0000     0.0000 </r>
      <r>    25.4578     1.9051     0.3070     1.8525    -0.0000    -0.0000     0.0000 </r>
      <r>    25.4783     1.8716     0.3053     1.8314    -0.0000    -0.0000     0.0000 </r>
      <r>    25.4988     1.8391     0.3035     1.8111    -0.0000    -0.0000     0.0000 </r>
      <r>    25.5192     1.8075     0.3018     1.7916    -0.0000    -0.0000     0.0000 </r>
      <r>    25.5397     1.7767     0.3001     1.7729    -0.0000    -0.0000     0.0000 </r>
      <r>    25.5602     1.7468     0.2985     1.7550    -0.0000    -0.0000     0.0000 </r>
      <r>    25.5806     1.7177     0.2968     1.7379    -0.0000    -0.0000     0.0000 </r>
      <r>    25.6011     1.6894     0.2951     1.7216    -0.0000    -0.0000     0.0000 </r>
      <r>    25.6216     1.6618     0.2935     1.7060    -0.0000    -0.0000     0.0000 </r>
      <r>    25.6420     1.6350     0.2919     1.6912    -0.0000    -0.0000     0.0000 </r>
      <r>    25.6625     1.6089     0.2902     1.6772    -0.0000    -0.0000     0.0000 </r>
      <r>    25.6830     1.5835     0.2886     1.6640    -0.0000    -0.0000     0.0000 </r>
      <r>    25.7034     1.5587     0.2870     1.6516    -0.0000    -0.0000     0.0000 </r>
      <r>    25.7239     1.5346     0.2855     1.6399    -0.0000    -0.0000     0.0000 </r>
      <r>    25.7443     1.5111     0.2839     1.6292    -0.0000    -0.0000     0.0000 </r>
      <r>    25.7648     1.4882     0.2823     1.6192    -0.0000    -0.0000     0.0000 </r>
      <r>    25.7853     1.4659     0.2808     1.6101    -0.0000    -0.0000     0.0000 </r>
      <r>    25.8057     1.4442     0.2793     1.6018    -0.0000    -0.0000     0.0000 </r>
      <r>    25.8262     1.4230     0.2778     1.5944    -0.0000    -0.0000     0.0000 </r>
      <r>    25.8467     1.4024     0.2763     1.5880    -0.0000    -0.0000     0.0000 </r>
      <r>    25.8671     1.3822     0.2748     1.5824    -0.0000    -0.0000     0.0000 </r>
      <r>    25.8876     1.3626     0.2733     1.5779    -0.0000    -0.0000     0.0000 </r>
      <r>    25.9081     1.3435     0.2718     1.5743    -0.0000    -0.0000     0.0000 </r>
      <r>    25.9285     1.3249     0.2704     1.5718    -0.0000    -0.0000     0.0000 </r>
      <r>    25.9490     1.3068     0.2689     1.5704    -0.0000    -0.0000     0.0000 </r>
      <r>    25.9695     1.2891     0.2675     1.5701    -0.0000    -0.0000     0.0000 </r>
      <r>    25.9899     1.2718     0.2661     1.5710    -0.0000    -0.0000     0.0000 </r>
      <r>    26.0104     1.2550     0.2647     1.5732    -0.0000    -0.0000     0.0000 </r>
      <r>    26.0308     1.2386     0.2633     1.5766    -0.0000    -0.0000     0.0000 </r>
      <r>    26.0513     1.2227     0.2619     1.5815    -0.0000    -0.0000     0.0000 </r>
      <r>    26.0718     1.2071     0.2605     1.5879    -0.0000    -0.0000     0.0000 </r>
      <r>    26.0922     1.1919     0.2591     1.5959    -0.0000    -0.0000     0.0000 </r>
      <r>    26.1127     1.1772     0.2578     1.6056    -0.0000    -0.0000     0.0000 </r>
      <r>    26.1332     1.1628     0.2564     1.6171    -0.0000    -0.0000     0.0000 </r>
      <r>    26.1536     1.1487     0.2551     1.6306    -0.0000    -0.0000     0.0000 </r>
      <r>    26.1741     1.1351     0.2537     1.6462    -0.0000    -0.0000     0.0000 </r>
      <r>    26.1946     1.1218     0.2524     1.6641    -0.0000    -0.0000     0.0000 </r>
      <r>    26.2150     1.1089     0.2511     1.6845    -0.0000    -0.0000     0.0000 </r>
      <r>    26.2355     1.0963     0.2498     1.7077    -0.0000    -0.0000     0.0000 </r>
      <r>    26.2560     1.0840     0.2485     1.7338    -0.0000    -0.0000     0.0000 </r>
      <r>    26.2764     1.0721     0.2473     1.7631    -0.0000    -0.0000     0.0000 </r>
      <r>    26.2969     1.0606     0.2460     1.7961    -0.0000    -0.0000     0.0000 </r>
      <r>    26.3173     1.0493     0.2447     1.8330    -0.0000    -0.0000     0.0000 </r>
      <r>    26.3378     1.0384     0.2435     1.8744    -0.0000    -0.0000     0.0000 </r>
      <r>    26.3583     1.0278     0.2422     1.9207    -0.0000    -0.0000     0.0000 </r>
      <r>    26.3787     1.0176     0.2410     1.9724    -0.0000    -0.0000     0.0000 </r>
      <r>    26.3992     1.0076     0.2398     2.0304    -0.0000    -0.0000     0.0000 </r>
      <r>    26.4197     0.9980     0.2386     2.0952    -0.0000    -0.0000     0.0000 </r>
      <r>    26.4401     0.9887     0.2374     2.1680    -0.0000    -0.0000     0.0000 </r>
      <r>    26.4606     0.9797     0.2362     2.2497    -0.0000    -0.0000     0.0000 </r>
      <r>    26.4811     0.9710     0.2350     2.3416    -0.0000    -0.0000     0.0000 </r>
      <r>    26.5015     0.9626     0.2338     2.4452    -0.0000    -0.0000    -0.0000 </r>
      <r>    26.5220     0.9546     0.2327     2.5624    -0.0000    -0.0000    -0.0000 </r>
      <r>    26.5425     0.9468     0.2315     2.6953    -0.0000    -0.0000    -0.0000 </r>
      <r>    26.5629     0.9394     0.2303     2.8466    -0.0000    -0.0000    -0.0000 </r>
      <r>    26.5834     0.9323     0.2292     3.0196    -0.0000    -0.0000    -0.0000 </r>
      <r>    26.6039     0.9255     0.2281     3.2182    -0.0000    -0.0000    -0.0000 </r>
      <r>    26.6243     0.9191     0.2269     3.4474    -0.0000    -0.0000    -0.0000 </r>
      <r>    26.6448     0.9130     0.2258     3.7135    -0.0000    -0.0000    -0.0000 </r>
      <r>    26.6652     0.9072     0.2247     4.0244    -0.0000    -0.0000    -0.0000 </r>
      <r>    26.6857     0.9018     0.2236     4.3903    -0.0000    -0.0000    -0.0000 </r>
      <r>    26.7062     0.8968     0.2225     4.8245    -0.0000    -0.0000    -0.0000 </r>
      <r>    26.7266     0.8921     0.2214     5.3443    -0.0000    -0.0000    -0.0000 </r>
      <r>    26.7471     0.8878     0.2203     5.9734    -0.0000    -0.0000    -0.0000 </r>
      <r>    26.7676     0.8839     0.2193     6.7436    -0.0000    -0.0000    -0.0000 </r>
      <r>    26.7880     0.8804     0.2182     7.6995    -0.0000    -0.0000    -0.0000 </r>
      <r>    26.8085     0.8773     0.2172     8.9044    -0.0000    -0.0000    -0.0000 </r>
      <r>    26.8290     0.8746     0.2161    10.4510    -0.0000    -0.0000    -0.0000 </r>
      <r>    26.8494     0.8724     0.2151    12.4785    -0.0000    -0.0000    -0.0000 </r>
      <r>    26.8699     0.8707     0.2140    15.2031    -0.0000    -0.0000    -0.0000 </r>
      <r>    26.8904     0.8695     0.2130    18.9749    -0.0000    -0.0000    -0.0000 </r>
      <r>    26.9108     0.8688     0.2120    24.3849    -0.0000    -0.0000    -0.0000 </r>
      <r>    26.9313     0.8686     0.2110    32.4842    -0.0000    -0.0000    -0.0000 </r>
      <r>    26.9517     0.8690     0.2100    45.2468    -0.0000    -0.0000    -0.0000 </r>
      <r>    26.9722     0.8701     0.2090    66.5675    -0.0000    -0.0000    -0.0000 </r>
      <r>    26.9927     0.8718     0.2080   104.1778    -0.0000    -0.0000    -0.0000 </r>
      <r>    27.0131     0.8742     0.2070   170.3752    -0.0000    -0.0000    -0.0000 </r>
      <r>    27.0336     0.8774     0.2060   259.0802    -0.0000    -0.0000    -0.0000 </r>
      <r>    27.0541     0.8814     0.2050   279.0038    -0.0000    -0.0000    -0.0000 </r>
      <r>    27.0745     0.8863     0.2041   198.2298    -0.0000    -0.0000    -0.0000 </r>
      <r>    27.0950     0.8922     0.2031   121.4767    -0.0000    -0.0000    -0.0000 </r>
      <r>    27.1155     0.8990     0.2022    76.1815    -0.0000    -0.0000    -0.0000 </r>
      <r>    27.1359     0.9071     0.2012    50.7651    -0.0000    -0.0000    -0.0000 </r>
      <r>    27.1564     0.9163     0.2003    35.8299    -0.0000    -0.0000    -0.0000 </r>
      <r>    27.1769     0.9269     0.1994    26.5158    -0.0000    -0.0000    -0.0000 </r>
      <r>    27.1973     0.9390     0.1984    20.3846    -0.0000    -0.0000    -0.0000 </r>
      <r>    27.2178     0.9528     0.1975    16.1602    -0.0000    -0.0000    -0.0000 </r>
      <r>    27.2383     0.9683     0.1966    13.1370    -0.0000    -0.0000    -0.0000 </r>
      <r>    27.2587     0.9860     0.1957    10.9039    -0.0000    -0.0000    -0.0000 </r>
      <r>    27.2792     1.0059     0.1948     9.2099    -0.0000    -0.0000    -0.0000 </r>
      <r>    27.2996     1.0283     0.1939     7.8955    -0.0000    -0.0000    -0.0000 </r>
      <r>    27.3201     1.0537     0.1930     6.8557    -0.0000    -0.0000    -0.0000 </r>
      <r>    27.3406     1.0823     0.1921     6.0193    -0.0000    -0.0000    -0.0000 </r>
      <r>    27.3610     1.1146     0.1913     5.3364    -0.0000    -0.0000    -0.0000 </r>
      <r>    27.3815     1.1512     0.1904     4.7718    -0.0000    -0.0000    -0.0000 </r>
      <r>    27.4020     1.1926     0.1895     4.2995    -0.0000    -0.0000    -0.0000 </r>
      <r>    27.4224     1.2397     0.1887     3.9005    -0.0000    -0.0000    -0.0000 </r>
      <r>    27.4429     1.2933     0.1878     3.5602    -0.0000    -0.0000    -0.0000 </r>
      <r>    27.4634     1.3546     0.1870     3.2675    -0.0000    -0.0000    -0.0000 </r>
      <r>    27.4838     1.4249     0.1861     3.0140    -0.0000    -0.0000    -0.0000 </r>
      <r>    27.5043     1.5060     0.1853     2.7928    -0.0000    -0.0000    -0.0000 </r>
      <r>    27.5248     1.5998     0.1844     2.5987    -0.0000    -0.0000    -0.0000 </r>
      <r>    27.5452     1.7091     0.1836     2.4273    -0.0000    -0.0000    -0.0000 </r>
      <r>    27.5657     1.8371     0.1828     2.2752    -0.0000    -0.0000    -0.0000 </r>
      <r>    27.5861     1.9883     0.1820     2.1394    -0.0000    -0.0000    -0.0000 </r>
      <r>    27.6066     2.1681     0.1812     2.0178    -0.0000    -0.0000    -0.0000 </r>
      <r>    27.6271     2.3841     0.1804     1.9084    -0.0000    -0.0000    -0.0000 </r>
      <r>    27.6475     2.6462     0.1796     1.8095    -0.0000    -0.0000    -0.0000 </r>
      <r>    27.6680     2.9681     0.1788     1.7198    -0.0000    -0.0000    -0.0000 </r>
      <r>    27.6885     3.3690     0.1780     1.6382    -0.0000    -0.0000    -0.0000 </r>
      <r>    27.7089     3.8760     0.1772     1.5637    -0.0000    -0.0000    -0.0000 </r>
      <r>    27.7294     4.5294     0.1764     1.4954    -0.0000    -0.0000    -0.0000 </r>
      <r>    27.7499     5.3897     0.1756     1.4327    -0.0000    -0.0000    -0.0000 </r>
      <r>    27.7703     6.5516     0.1749     1.3750    -0.0000    -0.0000    -0.0000 </r>
      <r>    27.7908     8.1694     0.1741     1.3216    -0.0000    -0.0000    -0.0000 </r>
      <r>    27.8113    10.5061     0.1733     1.2722    -0.0000    -0.0000    -0.0000 </r>
      <r>    27.8317    14.0332     0.1726     1.2264    -0.0000    -0.0000    -0.0000 </r>
      <r>    27.8522    19.6447     0.1718     1.1838    -0.0000    -0.0000    -0.0000 </r>
      <r>    27.8727    29.1150     0.1711     1.1440    -0.0000    -0.0000    -0.0000 </r>
      <r>    27.8931    45.9277     0.1704     1.1069    -0.0000    -0.0000    -0.0000 </r>
      <r>    27.9136    75.0370     0.1696     1.0722    -0.0000    -0.0000    -0.0000 </r>
      <r>    27.9340   109.8675     0.1689     1.0396    -0.0000    -0.0000    -0.0000 </r>
      <r>    27.9545   109.3358     0.1682     1.0091    -0.0000    -0.0000    -0.0000 </r>
      <r>    27.9750    74.2936     0.1674     0.9803    -0.0000    -0.0000    -0.0000 </r>
      <r>    27.9954    45.4556     0.1667     0.9532    -0.0000    -0.0000    -0.0000 </r>
      <r>    28.0159    28.8367     0.1660     0.9276    -0.0000    -0.0000    -0.0000 </r>
      <r>    28.0364    19.4660     0.1653     0.9034    -0.0000    -0.0000    -0.0000 </r>
      <r>    28.0568    13.9038     0.1646     0.8805    -0.0000    -0.0000    -0.0000 </r>
      <r>    28.0773    10.4008     0.1639     0.8588    -0.0000    -0.0000    -0.0000 </r>
      <r>    28.0978     8.0754     0.1632     0.8382    -0.0000    -0.0000    -0.0000 </r>
      <r>    28.1182     6.4618     0.1625     0.8186    -0.0000    -0.0000    -0.0000 </r>
      <r>    28.1387     5.3000     0.1618     0.8000    -0.0000    -0.0000    -0.0000 </r>
      <r>    28.1592     4.4375     0.1611     0.7822    -0.0000    -0.0000    -0.0000 </r>
      <r>    28.1796     3.7803     0.1605     0.7653    -0.0000    -0.0000    -0.0000 </r>
      <r>    28.2001     3.2683     0.1598     0.7491    -0.0000    -0.0000    -0.0000 </r>
      <r>    28.2205     2.8620     0.1591     0.7337    -0.0000    -0.0000    -0.0000 </r>
      <r>    28.2410     2.5340     0.1584     0.7189    -0.0000    -0.0000    -0.0000 </r>
      <r>    28.2615     2.2655     0.1578     0.7048    -0.0000    -0.0000    -0.0000 </r>
      <r>    28.2819     2.0429     0.1571     0.6912    -0.0000    -0.0000    -0.0000 </r>
      <r>    28.3024     1.8562     0.1565     0.6782    -0.0000    -0.0000    -0.0000 </r>
      <r>    28.3229     1.6980     0.1558     0.6657    -0.0000    -0.0000    -0.0000 </r>
      <r>    28.3433     1.5629     0.1552     0.6537    -0.0000    -0.0000    -0.0000 </r>
      <r>    28.3638     1.4463     0.1545     0.6421    -0.0000    -0.0000    -0.0000 </r>
      <r>    28.3843     1.3452     0.1539     0.6310    -0.0000    -0.0000    -0.0000 </r>
      <r>    28.4047     1.2567     0.1533     0.6202    -0.0000    -0.0000    -0.0000 </r>
      <r>    28.4252     1.1788     0.1526     0.6099    -0.0000    -0.0000    -0.0000 </r>
      <r>    28.4457     1.1100     0.1520     0.5999    -0.0000    -0.0000    -0.0000 </r>
      <r>    28.4661     1.0487     0.1514     0.5903    -0.0000    -0.0000    -0.0000 </r>
      <r>    28.4866     0.9939     0.1508     0.5810    -0.0000    -0.0000    -0.0000 </r>
      <r>    28.5071     0.9447     0.1501     0.5720    -0.0000    -0.0000    -0.0000 </r>
      <r>    28.5275     0.9002     0.1495     0.5633    -0.0000    -0.0000    -0.0000 </r>
      <r>    28.5480     0.8600     0.1489     0.5549    -0.0000    -0.0000    -0.0000 </r>
      <r>    28.5684     0.8235     0.1483     0.5467    -0.0000    -0.0000    -0.0000 </r>
      <r>    28.5889     0.7901     0.1477     0.5388    -0.0000    -0.0000    -0.0000 </r>
      <r>    28.6094     0.7595     0.1471     0.5311    -0.0000    -0.0000    -0.0000 </r>
      <r>    28.6298     0.7315     0.1465     0.5237    -0.0000    -0.0000    -0.0000 </r>
      <r>    28.6503     0.7056     0.1459     0.5164    -0.0000    -0.0000    -0.0000 </r>
      <r>    28.6708     0.6818     0.1453     0.5094    -0.0000    -0.0000    -0.0000 </r>
      <r>    28.6912     0.6596     0.1448     0.5026    -0.0000    -0.0000    -0.0000 </r>
      <r>    28.7117     0.6391     0.1442     0.4960    -0.0000    -0.0000    -0.0000 </r>
      <r>    28.7322     0.6200     0.1436     0.4895    -0.0000    -0.0000    -0.0000 </r>
      <r>    28.7526     0.6022     0.1430     0.4832    -0.0000    -0.0000    -0.0000 </r>
      <r>    28.7731     0.5855     0.1425     0.4771    -0.0000    -0.0000    -0.0000 </r>
      <r>    28.7936     0.5699     0.1419     0.4712    -0.0000    -0.0000    -0.0000 </r>
      <r>    28.8140     0.5552     0.1413     0.4654    -0.0000    -0.0000    -0.0000 </r>
      <r>    28.8345     0.5414     0.1408     0.4597    -0.0000    -0.0000    -0.0000 </r>
      <r>    28.8549     0.5284     0.1402     0.4542    -0.0000    -0.0000    -0.0000 </r>
      <r>    28.8754     0.5161     0.1396     0.4488    -0.0000    -0.0000    -0.0000 </r>
      <r>    28.8959     0.5045     0.1391     0.4436    -0.0000    -0.0000    -0.0000 </r>
      <r>    28.9163     0.4936     0.1386     0.4384    -0.0000    -0.0000    -0.0000 </r>
      <r>    28.9368     0.4831     0.1380     0.4334    -0.0000    -0.0000    -0.0000 </r>
      <r>    28.9573     0.4732     0.1375     0.4285    -0.0000    -0.0000    -0.0000 </r>
      <r>    28.9777     0.4638     0.1369     0.4238    -0.0000    -0.0000    -0.0000 </r>
      <r>    28.9982     0.4549     0.1364     0.4191    -0.0000    -0.0000    -0.0000 </r>
      <r>    29.0187     0.4463     0.1359     0.4145    -0.0000    -0.0000    -0.0000 </r>
      <r>    29.0391     0.4381     0.1353     0.4100    -0.0000    -0.0000    -0.0000 </r>
      <r>    29.0596     0.4303     0.1348     0.4057    -0.0000    -0.0000    -0.0000 </r>
      <r>    29.0801     0.4228     0.1343     0.4014    -0.0000    -0.0000    -0.0000 </r>
      <r>    29.1005     0.4157     0.1338     0.3972    -0.0000    -0.0000    -0.0000 </r>
      <r>    29.1210     0.4088     0.1332     0.3931    -0.0000    -0.0000    -0.0000 </r>
      <r>    29.1415     0.4022     0.1327     0.3890    -0.0000    -0.0000    -0.0000 </r>
      <r>    29.1619     0.3959     0.1322     0.3851    -0.0000    -0.0000    -0.0000 </r>
      <r>    29.1824     0.3898     0.1317     0.3812    -0.0000    -0.0000    -0.0000 </r>
      <r>    29.2028     0.3839     0.1312     0.3774    -0.0000    -0.0000    -0.0000 </r>
      <r>    29.2233     0.3782     0.1307     0.3737    -0.0000    -0.0000    -0.0000 </r>
      <r>    29.2438     0.3728     0.1302     0.3701    -0.0000    -0.0000    -0.0000 </r>
      <r>    29.2642     0.3675     0.1297     0.3665    -0.0000    -0.0000    -0.0000 </r>
      <r>    29.2847     0.3624     0.1292     0.3630    -0.0000    -0.0000     0.0000 </r>
      <r>    29.3052     0.3575     0.1287     0.3595    -0.0000    -0.0000     0.0000 </r>
      <r>    29.3256     0.3527     0.1282     0.3562    -0.0000    -0.0000     0.0000 </r>
      <r>    29.3461     0.3481     0.1277     0.3528    -0.0000    -0.0000     0.0000 </r>
      <r>    29.3666     0.3436     0.1272     0.3496    -0.0000    -0.0000     0.0000 </r>
      <r>    29.3870     0.3392     0.1268     0.3464    -0.0000    -0.0000     0.0000 </r>
      <r>    29.4075     0.3350     0.1263     0.3432    -0.0000    -0.0000     0.0000 </r>
      <r>    29.4280     0.3309     0.1258     0.3401    -0.0000    -0.0000     0.0000 </r>
      <r>    29.4484     0.3270     0.1253     0.3371    -0.0000    -0.0000     0.0000 </r>
      <r>    29.4689     0.3231     0.1249     0.3341    -0.0000    -0.0000     0.0000 </r>
      <r>    29.4893     0.3193     0.1244     0.3311    -0.0000    -0.0000     0.0000 </r>
      <r>    29.5098     0.3157     0.1239     0.3282    -0.0000    -0.0000     0.0000 </r>
      <r>    29.5303     0.3121     0.1235     0.3254    -0.0000    -0.0000     0.0000 </r>
      <r>    29.5507     0.3086     0.1230     0.3226    -0.0000    -0.0000     0.0000 </r>
      <r>    29.5712     0.3053     0.1225     0.3198    -0.0000    -0.0000     0.0000 </r>
      <r>    29.5917     0.3020     0.1221     0.3171    -0.0000    -0.0000     0.0000 </r>
      <r>    29.6121     0.2987     0.1216     0.3144    -0.0000    -0.0000     0.0000 </r>
      <r>    29.6326     0.2956     0.1212     0.3118    -0.0000    -0.0000     0.0000 </r>
      <r>    29.6531     0.2925     0.1207     0.3092    -0.0000    -0.0000     0.0000 </r>
      <r>    29.6735     0.2895     0.1203     0.3067    -0.0000    -0.0000     0.0000 </r>
      <r>    29.6940     0.2866     0.1198     0.3042    -0.0000    -0.0000     0.0000 </r>
      <r>    29.7145     0.2837     0.1194     0.3017    -0.0000    -0.0000     0.0000 </r>
      <r>    29.7349     0.2809     0.1190     0.2992    -0.0000    -0.0000     0.0000 </r>
      <r>    29.7554     0.2782     0.1185     0.2968    -0.0000    -0.0000     0.0000 </r>
      <r>    29.7759     0.2755     0.1181     0.2945    -0.0000    -0.0000     0.0000 </r>
      <r>    29.7963     0.2729     0.1177     0.2921    -0.0000    -0.0000     0.0000 </r>
      <r>    29.8168     0.2703     0.1172     0.2898    -0.0000    -0.0000     0.0000 </r>
      <r>    29.8372     0.2678     0.1168     0.2876    -0.0000    -0.0000     0.0000 </r>
      <r>    29.8577     0.2653     0.1164     0.2853    -0.0000    -0.0000     0.0000 </r>
      <r>    29.8782     0.2629     0.1159     0.2831    -0.0000    -0.0000     0.0000 </r>
      <r>    29.8986     0.2605     0.1155     0.2810    -0.0000    -0.0000     0.0000 </r>
      <r>    29.9191     0.2582     0.1151     0.2788    -0.0000    -0.0000     0.0000 </r>
      <r>    29.9396     0.2559     0.1147     0.2767    -0.0000    -0.0000     0.0000 </r>
      <r>    29.9600     0.2537     0.1143     0.2746    -0.0000    -0.0000     0.0000 </r>
      <r>    29.9805     0.2515     0.1139     0.2726    -0.0000    -0.0000     0.0000 </r>
      <r>    30.0010     0.2493     0.1135     0.2705    -0.0000    -0.0000     0.0000 </r>
      <r>    30.0214     0.2472     0.1130     0.2685    -0.0000    -0.0000     0.0000 </r>
      <r>    30.0419     0.2451     0.1126     0.2665    -0.0000    -0.0000     0.0000 </r>
      <r>    30.0624     0.2430     0.1122     0.2646    -0.0000    -0.0000     0.0000 </r>
      <r>    30.0828     0.2410     0.1118     0.2627    -0.0000    -0.0000     0.0000 </r>
      <r>    30.1033     0.2390     0.1114     0.2608    -0.0000    -0.0000     0.0000 </r>
      <r>    30.1237     0.2371     0.1110     0.2589    -0.0000    -0.0000     0.0000 </r>
      <r>    30.1442     0.2352     0.1106     0.2570    -0.0000    -0.0000     0.0000 </r>
      <r>    30.1647     0.2333     0.1102     0.2552    -0.0000    -0.0000     0.0000 </r>
      <r>    30.1851     0.2314     0.1099     0.2534    -0.0000    -0.0000     0.0000 </r>
      <r>    30.2056     0.2296     0.1095     0.2516    -0.0000    -0.0000     0.0000 </r>
      <r>    30.2261     0.2278     0.1091     0.2498    -0.0000    -0.0000     0.0000 </r>
      <r>    30.2465     0.2260     0.1087     0.2481    -0.0000    -0.0000     0.0000 </r>
      <r>    30.2670     0.2243     0.1083     0.2464    -0.0000    -0.0000     0.0000 </r>
      <r>    30.2875     0.2226     0.1079     0.2446    -0.0000    -0.0000     0.0000 </r>
      <r>    30.3079     0.2209     0.1075     0.2430    -0.0000    -0.0000     0.0000 </r>
      <r>    30.3284     0.2192     0.1072     0.2413    -0.0000    -0.0000     0.0000 </r>
      <r>    30.3489     0.2176     0.1068     0.2397    -0.0000    -0.0000     0.0000 </r>
      <r>    30.3693     0.2159     0.1064     0.2380    -0.0000    -0.0000     0.0000 </r>
      <r>    30.3898     0.2144     0.1060     0.2364    -0.0000    -0.0000     0.0000 </r>
      <r>    30.4103     0.2128     0.1057     0.2348    -0.0000    -0.0000     0.0000 </r>
      <r>    30.4307     0.2112     0.1053     0.2333    -0.0000    -0.0000     0.0000 </r>
      <r>    30.4512     0.2097     0.1049     0.2317    -0.0000    -0.0000     0.0000 </r>
      <r>    30.4716     0.2082     0.1046     0.2302    -0.0000    -0.0000     0.0000 </r>
      <r>    30.4921     0.2067     0.1042     0.2287    -0.0000    -0.0000     0.0000 </r>
      <r>    30.5126     0.2052     0.1039     0.2272    -0.0000    -0.0000     0.0000 </r>
      <r>    30.5330     0.2038     0.1035     0.2257    -0.0000    -0.0000     0.0000 </r>
      <r>    30.5535     0.2024     0.1031     0.2242    -0.0000    -0.0000     0.0000 </r>
      <r>    30.5740     0.2009     0.1028     0.2228    -0.0000    -0.0000     0.0000 </r>
      <r>    30.5944     0.1995     0.1024     0.2213    -0.0000    -0.0000     0.0000 </r>
      <r>    30.6149     0.1982     0.1021     0.2199    -0.0000    -0.0000     0.0000 </r>
      <r>    30.6354     0.1968     0.1017     0.2185    -0.0000    -0.0000     0.0000 </r>
      <r>    30.6558     0.1955     0.1014     0.2171    -0.0000    -0.0000     0.0000 </r>
      <r>    30.6763     0.1941     0.1010     0.2157    -0.0000    -0.0000     0.0000 </r>
      <r>    30.6968     0.1928     0.1007     0.2144    -0.0000    -0.0000     0.0000 </r>
      <r>    30.7172     0.1915     0.1003     0.2130    -0.0000    -0.0000     0.0000 </r>
      <r>    30.7377     0.1903     0.1000     0.2117    -0.0000    -0.0000     0.0000 </r>
      <r>    30.7581     0.1890     0.0997     0.2104    -0.0000    -0.0000     0.0000 </r>
      <r>    30.7786     0.1878     0.0993     0.2091    -0.0000    -0.0000     0.0000 </r>
      <r>    30.7991     0.1865     0.0990     0.2078    -0.0000    -0.0000     0.0000 </r>
      <r>    30.8195     0.1853     0.0986     0.2065    -0.0000    -0.0000     0.0000 </r>
      <r>    30.8400     0.1841     0.0983     0.2052    -0.0000    -0.0000     0.0000 </r>
      <r>    30.8605     0.1829     0.0980     0.2040    -0.0000    -0.0000     0.0000 </r>
      <r>    30.8809     0.1818     0.0977     0.2027    -0.0000    -0.0000     0.0000 </r>
      <r>    30.9014     0.1806     0.0973     0.2015    -0.0000    -0.0000     0.0000 </r>
      <r>    30.9219     0.1794     0.0970     0.2003    -0.0000    -0.0000     0.0000 </r>
      <r>    30.9423     0.1783     0.0967     0.1991    -0.0000    -0.0000     0.0000 </r>
      <r>    30.9628     0.1772     0.0963     0.1979    -0.0000    -0.0000     0.0000 </r>
      <r>    30.9833     0.1761     0.0960     0.1967    -0.0000    -0.0000     0.0000 </r>
      <r>    31.0037     0.1750     0.0957     0.1956    -0.0000    -0.0000     0.0000 </r>
      <r>    31.0242     0.1739     0.0954     0.1944    -0.0000    -0.0000     0.0000 </r>
      <r>    31.0446     0.1728     0.0951     0.1933    -0.0000    -0.0000     0.0000 </r>
      <r>    31.0651     0.1718     0.0947     0.1921    -0.0000    -0.0000     0.0000 </r>
      <r>    31.0856     0.1707     0.0944     0.1910    -0.0000    -0.0000     0.0000 </r>
      <r>    31.1060     0.1697     0.0941     0.1899    -0.0000    -0.0000     0.0000 </r>
      <r>    31.1265     0.1686     0.0938     0.1888    -0.0000    -0.0000     0.0000 </r>
      <r>    31.1470     0.1676     0.0935     0.1877    -0.0000    -0.0000     0.0000 </r>
      <r>    31.1674     0.1666     0.0932     0.1866    -0.0000    -0.0000     0.0000 </r>
      <r>    31.1879     0.1656     0.0929     0.1855    -0.0000    -0.0000     0.0000 </r>
      <r>    31.2084     0.1646     0.0926     0.1845    -0.0000    -0.0000     0.0000 </r>
      <r>    31.2288     0.1636     0.0923     0.1834    -0.0000    -0.0000     0.0000 </r>
      <r>    31.2493     0.1627     0.0920     0.1824    -0.0000    -0.0000     0.0000 </r>
      <r>    31.2698     0.1617     0.0917     0.1813    -0.0000    -0.0000     0.0000 </r>
      <r>    31.2902     0.1608     0.0914     0.1803    -0.0000    -0.0000     0.0000 </r>
      <r>    31.3107     0.1598     0.0911     0.1793    -0.0000    -0.0000     0.0000 </r>
      <r>    31.3312     0.1589     0.0908     0.1783    -0.0000    -0.0000     0.0000 </r>
      <r>    31.3516     0.1580     0.0905     0.1773    -0.0000    -0.0000     0.0000 </r>
      <r>    31.3721     0.1571     0.0902     0.1763    -0.0000    -0.0000     0.0000 </r>
      <r>    31.3925     0.1562     0.0899     0.1753    -0.0000    -0.0000     0.0000 </r>
      <r>    31.4130     0.1553     0.0896     0.1744    -0.0000    -0.0000     0.0000 </r>
      <r>    31.4335     0.1544     0.0893     0.1734    -0.0000    -0.0000     0.0000 </r>
      <r>    31.4539     0.1535     0.0890     0.1724    -0.0000    -0.0000     0.0000 </r>
      <r>    31.4744     0.1526     0.0887     0.1715    -0.0000    -0.0000     0.0000 </r>
      <r>    31.4949     0.1518     0.0884     0.1706    -0.0000    -0.0000     0.0000 </r>
      <r>    31.5153     0.1509     0.0882     0.1696    -0.0000    -0.0000     0.0000 </r>
      <r>    31.5358     0.1501     0.0879     0.1687    -0.0000    -0.0000     0.0000 </r>
      <r>    31.5563     0.1492     0.0876     0.1678    -0.0000    -0.0000     0.0000 </r>
      <r>    31.5767     0.1484     0.0873     0.1669    -0.0000    -0.0000     0.0000 </r>
      <r>    31.5972     0.1476     0.0870     0.1660    -0.0000    -0.0000     0.0000 </r>
      <r>    31.6177     0.1468     0.0868     0.1651    -0.0000    -0.0000     0.0000 </r>
      <r>    31.6381     0.1460     0.0865     0.1642    -0.0000    -0.0000     0.0000 </r>
      <r>    31.6586     0.1452     0.0862     0.1634    -0.0000    -0.0000     0.0000 </r>
      <r>    31.6790     0.1444     0.0859     0.1625    -0.0000    -0.0000     0.0000 </r>
      <r>    31.6995     0.1436     0.0857     0.1616    -0.0000    -0.0000     0.0000 </r>
      <r>    31.7200     0.1428     0.0854     0.1608    -0.0000    -0.0000     0.0000 </r>
      <r>    31.7404     0.1421     0.0851     0.1599    -0.0000    -0.0000     0.0000 </r>
      <r>    31.7609     0.1413     0.0848     0.1591    -0.0000    -0.0000     0.0000 </r>
      <r>    31.7814     0.1405     0.0846     0.1583    -0.0000    -0.0000     0.0000 </r>
      <r>    31.8018     0.1398     0.0843     0.1574    -0.0000    -0.0000     0.0000 </r>
      <r>    31.8223     0.1390     0.0840     0.1566    -0.0000    -0.0000     0.0000 </r>
      <r>    31.8428     0.1383     0.0838     0.1558    -0.0000    -0.0000     0.0000 </r>
      <r>    31.8632     0.1376     0.0835     0.1550    -0.0000    -0.0000     0.0000 </r>
      <r>    31.8837     0.1369     0.0832     0.1542    -0.0000    -0.0000     0.0000 </r>
      <r>    31.9042     0.1361     0.0830     0.1534    -0.0000    -0.0000     0.0000 </r>
      <r>    31.9246     0.1354     0.0827     0.1526    -0.0000    -0.0000     0.0000 </r>
      <r>    31.9451     0.1347     0.0825     0.1519    -0.0000    -0.0000     0.0000 </r>
      <r>    31.9656     0.1340     0.0822     0.1511    -0.0000    -0.0000     0.0000 </r>
      <r>    31.9860     0.1333     0.0820     0.1503    -0.0000    -0.0000     0.0000 </r>
      <r>    32.0065     0.1326     0.0817     0.1496    -0.0000    -0.0000     0.0000 </r>
      <r>    32.0269     0.1319     0.0814     0.1488    -0.0000    -0.0000     0.0000 </r>
      <r>    32.0474     0.1313     0.0812     0.1481    -0.0000    -0.0000     0.0000 </r>
      <r>    32.0679     0.1306     0.0809     0.1473    -0.0000    -0.0000     0.0000 </r>
      <r>    32.0883     0.1299     0.0807     0.1466    -0.0000    -0.0000     0.0000 </r>
      <r>    32.1088     0.1293     0.0804     0.1458    -0.0000    -0.0000     0.0000 </r>
      <r>    32.1293     0.1286     0.0802     0.1451    -0.0000    -0.0000     0.0000 </r>
      <r>    32.1497     0.1280     0.0799     0.1444    -0.0000    -0.0000     0.0000 </r>
      <r>    32.1702     0.1273     0.0797     0.1437    -0.0000    -0.0000     0.0000 </r>
      <r>    32.1907     0.1267     0.0794     0.1430    -0.0000    -0.0000     0.0000 </r>
      <r>    32.2111     0.1260     0.0792     0.1423    -0.0000    -0.0000     0.0000 </r>
      <r>    32.2316     0.1254     0.0790     0.1416    -0.0000    -0.0000     0.0000 </r>
      <r>    32.2521     0.1248     0.0787     0.1409    -0.0000    -0.0000     0.0000 </r>
      <r>    32.2725     0.1242     0.0785     0.1402    -0.0000    -0.0000     0.0000 </r>
      <r>    32.2930     0.1236     0.0782     0.1395    -0.0000    -0.0000     0.0000 </r>
      <r>    32.3134     0.1230     0.0780     0.1388    -0.0000    -0.0000     0.0000 </r>
      <r>    32.3339     0.1223     0.0778     0.1382    -0.0000    -0.0000     0.0000 </r>
      <r>    32.3544     0.1217     0.0775     0.1375    -0.0000    -0.0000     0.0000 </r>
      <r>    32.3748     0.1212     0.0773     0.1368    -0.0000    -0.0000     0.0000 </r>
      <r>    32.3953     0.1206     0.0771     0.1362    -0.0000    -0.0000     0.0000 </r>
      <r>    32.4158     0.1200     0.0768     0.1355    -0.0000    -0.0000     0.0000 </r>
      <r>    32.4362     0.1194     0.0766     0.1349    -0.0000    -0.0000     0.0000 </r>
      <r>    32.4567     0.1188     0.0764     0.1342    -0.0000    -0.0000     0.0000 </r>
      <r>    32.4772     0.1182     0.0761     0.1336    -0.0000    -0.0000     0.0000 </r>
      <r>    32.4976     0.1177     0.0759     0.1330    -0.0000    -0.0000     0.0000 </r>
      <r>    32.5181     0.1171     0.0757     0.1323    -0.0000    -0.0000     0.0000 </r>
      <r>    32.5386     0.1166     0.0754     0.1317    -0.0000    -0.0000     0.0000 </r>
      <r>    32.5590     0.1160     0.0752     0.1311    -0.0000    -0.0000     0.0000 </r>
      <r>    32.5795     0.1154     0.0750     0.1305    -0.0000    -0.0000     0.0000 </r>
      <r>    32.6000     0.1149     0.0748     0.1299    -0.0000    -0.0000     0.0000 </r>
      <r>    32.6204     0.1144     0.0745     0.1293    -0.0000    -0.0000     0.0000 </r>
      <r>    32.6409     0.1138     0.0743     0.1287    -0.0000    -0.0000     0.0000 </r>
      <r>    32.6613     0.1133     0.0741     0.1281    -0.0000    -0.0000     0.0000 </r>
      <r>    32.6818     0.1127     0.0739     0.1275    -0.0000    -0.0000     0.0000 </r>
      <r>    32.7023     0.1122     0.0736     0.1269    -0.0000    -0.0000     0.0000 </r>
      <r>    32.7227     0.1117     0.0734     0.1263    -0.0000    -0.0000     0.0000 </r>
      <r>    32.7432     0.1112     0.0732     0.1257    -0.0000    -0.0000     0.0000 </r>
      <r>    32.7637     0.1107     0.0730     0.1251    -0.0000    -0.0000     0.0000 </r>
      <r>    32.7841     0.1101     0.0728     0.1246    -0.0000    -0.0000     0.0000 </r>
      <r>    32.8046     0.1096     0.0726     0.1240    -0.0000    -0.0000     0.0000 </r>
      <r>    32.8251     0.1091     0.0723     0.1234    -0.0000    -0.0000     0.0000 </r>
      <r>    32.8455     0.1086     0.0721     0.1229    -0.0000    -0.0000     0.0000 </r>
      <r>    32.8660     0.1081     0.0719     0.1223    -0.0000    -0.0000     0.0000 </r>
      <r>    32.8865     0.1076     0.0717     0.1218    -0.0000    -0.0000     0.0000 </r>
      <r>    32.9069     0.1072     0.0715     0.1212    -0.0000    -0.0000     0.0000 </r>
      <r>    32.9274     0.1067     0.0713     0.1207    -0.0000    -0.0000     0.0000 </r>
      <r>    32.9478     0.1062     0.0711     0.1201    -0.0000    -0.0000     0.0000 </r>
      <r>    32.9683     0.1057     0.0709     0.1196    -0.0000    -0.0000     0.0000 </r>
      <r>    32.9888     0.1052     0.0707     0.1191    -0.0000    -0.0000     0.0000 </r>
      <r>    33.0092     0.1048     0.0705     0.1185    -0.0000    -0.0000     0.0000 </r>
      <r>    33.0297     0.1043     0.0703     0.1180    -0.0000    -0.0000     0.0000 </r>
      <r>    33.0502     0.1038     0.0700     0.1175    -0.0000    -0.0000     0.0000 </r>
      <r>    33.0706     0.1034     0.0698     0.1170    -0.0000    -0.0000     0.0000 </r>
      <r>    33.0911     0.1029     0.0696     0.1165    -0.0000    -0.0000     0.0000 </r>
      <r>    33.1116     0.1024     0.0694     0.1159    -0.0000    -0.0000     0.0000 </r>
      <r>    33.1320     0.1020     0.0692     0.1154    -0.0000    -0.0000     0.0000 </r>
      <r>    33.1525     0.1015     0.0690     0.1149    -0.0000    -0.0000     0.0000 </r>
      <r>    33.1730     0.1011     0.0688     0.1144    -0.0000    -0.0000     0.0000 </r>
      <r>    33.1934     0.1006     0.0686     0.1139    -0.0000    -0.0000     0.0000 </r>
      <r>    33.2139     0.1002     0.0684     0.1134    -0.0000    -0.0000     0.0000 </r>
      <r>    33.2344     0.0998     0.0682     0.1129    -0.0000    -0.0000     0.0000 </r>
      <r>    33.2548     0.0993     0.0680     0.1124    -0.0000    -0.0000     0.0000 </r>
      <r>    33.2753     0.0989     0.0678     0.1120    -0.0000    -0.0000     0.0000 </r>
      <r>    33.2957     0.0985     0.0677     0.1115    -0.0000    -0.0000     0.0000 </r>
      <r>    33.3162     0.0980     0.0675     0.1110    -0.0000    -0.0000     0.0000 </r>
      <r>    33.3367     0.0976     0.0673     0.1105    -0.0000    -0.0000     0.0000 </r>
      <r>    33.3571     0.0972     0.0671     0.1101    -0.0000    -0.0000     0.0000 </r>
      <r>    33.3776     0.0968     0.0669     0.1096    -0.0000    -0.0000     0.0000 </r>
      <r>    33.3981     0.0963     0.0667     0.1091    -0.0000    -0.0000     0.0000 </r>
      <r>    33.4185     0.0959     0.0665     0.1086    -0.0000    -0.0000     0.0000 </r>
      <r>    33.4390     0.0955     0.0663     0.1082    -0.0000    -0.0000     0.0000 </r>
      <r>    33.4595     0.0951     0.0661     0.1077    -0.0000    -0.0000     0.0000 </r>
      <r>    33.4799     0.0947     0.0659     0.1073    -0.0000    -0.0000     0.0000 </r>
      <r>    33.5004     0.0943     0.0657     0.1068    -0.0000    -0.0000     0.0000 </r>
      <r>    33.5209     0.0939     0.0656     0.1064    -0.0000    -0.0000     0.0000 </r>
      <r>    33.5413     0.0935     0.0654     0.1059    -0.0000    -0.0000     0.0000 </r>
      <r>    33.5618     0.0931     0.0652     0.1055    -0.0000    -0.0000     0.0000 </r>
      <r>    33.5822     0.0927     0.0650     0.1050    -0.0000    -0.0000     0.0000 </r>
      <r>    33.6027     0.0923     0.0648     0.1046    -0.0000    -0.0000     0.0000 </r>
      <r>    33.6232     0.0919     0.0646     0.1042    -0.0000    -0.0000     0.0000 </r>
      <r>    33.6436     0.0916     0.0645     0.1037    -0.0000    -0.0000     0.0000 </r>
      <r>    33.6641     0.0912     0.0643     0.1033    -0.0000    -0.0000     0.0000 </r>
      <r>    33.6846     0.0908     0.0641     0.1029    -0.0000    -0.0000     0.0000 </r>
      <r>    33.7050     0.0904     0.0639     0.1025    -0.0000    -0.0000     0.0000 </r>
      <r>    33.7255     0.0900     0.0637     0.1020    -0.0000    -0.0000     0.0000 </r>
      <r>    33.7460     0.0897     0.0636     0.1016    -0.0000    -0.0000     0.0000 </r>
      <r>    33.7664     0.0893     0.0634     0.1012    -0.0000    -0.0000     0.0000 </r>
      <r>    33.7869     0.0889     0.0632     0.1008    -0.0000    -0.0000     0.0000 </r>
      <r>    33.8074     0.0886     0.0630     0.1004    -0.0000    -0.0000     0.0000 </r>
      <r>    33.8278     0.0882     0.0629     0.1000    -0.0000    -0.0000     0.0000 </r>
      <r>    33.8483     0.0878     0.0627     0.0996    -0.0000    -0.0000     0.0000 </r>
      <r>    33.8688     0.0875     0.0625     0.0992    -0.0000    -0.0000     0.0000 </r>
      <r>    33.8892     0.0871     0.0623     0.0987    -0.0000    -0.0000     0.0000 </r>
      <r>    33.9097     0.0868     0.0622     0.0984    -0.0000    -0.0000     0.0000 </r>
      <r>    33.9301     0.0864     0.0620     0.0980    -0.0000    -0.0000     0.0000 </r>
      <r>    33.9506     0.0861     0.0618     0.0976    -0.0000    -0.0000     0.0000 </r>
      <r>    33.9711     0.0857     0.0616     0.0972    -0.0000    -0.0000     0.0000 </r>
      <r>    33.9915     0.0854     0.0615     0.0968    -0.0000    -0.0000     0.0000 </r>
      <r>    34.0120     0.0850     0.0613     0.0964    -0.0000    -0.0000     0.0000 </r>
      <r>    34.0325     0.0847     0.0611     0.0960    -0.0000    -0.0000     0.0000 </r>
      <r>    34.0529     0.0844     0.0610     0.0956    -0.0000    -0.0000     0.0000 </r>
      <r>    34.0734     0.0840     0.0608     0.0952    -0.0000    -0.0000     0.0000 </r>
      <r>    34.0939     0.0837     0.0606     0.0949    -0.0000    -0.0000     0.0000 </r>
      <r>    34.1143     0.0834     0.0605     0.0945    -0.0000    -0.0000     0.0000 </r>
      <r>    34.1348     0.0830     0.0603     0.0941    -0.0000    -0.0000     0.0000 </r>
      <r>    34.1553     0.0827     0.0601     0.0937    -0.0000    -0.0000     0.0000 </r>
      <r>    34.1757     0.0824     0.0600     0.0934    -0.0000    -0.0000     0.0000 </r>
      <r>    34.1962     0.0820     0.0598     0.0930    -0.0000    -0.0000     0.0000 </r>
      <r>    34.2166     0.0817     0.0597     0.0926    -0.0000    -0.0000     0.0000 </r>
      <r>    34.2371     0.0814     0.0595     0.0923    -0.0000    -0.0000     0.0000 </r>
      <r>    34.2576     0.0811     0.0593     0.0919    -0.0000    -0.0000     0.0000 </r>
      <r>    34.2780     0.0808     0.0592     0.0916    -0.0000    -0.0000     0.0000 </r>
      <r>    34.2985     0.0804     0.0590     0.0912    -0.0000    -0.0000     0.0000 </r>
      <r>    34.3190     0.0801     0.0588     0.0909    -0.0000    -0.0000     0.0000 </r>
      <r>    34.3394     0.0798     0.0587     0.0905    -0.0000    -0.0000     0.0000 </r>
      <r>    34.3599     0.0795     0.0585     0.0902    -0.0000    -0.0000     0.0000 </r>
      <r>    34.3804     0.0792     0.0584     0.0898    -0.0000    -0.0000     0.0000 </r>
      <r>    34.4008     0.0789     0.0582     0.0895    -0.0000    -0.0000     0.0000 </r>
      <r>    34.4213     0.0786     0.0581     0.0891    -0.0000    -0.0000     0.0000 </r>
      <r>    34.4418     0.0783     0.0579     0.0888    -0.0000    -0.0000     0.0000 </r>
      <r>    34.4622     0.0780     0.0577     0.0884    -0.0000    -0.0000     0.0000 </r>
      <r>    34.4827     0.0777     0.0576     0.0881    -0.0000    -0.0000     0.0000 </r>
      <r>    34.5032     0.0774     0.0574     0.0878    -0.0000    -0.0000     0.0000 </r>
      <r>    34.5236     0.0771     0.0573     0.0874    -0.0000    -0.0000     0.0000 </r>
      <r>    34.5441     0.0768     0.0571     0.0871    -0.0000    -0.0000     0.0000 </r>
      <r>    34.5645     0.0765     0.0570     0.0868    -0.0000    -0.0000     0.0000 </r>
      <r>    34.5850     0.0762     0.0568     0.0864    -0.0000    -0.0000     0.0000 </r>
      <r>    34.6055     0.0759     0.0567     0.0861    -0.0000    -0.0000     0.0000 </r>
      <r>    34.6259     0.0756     0.0565     0.0858    -0.0000    -0.0000     0.0000 </r>
      <r>    34.6464     0.0754     0.0564     0.0855    -0.0000    -0.0000     0.0000 </r>
      <r>    34.6669     0.0751     0.0562     0.0851    -0.0000    -0.0000     0.0000 </r>
      <r>    34.6873     0.0748     0.0561     0.0848    -0.0000    -0.0000     0.0000 </r>
      <r>    34.7078     0.0745     0.0559     0.0845    -0.0000    -0.0000     0.0000 </r>
      <r>    34.7283     0.0742     0.0558     0.0842    -0.0000    -0.0000     0.0000 </r>
      <r>    34.7487     0.0739     0.0556     0.0839    -0.0000    -0.0000     0.0000 </r>
      <r>    34.7692     0.0737     0.0555     0.0836    -0.0000    -0.0000     0.0000 </r>
      <r>    34.7897     0.0734     0.0553     0.0832    -0.0000    -0.0000     0.0000 </r>
      <r>    34.8101     0.0731     0.0552     0.0829    -0.0000    -0.0000     0.0000 </r>
      <r>    34.8306     0.0729     0.0550     0.0826    -0.0000    -0.0000     0.0000 </r>
      <r>    34.8510     0.0726     0.0549     0.0823    -0.0000    -0.0000     0.0000 </r>
      <r>    34.8715     0.0723     0.0548     0.0820    -0.0000    -0.0000     0.0000 </r>
      <r>    34.8920     0.0720     0.0546     0.0817    -0.0000    -0.0000     0.0000 </r>
      <r>    34.9124     0.0718     0.0545     0.0814    -0.0000    -0.0000     0.0000 </r>
      <r>    34.9329     0.0715     0.0543     0.0811    -0.0000    -0.0000     0.0000 </r>
      <r>    34.9534     0.0713     0.0542     0.0808    -0.0000    -0.0000     0.0000 </r>
      <r>    34.9738     0.0710     0.0540     0.0805    -0.0000    -0.0000     0.0000 </r>
      <r>    34.9943     0.0707     0.0539     0.0802    -0.0000    -0.0000     0.0000 </r>
      <r>    35.0148     0.0705     0.0538     0.0799    -0.0000    -0.0000     0.0000 </r>
      <r>    35.0352     0.0702     0.0536     0.0796    -0.0000    -0.0000     0.0000 </r>
      <r>    35.0557     0.0700     0.0535     0.0794    -0.0000    -0.0000     0.0000 </r>
      <r>    35.0762     0.0697     0.0533     0.0791    -0.0000    -0.0000     0.0000 </r>
      <r>    35.0966     0.0695     0.0532     0.0788    -0.0000    -0.0000     0.0000 </r>
      <r>    35.1171     0.0692     0.0531     0.0785    -0.0000    -0.0000     0.0000 </r>
      <r>    35.1375     0.0689     0.0529     0.0782    -0.0000    -0.0000     0.0000 </r>
      <r>    35.1580     0.0687     0.0528     0.0779    -0.0000    -0.0000     0.0000 </r>
      <r>    35.1785     0.0685     0.0527     0.0777    -0.0000    -0.0000     0.0000 </r>
      <r>    35.1989     0.0682     0.0525     0.0774    -0.0000    -0.0000     0.0000 </r>
      <r>    35.2194     0.0680     0.0524     0.0771    -0.0000    -0.0000     0.0000 </r>
      <r>    35.2399     0.0677     0.0523     0.0768    -0.0000    -0.0000     0.0000 </r>
      <r>    35.2603     0.0675     0.0521     0.0766    -0.0000    -0.0000     0.0000 </r>
      <r>    35.2808     0.0672     0.0520     0.0763    -0.0000    -0.0000     0.0000 </r>
      <r>    35.3013     0.0670     0.0519     0.0760    -0.0000    -0.0000     0.0000 </r>
      <r>    35.3217     0.0668     0.0517     0.0757    -0.0000    -0.0000     0.0000 </r>
      <r>    35.3422     0.0665     0.0516     0.0755    -0.0000    -0.0000     0.0000 </r>
      <r>    35.3627     0.0663     0.0515     0.0752    -0.0000    -0.0000     0.0000 </r>
      <r>    35.3831     0.0661     0.0513     0.0749    -0.0000    -0.0000     0.0000 </r>
      <r>    35.4036     0.0658     0.0512     0.0747    -0.0000    -0.0000     0.0000 </r>
      <r>    35.4241     0.0656     0.0511     0.0744    -0.0000    -0.0000     0.0000 </r>
      <r>    35.4445     0.0654     0.0509     0.0741    -0.0000    -0.0000     0.0000 </r>
      <r>    35.4650     0.0651     0.0508     0.0739    -0.0000    -0.0000     0.0000 </r>
      <r>    35.4854     0.0649     0.0507     0.0736    -0.0000    -0.0000     0.0000 </r>
      <r>    35.5059     0.0647     0.0505     0.0734    -0.0000    -0.0000     0.0000 </r>
      <r>    35.5264     0.0644     0.0504     0.0731    -0.0000    -0.0000     0.0000 </r>
      <r>    35.5468     0.0642     0.0503     0.0729    -0.0000    -0.0000     0.0000 </r>
      <r>    35.5673     0.0640     0.0502     0.0726    -0.0000    -0.0000     0.0000 </r>
      <r>    35.5878     0.0638     0.0500     0.0724    -0.0000    -0.0000     0.0000 </r>
      <r>    35.6082     0.0636     0.0499     0.0721    -0.0000    -0.0000     0.0000 </r>
      <r>    35.6287     0.0633     0.0498     0.0719    -0.0000    -0.0000     0.0000 </r>
      <r>    35.6492     0.0631     0.0497     0.0716    -0.0000    -0.0000     0.0000 </r>
      <r>    35.6696     0.0629     0.0495     0.0714    -0.0000    -0.0000     0.0000 </r>
      <r>    35.6901     0.0627     0.0494     0.0711    -0.0000    -0.0000     0.0000 </r>
      <r>    35.7106     0.0625     0.0493     0.0709    -0.0000    -0.0000     0.0000 </r>
      <r>    35.7310     0.0622     0.0492     0.0706    -0.0000    -0.0000     0.0000 </r>
      <r>    35.7515     0.0620     0.0490     0.0704    -0.0000    -0.0000     0.0000 </r>
      <r>    35.7719     0.0618     0.0489     0.0701    -0.0000    -0.0000     0.0000 </r>
      <r>    35.7924     0.0616     0.0488     0.0699    -0.0000    -0.0000     0.0000 </r>
      <r>    35.8129     0.0614     0.0487     0.0697    -0.0000    -0.0000     0.0000 </r>
      <r>    35.8333     0.0612     0.0486     0.0694    -0.0000    -0.0000     0.0000 </r>
      <r>    35.8538     0.0610     0.0484     0.0692    -0.0000    -0.0000     0.0000 </r>
      <r>    35.8743     0.0608     0.0483     0.0690    -0.0000    -0.0000     0.0000 </r>
      <r>    35.8947     0.0606     0.0482     0.0687    -0.0000    -0.0000     0.0000 </r>
      <r>    35.9152     0.0604     0.0481     0.0685    -0.0000    -0.0000     0.0000 </r>
      <r>    35.9357     0.0602     0.0480     0.0683    -0.0000    -0.0000     0.0000 </r>
      <r>    35.9561     0.0600     0.0478     0.0680    -0.0000    -0.0000     0.0000 </r>
      <r>    35.9766     0.0598     0.0477     0.0678    -0.0000    -0.0000     0.0000 </r>
      <r>    35.9971     0.0596     0.0476     0.0676    -0.0000    -0.0000     0.0000 </r>
      <r>    36.0175     0.0594     0.0475     0.0673    -0.0000    -0.0000     0.0000 </r>
      <r>    36.0380     0.0592     0.0474     0.0671    -0.0000    -0.0000     0.0000 </r>
      <r>    36.0585     0.0590     0.0472     0.0669    -0.0000    -0.0000     0.0000 </r>
      <r>    36.0789     0.0588     0.0471     0.0667    -0.0000    -0.0000     0.0000 </r>
      <r>    36.0994     0.0586     0.0470     0.0665    -0.0000    -0.0000     0.0000 </r>
      <r>    36.1198     0.0584     0.0469     0.0662    -0.0000    -0.0000     0.0000 </r>
      <r>    36.1403     0.0582     0.0468     0.0660    -0.0000    -0.0000     0.0000 </r>
      <r>    36.1608     0.0580     0.0467     0.0658    -0.0000    -0.0000     0.0000 </r>
      <r>    36.1812     0.0578     0.0466     0.0656    -0.0000    -0.0000     0.0000 </r>
      <r>    36.2017     0.0576     0.0464     0.0654    -0.0000    -0.0000     0.0000 </r>
      <r>    36.2222     0.0574     0.0463     0.0651    -0.0000    -0.0000     0.0000 </r>
      <r>    36.2426     0.0572     0.0462     0.0649    -0.0000    -0.0000     0.0000 </r>
      <r>    36.2631     0.0570     0.0461     0.0647    -0.0000    -0.0000     0.0000 </r>
      <r>    36.2836     0.0568     0.0460     0.0645    -0.0000    -0.0000     0.0000 </r>
      <r>    36.3040     0.0567     0.0459     0.0643    -0.0000    -0.0000     0.0000 </r>
      <r>    36.3245     0.0565     0.0458     0.0641    -0.0000    -0.0000     0.0000 </r>
      <r>    36.3450     0.0563     0.0457     0.0639    -0.0000    -0.0000     0.0000 </r>
      <r>    36.3654     0.0561     0.0455     0.0637    -0.0000    -0.0000     0.0000 </r>
      <r>    36.3859     0.0559     0.0454     0.0635    -0.0000    -0.0000     0.0000 </r>
      <r>    36.4063     0.0557     0.0453     0.0632    -0.0000    -0.0000     0.0000 </r>
      <r>    36.4268     0.0556     0.0452     0.0630    -0.0000    -0.0000     0.0000 </r>
      <r>    36.4473     0.0554     0.0451     0.0628    -0.0000    -0.0000     0.0000 </r>
      <r>    36.4677     0.0552     0.0450     0.0626    -0.0000    -0.0000     0.0000 </r>
      <r>    36.4882     0.0550     0.0449     0.0624    -0.0000    -0.0000     0.0000 </r>
      <r>    36.5087     0.0548     0.0448     0.0622    -0.0000    -0.0000     0.0000 </r>
      <r>    36.5291     0.0547     0.0447     0.0620    -0.0000    -0.0000     0.0000 </r>
      <r>    36.5496     0.0545     0.0446     0.0618    -0.0000    -0.0000     0.0000 </r>
      <r>    36.5701     0.0543     0.0445     0.0616    -0.0000    -0.0000     0.0000 </r>
      <r>    36.5905     0.0541     0.0443     0.0614    -0.0000    -0.0000     0.0000 </r>
      <r>    36.6110     0.0540     0.0442     0.0612    -0.0000    -0.0000     0.0000 </r>
      <r>    36.6315     0.0538     0.0441     0.0610    -0.0000    -0.0000     0.0000 </r>
      <r>    36.6519     0.0536     0.0440     0.0608    -0.0000    -0.0000     0.0000 </r>
      <r>    36.6724     0.0534     0.0439     0.0606    -0.0000    -0.0000     0.0000 </r>
      <r>    36.6929     0.0533     0.0438     0.0605    -0.0000    -0.0000     0.0000 </r>
      <r>    36.7133     0.0531     0.0437     0.0603    -0.0000    -0.0000     0.0000 </r>
      <r>    36.7338     0.0529     0.0436     0.0601    -0.0000    -0.0000     0.0000 </r>
      <r>    36.7542     0.0528     0.0435     0.0599    -0.0000    -0.0000     0.0000 </r>
      <r>    36.7747     0.0526     0.0434     0.0597    -0.0000    -0.0000     0.0000 </r>
      <r>    36.7952     0.0524     0.0433     0.0595    -0.0000    -0.0000     0.0000 </r>
      <r>    36.8156     0.0523     0.0432     0.0593    -0.0000    -0.0000     0.0000 </r>
      <r>    36.8361     0.0521     0.0431     0.0591    -0.0000    -0.0000     0.0000 </r>
      <r>    36.8566     0.0519     0.0430     0.0589    -0.0000    -0.0000     0.0000 </r>
      <r>    36.8770     0.0518     0.0429     0.0588    -0.0000    -0.0000     0.0000 </r>
      <r>    36.8975     0.0516     0.0428     0.0586    -0.0000    -0.0000     0.0000 </r>
      <r>    36.9180     0.0515     0.0427     0.0584    -0.0000    -0.0000     0.0000 </r>
      <r>    36.9384     0.0513     0.0426     0.0582    -0.0000    -0.0000     0.0000 </r>
      <r>    36.9589     0.0511     0.0425     0.0580    -0.0000    -0.0000     0.0000 </r>
      <r>    36.9794     0.0510     0.0424     0.0578    -0.0000    -0.0000     0.0000 </r>
      <r>    36.9998     0.0508     0.0423     0.0577    -0.0000    -0.0000     0.0000 </r>
      <r>    37.0203     0.0507     0.0422     0.0575    -0.0000    -0.0000     0.0000 </r>
      <r>    37.0407     0.0505     0.0421     0.0573    -0.0000    -0.0000     0.0000 </r>
      <r>    37.0612     0.0503     0.0420     0.0571    -0.0000    -0.0000     0.0000 </r>
      <r>    37.0817     0.0502     0.0419     0.0570    -0.0000    -0.0000     0.0000 </r>
      <r>    37.1021     0.0500     0.0418     0.0568    -0.0000    -0.0000     0.0000 </r>
      <r>    37.1226     0.0499     0.0417     0.0566    -0.0000    -0.0000     0.0000 </r>
      <r>    37.1431     0.0497     0.0416     0.0564    -0.0000    -0.0000     0.0000 </r>
      <r>    37.1635     0.0496     0.0415     0.0563    -0.0000    -0.0000     0.0000 </r>
      <r>    37.1840     0.0494     0.0414     0.0561    -0.0000    -0.0000     0.0000 </r>
      <r>    37.2045     0.0493     0.0413     0.0559    -0.0000    -0.0000     0.0000 </r>
      <r>    37.2249     0.0491     0.0412     0.0557    -0.0000    -0.0000     0.0000 </r>
      <r>    37.2454     0.0490     0.0411     0.0556    -0.0000    -0.0000     0.0000 </r>
      <r>    37.2659     0.0488     0.0410     0.0554    -0.0000    -0.0000     0.0000 </r>
      <r>    37.2863     0.0487     0.0409     0.0552    -0.0000    -0.0000     0.0000 </r>
      <r>    37.3068     0.0485     0.0408     0.0551    -0.0000    -0.0000     0.0000 </r>
      <r>    37.3273     0.0484     0.0407     0.0549    -0.0000    -0.0000     0.0000 </r>
      <r>    37.3477     0.0482     0.0406     0.0547    -0.0000    -0.0000     0.0000 </r>
      <r>    37.3682     0.0481     0.0405     0.0546    -0.0000    -0.0000     0.0000 </r>
      <r>    37.3886     0.0479     0.0405     0.0544    -0.0000    -0.0000     0.0000 </r>
      <r>    37.4091     0.0478     0.0404     0.0542    -0.0000    -0.0000     0.0000 </r>
      <r>    37.4296     0.0476     0.0403     0.0541    -0.0000    -0.0000     0.0000 </r>
      <r>    37.4500     0.0475     0.0402     0.0539    -0.0000    -0.0000     0.0000 </r>
      <r>    37.4705     0.0474     0.0401     0.0537    -0.0000    -0.0000     0.0000 </r>
      <r>    37.4910     0.0472     0.0400     0.0536    -0.0000    -0.0000     0.0000 </r>
      <r>    37.5114     0.0471     0.0399     0.0534    -0.0000    -0.0000     0.0000 </r>
      <r>    37.5319     0.0469     0.0398     0.0533    -0.0000    -0.0000     0.0000 </r>
      <r>    37.5524     0.0468     0.0397     0.0531    -0.0000    -0.0000     0.0000 </r>
      <r>    37.5728     0.0466     0.0396     0.0529    -0.0000    -0.0000     0.0000 </r>
      <r>    37.5933     0.0465     0.0395     0.0528    -0.0000    -0.0000     0.0000 </r>
      <r>    37.6138     0.0464     0.0394     0.0526    -0.0000    -0.0000     0.0000 </r>
      <r>    37.6342     0.0462     0.0394     0.0525    -0.0000    -0.0000     0.0000 </r>
      <r>    37.6547     0.0461     0.0393     0.0523    -0.0000    -0.0000     0.0000 </r>
      <r>    37.6751     0.0460     0.0392     0.0521    -0.0000    -0.0000     0.0000 </r>
      <r>    37.6956     0.0458     0.0391     0.0520    -0.0000    -0.0000     0.0000 </r>
      <r>    37.7161     0.0457     0.0390     0.0518    -0.0000    -0.0000     0.0000 </r>
      <r>    37.7365     0.0455     0.0389     0.0517    -0.0000    -0.0000     0.0000 </r>
      <r>    37.7570     0.0454     0.0388     0.0515    -0.0000    -0.0000     0.0000 </r>
      <r>    37.7775     0.0453     0.0387     0.0514    -0.0000    -0.0000     0.0000 </r>
      <r>    37.7979     0.0451     0.0386     0.0512    -0.0000    -0.0000     0.0000 </r>
      <r>    37.8184     0.0450     0.0386     0.0511    -0.0000    -0.0000     0.0000 </r>
      <r>    37.8389     0.0449     0.0385     0.0509    -0.0000    -0.0000     0.0000 </r>
      <r>    37.8593     0.0448     0.0384     0.0508    -0.0000    -0.0000     0.0000 </r>
      <r>    37.8798     0.0446     0.0383     0.0506    -0.0000    -0.0000     0.0000 </r>
      <r>    37.9003     0.0445     0.0382     0.0505    -0.0000    -0.0000     0.0000 </r>
      <r>    37.9207     0.0444     0.0381     0.0503    -0.0000    -0.0000     0.0000 </r>
      <r>    37.9412     0.0442     0.0380     0.0502    -0.0000    -0.0000     0.0000 </r>
      <r>    37.9617     0.0441     0.0380     0.0500    -0.0000    -0.0000     0.0000 </r>
      <r>    37.9821     0.0440     0.0379     0.0499    -0.0000    -0.0000     0.0000 </r>
      <r>    38.0026     0.0438     0.0378     0.0498    -0.0000    -0.0000     0.0000 </r>
      <r>    38.0230     0.0437     0.0377     0.0496    -0.0000    -0.0000     0.0000 </r>
      <r>    38.0435     0.0436     0.0376     0.0495    -0.0000    -0.0000     0.0000 </r>
      <r>    38.0640     0.0435     0.0375     0.0493    -0.0000    -0.0000     0.0000 </r>
      <r>    38.0844     0.0433     0.0374     0.0492    -0.0000    -0.0000     0.0000 </r>
      <r>    38.1049     0.0432     0.0374     0.0490    -0.0000    -0.0000     0.0000 </r>
      <r>    38.1254     0.0431     0.0373     0.0489    -0.0000    -0.0000     0.0000 </r>
      <r>    38.1458     0.0430     0.0372     0.0488    -0.0000    -0.0000     0.0000 </r>
      <r>    38.1663     0.0428     0.0371     0.0486    -0.0000    -0.0000     0.0000 </r>
      <r>    38.1868     0.0427     0.0370     0.0485    -0.0000    -0.0000     0.0000 </r>
      <r>    38.2072     0.0426     0.0369     0.0483    -0.0000    -0.0000     0.0000 </r>
      <r>    38.2277     0.0425     0.0369     0.0482    -0.0000    -0.0000     0.0000 </r>
      <r>    38.2482     0.0424     0.0368     0.0481    -0.0000    -0.0000     0.0000 </r>
      <r>    38.2686     0.0422     0.0367     0.0479    -0.0000    -0.0000     0.0000 </r>
      <r>    38.2891     0.0421     0.0366     0.0478    -0.0000    -0.0000     0.0000 </r>
      <r>    38.3095     0.0420     0.0365     0.0476    -0.0000    -0.0000     0.0000 </r>
      <r>    38.3300     0.0419     0.0365     0.0475    -0.0000    -0.0000     0.0000 </r>
      <r>    38.3505     0.0418     0.0364     0.0474    -0.0000    -0.0000     0.0000 </r>
      <r>    38.3709     0.0416     0.0363     0.0472    -0.0000    -0.0000     0.0000 </r>
      <r>    38.3914     0.0415     0.0362     0.0471    -0.0000    -0.0000     0.0000 </r>
      <r>    38.4119     0.0414     0.0361     0.0470    -0.0000    -0.0000     0.0000 </r>
      <r>    38.4323     0.0413     0.0361     0.0468    -0.0000    -0.0000     0.0000 </r>
      <r>    38.4528     0.0412     0.0360     0.0467    -0.0000    -0.0000     0.0000 </r>
      <r>    38.4733     0.0410     0.0359     0.0466    -0.0000    -0.0000     0.0000 </r>
      <r>    38.4937     0.0409     0.0358     0.0464    -0.0000    -0.0000     0.0000 </r>
      <r>    38.5142     0.0408     0.0357     0.0463    -0.0000    -0.0000     0.0000 </r>
      <r>    38.5347     0.0407     0.0357     0.0462    -0.0000    -0.0000     0.0000 </r>
      <r>    38.5551     0.0406     0.0356     0.0461    -0.0000    -0.0000     0.0000 </r>
      <r>    38.5756     0.0405     0.0355     0.0459    -0.0000    -0.0000     0.0000 </r>
      <r>    38.5961     0.0404     0.0354     0.0458    -0.0000    -0.0000     0.0000 </r>
      <r>    38.6165     0.0403     0.0354     0.0457    -0.0000    -0.0000     0.0000 </r>
      <r>    38.6370     0.0401     0.0353     0.0455    -0.0000    -0.0000     0.0000 </r>
      <r>    38.6574     0.0400     0.0352     0.0454    -0.0000    -0.0000     0.0000 </r>
      <r>    38.6779     0.0399     0.0351     0.0453    -0.0000    -0.0000     0.0000 </r>
      <r>    38.6984     0.0398     0.0350     0.0452    -0.0000    -0.0000     0.0000 </r>
      <r>    38.7188     0.0397     0.0350     0.0450    -0.0000    -0.0000     0.0000 </r>
      <r>    38.7393     0.0396     0.0349     0.0449    -0.0000    -0.0000     0.0000 </r>
      <r>    38.7598     0.0395     0.0348     0.0448    -0.0000    -0.0000     0.0000 </r>
      <r>    38.7802     0.0394     0.0347     0.0447    -0.0000    -0.0000     0.0000 </r>
      <r>    38.8007     0.0393     0.0347     0.0445    -0.0000    -0.0000     0.0000 </r>
      <r>    38.8212     0.0391     0.0346     0.0444    -0.0000    -0.0000     0.0000 </r>
      <r>    38.8416     0.0390     0.0345     0.0443    -0.0000    -0.0000     0.0000 </r>
      <r>    38.8621     0.0389     0.0344     0.0442    -0.0000    -0.0000     0.0000 </r>
      <r>    38.8826     0.0388     0.0344     0.0440    -0.0000    -0.0000     0.0000 </r>
      <r>    38.9030     0.0387     0.0343     0.0439    -0.0000    -0.0000     0.0000 </r>
      <r>    38.9235     0.0386     0.0342     0.0438    -0.0000    -0.0000     0.0000 </r>
      <r>    38.9439     0.0385     0.0341     0.0437    -0.0000    -0.0000     0.0000 </r>
      <r>    38.9644     0.0384     0.0341     0.0436    -0.0000    -0.0000     0.0000 </r>
      <r>    38.9849     0.0383     0.0340     0.0434    -0.0000    -0.0000     0.0000 </r>
      <r>    39.0053     0.0382     0.0339     0.0433    -0.0000    -0.0000     0.0000 </r>
      <r>    39.0258     0.0381     0.0339     0.0432    -0.0000    -0.0000     0.0000 </r>
      <r>    39.0463     0.0380     0.0338     0.0431    -0.0000    -0.0000     0.0000 </r>
      <r>    39.0667     0.0379     0.0337     0.0430    -0.0000    -0.0000     0.0000 </r>
      <r>    39.0872     0.0378     0.0336     0.0429    -0.0000    -0.0000     0.0000 </r>
      <r>    39.1077     0.0377     0.0336     0.0427    -0.0000    -0.0000     0.0000 </r>
      <r>    39.1281     0.0376     0.0335     0.0426    -0.0000    -0.0000     0.0000 </r>
      <r>    39.1486     0.0375     0.0334     0.0425    -0.0000    -0.0000     0.0000 </r>
      <r>    39.1691     0.0374     0.0333     0.0424    -0.0000    -0.0000     0.0000 </r>
      <r>    39.1895     0.0373     0.0333     0.0423    -0.0000    -0.0000     0.0000 </r>
      <r>    39.2100     0.0372     0.0332     0.0422    -0.0000    -0.0000     0.0000 </r>
      <r>    39.2305     0.0371     0.0331     0.0421    -0.0000    -0.0000     0.0000 </r>
      <r>    39.2509     0.0370     0.0331     0.0419    -0.0000    -0.0000     0.0000 </r>
      <r>    39.2714     0.0369     0.0330     0.0418    -0.0000    -0.0000     0.0000 </r>
      <r>    39.2918     0.0368     0.0329     0.0417    -0.0000    -0.0000     0.0000 </r>
      <r>    39.3123     0.0367     0.0329     0.0416    -0.0000    -0.0000     0.0000 </r>
      <r>    39.3328     0.0366     0.0328     0.0415    -0.0000    -0.0000     0.0000 </r>
      <r>    39.3532     0.0365     0.0327     0.0414    -0.0000    -0.0000     0.0000 </r>
      <r>    39.3737     0.0364     0.0326     0.0413    -0.0000    -0.0000     0.0000 </r>
      <r>    39.3942     0.0363     0.0326     0.0412    -0.0000    -0.0000     0.0000 </r>
      <r>    39.4146     0.0362     0.0325     0.0411    -0.0000    -0.0000     0.0000 </r>
      <r>    39.4351     0.0361     0.0324     0.0409    -0.0000    -0.0000     0.0000 </r>
      <r>    39.4556     0.0360     0.0324     0.0408    -0.0000    -0.0000     0.0000 </r>
      <r>    39.4760     0.0359     0.0323     0.0407    -0.0000    -0.0000     0.0000 </r>
      <r>    39.4965     0.0358     0.0322     0.0406    -0.0000    -0.0000     0.0000 </r>
      <r>    39.5170     0.0357     0.0322     0.0405    -0.0000    -0.0000     0.0000 </r>
      <r>    39.5374     0.0356     0.0321     0.0404    -0.0000    -0.0000     0.0000 </r>
      <r>    39.5579     0.0355     0.0320     0.0403    -0.0000    -0.0000     0.0000 </r>
      <r>    39.5783     0.0354     0.0320     0.0402    -0.0000    -0.0000     0.0000 </r>
      <r>    39.5988     0.0353     0.0319     0.0401    -0.0000    -0.0000     0.0000 </r>
      <r>    39.6193     0.0352     0.0318     0.0400    -0.0000    -0.0000     0.0000 </r>
      <r>    39.6397     0.0352     0.0318     0.0399    -0.0000    -0.0000     0.0000 </r>
      <r>    39.6602     0.0351     0.0317     0.0398    -0.0000    -0.0000     0.0000 </r>
      <r>    39.6807     0.0350     0.0316     0.0397    -0.0000    -0.0000     0.0000 </r>
      <r>    39.7011     0.0349     0.0316     0.0396    -0.0000    -0.0000     0.0000 </r>
      <r>    39.7216     0.0348     0.0315     0.0395    -0.0000    -0.0000     0.0000 </r>
      <r>    39.7421     0.0347     0.0314     0.0394    -0.0000    -0.0000     0.0000 </r>
      <r>    39.7625     0.0346     0.0314     0.0393    -0.0000    -0.0000     0.0000 </r>
      <r>    39.7830     0.0345     0.0313     0.0391    -0.0000    -0.0000     0.0000 </r>
      <r>    39.8035     0.0344     0.0312     0.0390    -0.0000    -0.0000     0.0000 </r>
      <r>    39.8239     0.0343     0.0312     0.0389    -0.0000    -0.0000     0.0000 </r>
      <r>    39.8444     0.0342     0.0311     0.0388    -0.0000    -0.0000     0.0000 </r>
      <r>    39.8648     0.0342     0.0310     0.0387    -0.0000    -0.0000     0.0000 </r>
      <r>    39.8853     0.0341     0.0310     0.0386    -0.0000    -0.0000     0.0000 </r>
      <r>    39.9058     0.0340     0.0309     0.0385    -0.0000    -0.0000     0.0000 </r>
      <r>    39.9262     0.0339     0.0309     0.0384    -0.0000    -0.0000     0.0000 </r>
      <r>    39.9467     0.0338     0.0308     0.0383    -0.0000    -0.0000     0.0000 </r>
      <r>    39.9672     0.0337     0.0307     0.0382    -0.0000    -0.0000     0.0000 </r>
      <r>    39.9876     0.0336     0.0307     0.0381    -0.0000    -0.0000     0.0000 </r>
      <r>    40.0081     0.0335     0.0306     0.0380    -0.0000    -0.0000     0.0000 </r>
      <r>    40.0286     0.0335     0.0305     0.0380    -0.0000    -0.0000     0.0000 </r>
      <r>    40.0490     0.0334     0.0305     0.0379    -0.0000    -0.0000     0.0000 </r>
      <r>    40.0695     0.0333     0.0304     0.0378    -0.0000    -0.0000     0.0000 </r>
      <r>    40.0900     0.0332     0.0304     0.0377    -0.0000    -0.0000     0.0000 </r>
      <r>    40.1104     0.0331     0.0303     0.0376    -0.0000    -0.0000     0.0000 </r>
      <r>    40.1309     0.0330     0.0302     0.0375    -0.0000    -0.0000     0.0000 </r>
      <r>    40.1514     0.0330     0.0302     0.0374    -0.0000    -0.0000     0.0000 </r>
      <r>    40.1718     0.0329     0.0301     0.0373    -0.0000    -0.0000     0.0000 </r>
      <r>    40.1923     0.0328     0.0300     0.0372    -0.0000    -0.0000     0.0000 </r>
      <r>    40.2127     0.0327     0.0300     0.0371    -0.0000    -0.0000     0.0000 </r>
      <r>    40.2332     0.0326     0.0299     0.0370    -0.0000    -0.0000     0.0000 </r>
      <r>    40.2537     0.0325     0.0299     0.0369    -0.0000    -0.0000     0.0000 </r>
      <r>    40.2741     0.0325     0.0298     0.0368    -0.0000    -0.0000     0.0000 </r>
      <r>    40.2946     0.0324     0.0297     0.0367    -0.0000    -0.0000     0.0000 </r>
      <r>    40.3151     0.0323     0.0297     0.0366    -0.0000    -0.0000     0.0000 </r>
      <r>    40.3355     0.0322     0.0296     0.0365    -0.0000    -0.0000     0.0000 </r>
      <r>    40.3560     0.0321     0.0296     0.0364    -0.0000    -0.0000     0.0000 </r>
      <r>    40.3765     0.0320     0.0295     0.0363    -0.0000    -0.0000     0.0000 </r>
      <r>    40.3969     0.0320     0.0294     0.0363    -0.0000    -0.0000     0.0000 </r>
      <r>    40.4174     0.0319     0.0294     0.0362    -0.0000    -0.0000     0.0000 </r>
      <r>    40.4379     0.0318     0.0293     0.0361    -0.0000    -0.0000     0.0000 </r>
      <r>    40.4583     0.0317     0.0293     0.0360    -0.0000    -0.0000     0.0000 </r>
      <r>    40.4788     0.0316     0.0292     0.0359    -0.0000    -0.0000     0.0000 </r>
      <r>    40.4992     0.0316     0.0291     0.0358    -0.0000    -0.0000     0.0000 </r>
      <r>    40.5197     0.0315     0.0291     0.0357    -0.0000    -0.0000     0.0000 </r>
      <r>    40.5402     0.0314     0.0290     0.0356    -0.0000    -0.0000     0.0000 </r>
      <r>    40.5606     0.0313     0.0290     0.0355    -0.0000    -0.0000     0.0000 </r>
      <r>    40.5811     0.0313     0.0289     0.0354    -0.0000    -0.0000     0.0000 </r>
      <r>    40.6016     0.0312     0.0288     0.0354    -0.0000    -0.0000     0.0000 </r>
      <r>    40.6220     0.0311     0.0288     0.0353    -0.0000    -0.0000     0.0000 </r>
      <r>    40.6425     0.0310     0.0287     0.0352    -0.0000    -0.0000     0.0000 </r>
      <r>    40.6630     0.0309     0.0287     0.0351    -0.0000    -0.0000     0.0000 </r>
      <r>    40.6834     0.0309     0.0286     0.0350    -0.0000    -0.0000     0.0000 </r>
      <r>    40.7039     0.0308     0.0286     0.0349    -0.0000    -0.0000     0.0000 </r>
      <r>    40.7244     0.0307     0.0285     0.0348    -0.0000    -0.0000     0.0000 </r>
      <r>    40.7448     0.0306     0.0284     0.0347    -0.0000    -0.0000     0.0000 </r>
      <r>    40.7653     0.0306     0.0284     0.0347    -0.0000    -0.0000     0.0000 </r>
      <r>    40.7858     0.0305     0.0283     0.0346    -0.0000    -0.0000     0.0000 </r>
      <r>    40.8062     0.0304     0.0283     0.0345    -0.0000    -0.0000     0.0000 </r>
      <r>    40.8267     0.0303     0.0282     0.0344    -0.0000    -0.0000     0.0000 </r>
      <r>    40.8471     0.0303     0.0282     0.0343    -0.0000    -0.0000     0.0000 </r>
      <r>    40.8676     0.0302     0.0281     0.0342    -0.0000    -0.0000     0.0000 </r>
      <r>    40.8881     0.0301     0.0280     0.0341    -0.0000    -0.0000     0.0000 </r>
      <r>    40.9085     0.0300     0.0280     0.0341    -0.0000     0.0000     0.0000 </r>
     </set>
    </array>
   </imag>
   <real>
    <array>
     <dimension dim="1">gridpoints</dimension>
     <field>energy</field>
     <field>xx</field>
     <field>yy</field>
     <field>zz</field>
     <field>xy</field>
     <field>yz</field>
     <field>zx</field>
     <set>
      <r>     0.0000    24.8893    46.2527    26.1158    -0.0000     0.0000     0.0000 </r>
      <r>     0.0205    24.8893    46.2528    26.1158    -0.0000     0.0000     0.0000 </r>
      <r>     0.0409    24.8894    46.2529    26.1159    -0.0000     0.0000     0.0000 </r>
      <r>     0.0614    24.8895    46.2532    26.1160    -0.0000     0.0000     0.0000 </r>
      <r>     0.0819    24.8897    46.2536    26.1162    -0.0000     0.0000     0.0000 </r>
      <r>     0.1023    24.8900    46.2542    26.1165    -0.0000     0.0000     0.0000 </r>
      <r>     0.1228    24.8902    46.2548    26.1168    -0.0000     0.0000     0.0000 </r>
      <r>     0.1433    24.8906    46.2556    26.1171    -0.0000     0.0000     0.0000 </r>
      <r>     0.1637    24.8910    46.2565    26.1175    -0.0000     0.0000     0.0000 </r>
      <r>     0.1842    24.8914    46.2575    26.1179    -0.0000     0.0000     0.0000 </r>
      <r>     0.2046    24.8919    46.2586    26.1184    -0.0000     0.0000     0.0000 </r>
      <r>     0.2251    24.8924    46.2599    26.1190    -0.0000     0.0000     0.0000 </r>
      <r>     0.2456    24.8930    46.2612    26.1196    -0.0000     0.0000     0.0000 </r>
      <r>     0.2660    24.8936    46.2627    26.1202    -0.0000     0.0000     0.0000 </r>
      <r>     0.2865    24.8943    46.2643    26.1210    -0.0000     0.0000     0.0000 </r>
      <r>     0.3070    24.8951    46.2660    26.1217    -0.0000     0.0000     0.0000 </r>
      <r>     0.3274    24.8959    46.2679    26.1225    -0.0000     0.0000     0.0000 </r>
      <r>     0.3479    24.8967    46.2698    26.1234    -0.0000     0.0000     0.0000 </r>
      <r>     0.3684    24.8976    46.2719    26.1243    -0.0000     0.0000     0.0000 </r>
      <r>     0.3888    24.8985    46.2741    26.1253    -0.0000     0.0000     0.0000 </r>
      <r>     0.4093    24.8995    46.2764    26.1263    -0.0000     0.0000     0.0000 </r>
      <r>     0.4298    24.9006    46.2788    26.1274    -0.0000     0.0000     0.0000 </r>
      <r>     0.4502    24.9017    46.2813    26.1285    -0.0000     0.0000     0.0000 </r>
      <r>     0.4707    24.9028    46.2840    26.1297    -0.0000     0.0000     0.0000 </r>
      <r>     0.4911    24.9040    46.2868    26.1309    -0.0000     0.0000     0.0000 </r>
      <r>     0.5116    24.9053    46.2897    26.1322    -0.0000     0.0000     0.0000 </r>
      <r>     0.5321    24.9066    46.2927    26.1336    -0.0000     0.0000     0.0000 </r>
      <r>     0.5525    24.9080    46.2959    26.1350    -0.0000     0.0000     0.0000 </r>
      <r>     0.5730    24.9094    46.2991    26.1364    -0.0000     0.0000     0.0000 </r>
      <r>     0.5935    24.9108    46.3025    26.1379    -0.0000     0.0000     0.0000 </r>
      <r>     0.6139    24.9123    46.3060    26.1395    -0.0000     0.0000     0.0000 </r>
      <r>     0.6344    24.9139    46.3096    26.1411    -0.0000     0.0000     0.0000 </r>
      <r>     0.6549    24.9155    46.3134    26.1427    -0.0000     0.0000     0.0000 </r>
      <r>     0.6753    24.9172    46.3172    26.1445    -0.0000     0.0000     0.0000 </r>
      <r>     0.6958    24.9189    46.3212    26.1462    -0.0000     0.0000     0.0000 </r>
      <r>     0.7163    24.9207    46.3253    26.1480    -0.0000     0.0000     0.0000 </r>
      <r>     0.7367    24.9225    46.3295    26.1499    -0.0000     0.0000     0.0000 </r>
      <r>     0.7572    24.9244    46.3338    26.1518    -0.0000     0.0000     0.0000 </r>
      <r>     0.7777    24.9263    46.3383    26.1538    -0.0000     0.0000     0.0000 </r>
      <r>     0.7981    24.9283    46.3428    26.1559    -0.0000     0.0000     0.0000 </r>
      <r>     0.8186    24.9303    46.3475    26.1579    -0.0000     0.0000     0.0000 </r>
      <r>     0.8390    24.9324    46.3523    26.1601    -0.0000     0.0000     0.0000 </r>
      <r>     0.8595    24.9345    46.3573    26.1623    -0.0000     0.0000     0.0000 </r>
      <r>     0.8800    24.9367    46.3623    26.1645    -0.0000     0.0000     0.0000 </r>
      <r>     0.9004    24.9389    46.3675    26.1668    -0.0000     0.0000     0.0000 </r>
      <r>     0.9209    24.9412    46.3728    26.1692    -0.0000     0.0000     0.0000 </r>
      <r>     0.9414    24.9435    46.3782    26.1716    -0.0000     0.0000     0.0000 </r>
      <r>     0.9618    24.9459    46.3837    26.1740    -0.0000     0.0000     0.0000 </r>
      <r>     0.9823    24.9484    46.3894    26.1765    -0.0000     0.0000     0.0000 </r>
      <r>     1.0028    24.9509    46.3952    26.1791    -0.0000     0.0000     0.0000 </r>
      <r>     1.0232    24.9534    46.4011    26.1817    -0.0000     0.0000     0.0000 </r>
      <r>     1.0437    24.9560    46.4071    26.1844    -0.0000     0.0000     0.0000 </r>
      <r>     1.0642    24.9586    46.4132    26.1871    -0.0000     0.0000     0.0000 </r>
      <r>     1.0846    24.9613    46.4195    26.1899    -0.0000     0.0000     0.0000 </r>
      <r>     1.1051    24.9641    46.4258    26.1928    -0.0000     0.0000     0.0000 </r>
      <r>     1.1255    24.9669    46.4323    26.1957    -0.0000     0.0000     0.0000 </r>
      <r>     1.1460    24.9698    46.4389    26.1986    -0.0000     0.0000     0.0000 </r>
      <r>     1.1665    24.9727    46.4457    26.2016    -0.0000     0.0000     0.0000 </r>
      <r>     1.1869    24.9756    46.4525    26.2047    -0.0000     0.0000     0.0000 </r>
      <r>     1.2074    24.9787    46.4595    26.2078    -0.0000     0.0000     0.0000 </r>
      <r>     1.2279    24.9817    46.4666    26.2109    -0.0000     0.0000     0.0000 </r>
      <r>     1.2483    24.9848    46.4739    26.2142    -0.0000     0.0000     0.0000 </r>
      <r>     1.2688    24.9880    46.4812    26.2174    -0.0000     0.0000     0.0000 </r>
      <r>     1.2893    24.9912    46.4887    26.2208    -0.0000     0.0000     0.0000 </r>
      <r>     1.3097    24.9945    46.4963    26.2241    -0.0000     0.0000     0.0000 </r>
      <r>     1.3302    24.9979    46.5040    26.2276    -0.0000     0.0000     0.0000 </r>
      <r>     1.3507    25.0012    46.5118    26.2311    -0.0000     0.0000     0.0000 </r>
      <r>     1.3711    25.0047    46.5198    26.2346    -0.0000     0.0000     0.0000 </r>
      <r>     1.3916    25.0082    46.5278    26.2382    -0.0000     0.0000     0.0000 </r>
      <r>     1.4121    25.0117    46.5360    26.2419    -0.0000     0.0000     0.0000 </r>
      <r>     1.4325    25.0153    46.5444    26.2456    -0.0000     0.0000     0.0000 </r>
      <r>     1.4530    25.0189    46.5528    26.2494    -0.0000     0.0000     0.0000 </r>
      <r>     1.4734    25.0227    46.5614    26.2532    -0.0000     0.0000     0.0000 </r>
      <r>     1.4939    25.0264    46.5701    26.2571    -0.0000     0.0000     0.0000 </r>
      <r>     1.5144    25.0302    46.5789    26.2610    -0.0000     0.0000     0.0000 </r>
      <r>     1.5348    25.0341    46.5878    26.2650    -0.0000     0.0000     0.0000 </r>
      <r>     1.5553    25.0380    46.5969    26.2690    -0.0000     0.0000     0.0000 </r>
      <r>     1.5758    25.0420    46.6061    26.2731    -0.0000     0.0000     0.0000 </r>
      <r>     1.5962    25.0460    46.6154    26.2773    -0.0000     0.0000     0.0000 </r>
      <r>     1.6167    25.0501    46.6248    26.2815    -0.0000     0.0000     0.0000 </r>
      <r>     1.6372    25.0542    46.6344    26.2858    -0.0000     0.0000     0.0000 </r>
      <r>     1.6576    25.0584    46.6441    26.2901    -0.0000     0.0000     0.0000 </r>
      <r>     1.6781    25.0626    46.6539    26.2945    -0.0000     0.0000     0.0000 </r>
      <r>     1.6986    25.0669    46.6638    26.2989    -0.0000     0.0000     0.0000 </r>
      <r>     1.7190    25.0712    46.6739    26.3034    -0.0000     0.0000     0.0000 </r>
      <r>     1.7395    25.0756    46.6841    26.3080    -0.0000     0.0000     0.0000 </r>
      <r>     1.7599    25.0801    46.6944    26.3126    -0.0000     0.0000     0.0000 </r>
      <r>     1.7804    25.0846    46.7048    26.3173    -0.0000     0.0000     0.0000 </r>
      <r>     1.8009    25.0891    46.7153    26.3220    -0.0000     0.0000     0.0000 </r>
      <r>     1.8213    25.0938    46.7260    26.3268    -0.0000     0.0000     0.0000 </r>
      <r>     1.8418    25.0984    46.7368    26.3316    -0.0000     0.0000     0.0000 </r>
      <r>     1.8623    25.1032    46.7478    26.3365    -0.0000     0.0000     0.0000 </r>
      <r>     1.8827    25.1079    46.7588    26.3415    -0.0000     0.0000     0.0000 </r>
      <r>     1.9032    25.1128    46.7700    26.3465    -0.0000     0.0000     0.0000 </r>
      <r>     1.9237    25.1176    46.7813    26.3515    -0.0000     0.0000     0.0000 </r>
      <r>     1.9441    25.1226    46.7928    26.3567    -0.0000     0.0000     0.0000 </r>
      <r>     1.9646    25.1276    46.8043    26.3618    -0.0000     0.0000     0.0000 </r>
      <r>     1.9851    25.1326    46.8160    26.3671    -0.0000     0.0000     0.0000 </r>
      <r>     2.0055    25.1377    46.8278    26.3724    -0.0000     0.0000     0.0000 </r>
      <r>     2.0260    25.1429    46.8398    26.3777    -0.0000     0.0000     0.0000 </r>
      <r>     2.0465    25.1481    46.8519    26.3832    -0.0000     0.0000     0.0000 </r>
      <r>     2.0669    25.1534    46.8641    26.3886    -0.0000     0.0000     0.0000 </r>
      <r>     2.0874    25.1587    46.8764    26.3942    -0.0000     0.0000     0.0000 </r>
      <r>     2.1078    25.1641    46.8889    26.3998    -0.0000     0.0000     0.0000 </r>
      <r>     2.1283    25.1695    46.9014    26.4054    -0.0000     0.0000     0.0000 </r>
      <r>     2.1488    25.1750    46.9142    26.4111    -0.0000     0.0000     0.0000 </r>
      <r>     2.1692    25.1806    46.9270    26.4169    -0.0000     0.0000     0.0000 </r>
      <r>     2.1897    25.1862    46.9400    26.4227    -0.0000     0.0000     0.0000 </r>
      <r>     2.2102    25.1918    46.9531    26.4286    -0.0000     0.0000     0.0000 </r>
      <r>     2.2306    25.1975    46.9663    26.4346    -0.0000     0.0000     0.0000 </r>
      <r>     2.2511    25.2033    46.9797    26.4406    -0.0000     0.0000     0.0000 </r>
      <r>     2.2716    25.2091    46.9932    26.4466    -0.0000     0.0000     0.0000 </r>
      <r>     2.2920    25.2150    47.0068    26.4528    -0.0000     0.0000     0.0000 </r>
      <r>     2.3125    25.2210    47.0205    26.4590    -0.0000     0.0000     0.0000 </r>
      <r>     2.3330    25.2270    47.0344    26.4652    -0.0000     0.0000     0.0000 </r>
      <r>     2.3534    25.2330    47.0484    26.4715    -0.0000     0.0000     0.0000 </r>
      <r>     2.3739    25.2391    47.0626    26.4779    -0.0000     0.0000     0.0000 </r>
      <r>     2.3943    25.2453    47.0768    26.4843    -0.0000     0.0000     0.0000 </r>
      <r>     2.4148    25.2515    47.0912    26.4908    -0.0000     0.0000     0.0000 </r>
      <r>     2.4353    25.2578    47.1058    26.4974    -0.0000     0.0000     0.0000 </r>
      <r>     2.4557    25.2641    47.1205    26.5040    -0.0000     0.0000     0.0000 </r>
      <r>     2.4762    25.2705    47.1353    26.5107    -0.0000     0.0000     0.0000 </r>
      <r>     2.4967    25.2770    47.1502    26.5174    -0.0000     0.0000     0.0000 </r>
      <r>     2.5171    25.2835    47.1652    26.5242    -0.0000     0.0000     0.0000 </r>
      <r>     2.5376    25.2900    47.1804    26.5311    -0.0000     0.0000     0.0000 </r>
      <r>     2.5581    25.2966    47.1958    26.5380    -0.0000     0.0000     0.0000 </r>
      <r>     2.5785    25.3033    47.2112    26.5450    -0.0000     0.0000     0.0000 </r>
      <r>     2.5990    25.3101    47.2268    26.5520    -0.0000     0.0000     0.0000 </r>
      <r>     2.6195    25.3169    47.2426    26.5592    -0.0000     0.0000     0.0000 </r>
      <r>     2.6399    25.3237    47.2584    26.5663    -0.0000     0.0000     0.0000 </r>
      <r>     2.6604    25.3306    47.2744    26.5736    -0.0000     0.0000     0.0000 </r>
      <r>     2.6808    25.3376    47.2906    26.5809    -0.0000     0.0000     0.0000 </r>
      <r>     2.7013    25.3446    47.3068    26.5882    -0.0000     0.0000     0.0000 </r>
      <r>     2.7218    25.3517    47.3232    26.5957    -0.0000     0.0000     0.0000 </r>
      <r>     2.7422    25.3588    47.3398    26.6032    -0.0000     0.0000     0.0000 </r>
      <r>     2.7627    25.3660    47.3564    26.6107    -0.0000     0.0000     0.0000 </r>
      <r>     2.7832    25.3733    47.3733    26.6183    -0.0000     0.0000     0.0000 </r>
      <r>     2.8036    25.3806    47.3902    26.6260    -0.0000     0.0000     0.0000 </r>
      <r>     2.8241    25.3880    47.4073    26.6338    -0.0000     0.0000     0.0000 </r>
      <r>     2.8446    25.3954    47.4245    26.6416    -0.0000     0.0000     0.0000 </r>
      <r>     2.8650    25.4029    47.4419    26.6495    -0.0000     0.0000     0.0000 </r>
      <r>     2.8855    25.4105    47.4594    26.6574    -0.0000     0.0000     0.0000 </r>
      <r>     2.9060    25.4181    47.4770    26.6655    -0.0000     0.0000     0.0000 </r>
      <r>     2.9264    25.4258    47.4948    26.6735    -0.0000     0.0000     0.0000 </r>
      <r>     2.9469    25.4335    47.5127    26.6817    -0.0000     0.0000     0.0000 </r>
      <r>     2.9674    25.4413    47.5307    26.6899    -0.0000     0.0000     0.0000 </r>
      <r>     2.9878    25.4492    47.5489    26.6982    -0.0000     0.0000     0.0000 </r>
      <r>     3.0083    25.4571    47.5672    26.7065    -0.0000     0.0000     0.0000 </r>
      <r>     3.0287    25.4651    47.5857    26.7149    -0.0000     0.0000     0.0000 </r>
      <r>     3.0492    25.4731    47.6043    26.7234    -0.0000     0.0000     0.0000 </r>
      <r>     3.0697    25.4812    47.6230    26.7320    -0.0000     0.0000     0.0000 </r>
      <r>     3.0901    25.4893    47.6419    26.7406    -0.0000     0.0000     0.0000 </r>
      <r>     3.1106    25.4976    47.6609    26.7493    -0.0000     0.0000     0.0000 </r>
      <r>     3.1311    25.5058    47.6801    26.7580    -0.0000     0.0000     0.0000 </r>
      <r>     3.1515    25.5142    47.6994    26.7669    -0.0000     0.0000     0.0000 </r>
      <r>     3.1720    25.5226    47.7188    26.7757    -0.0000     0.0000     0.0000 </r>
      <r>     3.1925    25.5310    47.7384    26.7847    -0.0000     0.0000     0.0000 </r>
      <r>     3.2129    25.5396    47.7582    26.7937    -0.0000     0.0000     0.0000 </r>
      <r>     3.2334    25.5482    47.7780    26.8028    -0.0000     0.0000     0.0000 </r>
      <r>     3.2539    25.5568    47.7980    26.8120    -0.0000     0.0000     0.0000 </r>
      <r>     3.2743    25.5655    47.8182    26.8212    -0.0000     0.0000     0.0000 </r>
      <r>     3.2948    25.5743    47.8385    26.8306    -0.0000     0.0000     0.0000 </r>
      <r>     3.3152    25.5831    47.8590    26.8399    -0.0000     0.0000     0.0000 </r>
      <r>     3.3357    25.5920    47.8795    26.8494    -0.0000     0.0000     0.0000 </r>
      <r>     3.3562    25.6010    47.9003    26.8589    -0.0000     0.0000     0.0000 </r>
      <r>     3.3766    25.6100    47.9212    26.8685    -0.0000     0.0000     0.0000 </r>
      <r>     3.3971    25.6191    47.9422    26.8782    -0.0000     0.0000     0.0000 </r>
      <r>     3.4176    25.6282    47.9634    26.8879    -0.0000     0.0000     0.0000 </r>
      <r>     3.4380    25.6374    47.9847    26.8977    -0.0000     0.0000     0.0000 </r>
      <r>     3.4585    25.6467    48.0061    26.9076    -0.0000     0.0000     0.0000 </r>
      <r>     3.4790    25.6560    48.0278    26.9176    -0.0000     0.0000     0.0000 </r>
      <r>     3.4994    25.6654    48.0495    26.9276    -0.0000     0.0000     0.0000 </r>
      <r>     3.5199    25.6749    48.0714    26.9377    -0.0000     0.0000     0.0000 </r>
      <r>     3.5404    25.6844    48.0935    26.9479    -0.0000     0.0000     0.0000 </r>
      <r>     3.5608    25.6940    48.1157    26.9581    -0.0000     0.0000     0.0000 </r>
      <r>     3.5813    25.7037    48.1380    26.9685    -0.0000     0.0000     0.0000 </r>
      <r>     3.6018    25.7134    48.1605    26.9789    -0.0000     0.0000     0.0000 </r>
      <r>     3.6222    25.7232    48.1832    26.9894    -0.0000     0.0000     0.0000 </r>
      <r>     3.6427    25.7330    48.2060    26.9999    -0.0000     0.0000     0.0000 </r>
      <r>     3.6631    25.7430    48.2289    27.0105    -0.0000     0.0000     0.0000 </r>
      <r>     3.6836    25.7529    48.2520    27.0213    -0.0000     0.0000     0.0000 </r>
      <r>     3.7041    25.7630    48.2753    27.0320    -0.0000     0.0000     0.0000 </r>
      <r>     3.7245    25.7731    48.2987    27.0429    -0.0000     0.0000     0.0000 </r>
      <r>     3.7450    25.7833    48.3222    27.0538    -0.0000     0.0000     0.0000 </r>
      <r>     3.7655    25.7935    48.3459    27.0649    -0.0000     0.0000     0.0000 </r>
      <r>     3.7859    25.8038    48.3698    27.0760    -0.0000     0.0000     0.0000 </r>
      <r>     3.8064    25.8142    48.3938    27.0871    -0.0000     0.0000     0.0000 </r>
      <r>     3.8269    25.8247    48.4180    27.0984    -0.0000     0.0000     0.0000 </r>
      <r>     3.8473    25.8352    48.4423    27.1097    -0.0000     0.0000     0.0000 </r>
      <r>     3.8678    25.8458    48.4668    27.1212    -0.0000     0.0000     0.0000 </r>
      <r>     3.8883    25.8564    48.4914    27.1326    -0.0000     0.0000     0.0000 </r>
      <r>     3.9087    25.8671    48.5162    27.1442    -0.0000     0.0000     0.0000 </r>
      <r>     3.9292    25.8779    48.5411    27.1559    -0.0000     0.0000     0.0000 </r>
      <r>     3.9496    25.8887    48.5662    27.1676    -0.0000     0.0000     0.0000 </r>
      <r>     3.9701    25.8997    48.5915    27.1794    -0.0000     0.0000     0.0000 </r>
      <r>     3.9906    25.9106    48.6169    27.1914    -0.0000     0.0000     0.0000 </r>
      <r>     4.0110    25.9217    48.6424    27.2033    -0.0000     0.0000     0.0000 </r>
      <r>     4.0315    25.9328    48.6682    27.2154    -0.0000     0.0000     0.0000 </r>
      <r>     4.0520    25.9440    48.6940    27.2276    -0.0000     0.0000     0.0000 </r>
      <r>     4.0724    25.9553    48.7201    27.2398    -0.0000     0.0000     0.0000 </r>
      <r>     4.0929    25.9666    48.7463    27.2521    -0.0000     0.0000     0.0000 </r>
      <r>     4.1134    25.9780    48.7726    27.2646    -0.0000     0.0000     0.0000 </r>
      <r>     4.1338    25.9894    48.7992    27.2771    -0.0000     0.0000     0.0000 </r>
      <r>     4.1543    26.0010    48.8258    27.2896    -0.0000     0.0000     0.0000 </r>
      <r>     4.1748    26.0126    48.8527    27.3023    -0.0000     0.0000     0.0000 </r>
      <r>     4.1952    26.0243    48.8797    27.3151    -0.0000     0.0000     0.0000 </r>
      <r>     4.2157    26.0360    48.9069    27.3279    -0.0000     0.0000     0.0000 </r>
      <r>     4.2362    26.0478    48.9342    27.3408    -0.0000     0.0000     0.0000 </r>
      <r>     4.2566    26.0597    48.9617    27.3539    -0.0000     0.0000     0.0000 </r>
      <r>     4.2771    26.0717    48.9893    27.3670    -0.0000     0.0000     0.0000 </r>
      <r>     4.2975    26.0837    49.0171    27.3802    -0.0000     0.0000     0.0000 </r>
      <r>     4.3180    26.0958    49.0451    27.3935    -0.0000     0.0000     0.0000 </r>
      <r>     4.3385    26.1080    49.0733    27.4069    -0.0000     0.0000     0.0000 </r>
      <r>     4.3589    26.1202    49.1016    27.4203    -0.0000     0.0000     0.0000 </r>
      <r>     4.3794    26.1326    49.1301    27.4339    -0.0000     0.0000     0.0000 </r>
      <r>     4.3999    26.1450    49.1587    27.4476    -0.0000     0.0000     0.0000 </r>
      <r>     4.4203    26.1574    49.1875    27.4613    -0.0000     0.0000     0.0000 </r>
      <r>     4.4408    26.1700    49.2165    27.4752    -0.0000     0.0000     0.0000 </r>
      <r>     4.4613    26.1826    49.2457    27.4891    -0.0000     0.0000     0.0000 </r>
      <r>     4.4817    26.1952    49.2750    27.5032    -0.0000     0.0000     0.0000 </r>
      <r>     4.5022    26.2080    49.3045    27.5173    -0.0000     0.0000     0.0000 </r>
      <r>     4.5227    26.2208    49.3341    27.5315    -0.0000     0.0000     0.0000 </r>
      <r>     4.5431    26.2337    49.3640    27.5459    -0.0000     0.0000     0.0000 </r>
      <r>     4.5636    26.2467    49.3940    27.5603    -0.0000     0.0000     0.0000 </r>
      <r>     4.5840    26.2598    49.4241    27.5748    -0.0000     0.0000     0.0000 </r>
      <r>     4.6045    26.2729    49.4545    27.5895    -0.0000     0.0000     0.0000 </r>
      <r>     4.6250    26.2861    49.4850    27.6042    -0.0000     0.0000     0.0000 </r>
      <r>     4.6454    26.2994    49.5157    27.6190    -0.0000     0.0000     0.0000 </r>
      <r>     4.6659    26.3128    49.5466    27.6339    -0.0000     0.0000     0.0000 </r>
      <r>     4.6864    26.3262    49.5776    27.6490    -0.0000     0.0000     0.0000 </r>
      <r>     4.7068    26.3397    49.6088    27.6641    -0.0000     0.0000     0.0000 </r>
      <r>     4.7273    26.3533    49.6402    27.6793    -0.0000     0.0000     0.0000 </r>
      <r>     4.7478    26.3670    49.6718    27.6947    -0.0000     0.0000     0.0000 </r>
      <r>     4.7682    26.3807    49.7035    27.7101    -0.0000     0.0000     0.0000 </r>
      <r>     4.7887    26.3945    49.7354    27.7257    -0.0000     0.0000     0.0000 </r>
      <r>     4.8092    26.4084    49.7675    27.7413    -0.0000     0.0000     0.0000 </r>
      <r>     4.8296    26.4224    49.7998    27.7571    -0.0000     0.0000     0.0000 </r>
      <r>     4.8501    26.4365    49.8323    27.7730    -0.0000     0.0000     0.0000 </r>
      <r>     4.8706    26.4506    49.8649    27.7890    -0.0000     0.0000     0.0000 </r>
      <r>     4.8910    26.4648    49.8977    27.8050    -0.0000     0.0000     0.0000 </r>
      <r>     4.9115    26.4791    49.9307    27.8213    -0.0000     0.0000     0.0000 </r>
      <r>     4.9319    26.4935    49.9639    27.8376    -0.0000     0.0000     0.0000 </r>
      <r>     4.9524    26.5079    49.9972    27.8540    -0.0000     0.0000     0.0000 </r>
      <r>     4.9729    26.5224    50.0308    27.8705    -0.0000     0.0000     0.0000 </r>
      <r>     4.9933    26.5371    50.0645    27.8872    -0.0000     0.0000     0.0000 </r>
      <r>     5.0138    26.5517    50.0984    27.9040    -0.0000     0.0000     0.0000 </r>
      <r>     5.0343    26.5665    50.1325    27.9209    -0.0000     0.0000     0.0000 </r>
      <r>     5.0547    26.5814    50.1668    27.9379    -0.0000     0.0000     0.0000 </r>
      <r>     5.0752    26.5963    50.2013    27.9550    -0.0000     0.0000     0.0000 </r>
      <r>     5.0957    26.6113    50.2359    27.9722    -0.0000     0.0000     0.0000 </r>
      <r>     5.1161    26.6264    50.2708    27.9896    -0.0000     0.0000     0.0000 </r>
      <r>     5.1366    26.6416    50.3058    28.0071    -0.0000     0.0000     0.0000 </r>
      <r>     5.1571    26.6569    50.3410    28.0247    -0.0000     0.0000     0.0000 </r>
      <r>     5.1775    26.6722    50.3764    28.0424    -0.0000     0.0000     0.0000 </r>
      <r>     5.1980    26.6877    50.4120    28.0603    -0.0000     0.0000     0.0000 </r>
      <r>     5.2184    26.7032    50.4478    28.0782    -0.0000     0.0000     0.0000 </r>
      <r>     5.2389    26.7188    50.4838    28.0964    -0.0000     0.0000     0.0000 </r>
      <r>     5.2594    26.7345    50.5200    28.1146    -0.0000     0.0000     0.0000 </r>
      <r>     5.2798    26.7502    50.5563    28.1330    -0.0000     0.0000     0.0000 </r>
      <r>     5.3003    26.7661    50.5929    28.1514    -0.0000     0.0000     0.0000 </r>
      <r>     5.3208    26.7820    50.6297    28.1701    -0.0000     0.0000     0.0000 </r>
      <r>     5.3412    26.7981    50.6666    28.1888    -0.0000     0.0000     0.0000 </r>
      <r>     5.3617    26.8142    50.7038    28.2077    -0.0000     0.0000     0.0000 </r>
      <r>     5.3822    26.8304    50.7411    28.2268    -0.0000     0.0000     0.0000 </r>
      <r>     5.4026    26.8467    50.7787    28.2459    -0.0000     0.0000     0.0000 </r>
      <r>     5.4231    26.8631    50.8164    28.2652    -0.0000     0.0000     0.0000 </r>
      <r>     5.4436    26.8795    50.8543    28.2847    -0.0000     0.0000     0.0000 </r>
      <r>     5.4640    26.8961    50.8925    28.3042    -0.0000     0.0000     0.0000 </r>
      <r>     5.4845    26.9127    50.9308    28.3240    -0.0000     0.0000     0.0000 </r>
      <r>     5.5050    26.9295    50.9694    28.3438    -0.0000     0.0000     0.0000 </r>
      <r>     5.5254    26.9463    51.0081    28.3638    -0.0000     0.0000     0.0000 </r>
      <r>     5.5459    26.9632    51.0471    28.3840    -0.0000     0.0000     0.0000 </r>
      <r>     5.5663    26.9802    51.0862    28.4043    -0.0000     0.0000     0.0000 </r>
      <r>     5.5868    26.9973    51.1256    28.4248    -0.0000     0.0000     0.0000 </r>
      <r>     5.6073    27.0145    51.1651    28.4454    -0.0000     0.0000     0.0000 </r>
      <r>     5.6277    27.0317    51.2049    28.4661    -0.0000     0.0000     0.0000 </r>
      <r>     5.6482    27.0491    51.2449    28.4870    -0.0000     0.0000     0.0000 </r>
      <r>     5.6687    27.0666    51.2851    28.5081    -0.0000     0.0000     0.0000 </r>
      <r>     5.6891    27.0841    51.3254    28.5293    -0.0000     0.0000     0.0000 </r>
      <r>     5.7096    27.1018    51.3660    28.5507    -0.0000     0.0000     0.0000 </r>
      <r>     5.7301    27.1195    51.4069    28.5723    -0.0000     0.0000     0.0000 </r>
      <r>     5.7505    27.1373    51.4479    28.5940    -0.0000     0.0000     0.0000 </r>
      <r>     5.7710    27.1553    51.4891    28.6158    -0.0000     0.0000     0.0000 </r>
      <r>     5.7915    27.1733    51.5306    28.6379    -0.0000     0.0000     0.0000 </r>
      <r>     5.8119    27.1914    51.5722    28.6601    -0.0000     0.0000     0.0000 </r>
      <r>     5.8324    27.2096    51.6141    28.6825    -0.0000     0.0000     0.0000 </r>
      <r>     5.8528    27.2279    51.6562    28.7050    -0.0000     0.0000     0.0000 </r>
      <r>     5.8733    27.2463    51.6985    28.7278    -0.0000     0.0000     0.0000 </r>
      <r>     5.8938    27.2648    51.7410    28.7507    -0.0000     0.0000     0.0000 </r>
      <r>     5.9142    27.2834    51.7838    28.7737    -0.0000     0.0000     0.0000 </r>
      <r>     5.9347    27.3021    51.8267    28.7970    -0.0000     0.0000     0.0000 </r>
      <r>     5.9552    27.3209    51.8699    28.8204    -0.0000     0.0000     0.0000 </r>
      <r>     5.9756    27.3398    51.9133    28.8441    -0.0000     0.0000     0.0000 </r>
      <r>     5.9961    27.3588    51.9570    28.8679    -0.0000     0.0000     0.0000 </r>
      <r>     6.0166    27.3779    52.0008    28.8919    -0.0000     0.0000     0.0000 </r>
      <r>     6.0370    27.3971    52.0449    28.9161    -0.0000     0.0000     0.0000 </r>
      <r>     6.0575    27.4164    52.0892    28.9405    -0.0000     0.0000     0.0000 </r>
      <r>     6.0780    27.4358    52.1337    28.9651    -0.0000     0.0000     0.0000 </r>
      <r>     6.0984    27.4553    52.1785    28.9899    -0.0000     0.0000     0.0000 </r>
      <r>     6.1189    27.4749    52.2234    29.0149    -0.0000     0.0000     0.0000 </r>
      <r>     6.1394    27.4946    52.2687    29.0401    -0.0000     0.0000     0.0000 </r>
      <r>     6.1598    27.5144    52.3141    29.0655    -0.0000     0.0000     0.0000 </r>
      <r>     6.1803    27.5343    52.3598    29.0911    -0.0000     0.0000     0.0000 </r>
      <r>     6.2007    27.5543    52.4057    29.1170    -0.0000     0.0000     0.0000 </r>
      <r>     6.2212    27.5744    52.4518    29.1430    -0.0000     0.0000     0.0000 </r>
      <r>     6.2417    27.5946    52.4982    29.1693    -0.0000     0.0000     0.0000 </r>
      <r>     6.2621    27.6150    52.5448    29.1958    -0.0000     0.0000     0.0000 </r>
      <r>     6.2826    27.6354    52.5916    29.2225    -0.0000     0.0000     0.0000 </r>
      <r>     6.3031    27.6559    52.6387    29.2494    -0.0000     0.0000     0.0000 </r>
      <r>     6.3235    27.6766    52.6860    29.2766    -0.0000     0.0000     0.0000 </r>
      <r>     6.3440    27.6973    52.7335    29.3041    -0.0000     0.0000     0.0000 </r>
      <r>     6.3645    27.7182    52.7813    29.3317    -0.0000     0.0000     0.0000 </r>
      <r>     6.3849    27.7392    52.8294    29.3596    -0.0000     0.0000     0.0000 </r>
      <r>     6.4054    27.7603    52.8776    29.3878    -0.0000     0.0000     0.0000 </r>
      <r>     6.4259    27.7814    52.9261    29.4162    -0.0000     0.0000     0.0000 </r>
      <r>     6.4463    27.8028    52.9749    29.4448    -0.0000     0.0000     0.0000 </r>
      <r>     6.4668    27.8242    53.0239    29.4737    -0.0000     0.0000     0.0000 </r>
      <r>     6.4872    27.8457    53.0732    29.5029    -0.0000     0.0000     0.0000 </r>
      <r>     6.5077    27.8673    53.1227    29.5324    -0.0000     0.0000     0.0000 </r>
      <r>     6.5282    27.8891    53.1724    29.5621    -0.0000     0.0000     0.0000 </r>
      <r>     6.5486    27.9110    53.2224    29.5921    -0.0000     0.0000     0.0000 </r>
      <r>     6.5691    27.9329    53.2727    29.6223    -0.0000     0.0000     0.0000 </r>
      <r>     6.5896    27.9550    53.3232    29.6529    -0.0000     0.0000     0.0000 </r>
      <r>     6.6100    27.9772    53.3739    29.6838    -0.0000     0.0000     0.0000 </r>
      <r>     6.6305    27.9996    53.4249    29.7149    -0.0000     0.0000     0.0000 </r>
      <r>     6.6510    28.0220    53.4762    29.7463    -0.0000     0.0000     0.0000 </r>
      <r>     6.6714    28.0446    53.5277    29.7781    -0.0000     0.0000     0.0000 </r>
      <r>     6.6919    28.0673    53.5795    29.8101    -0.0000     0.0000     0.0000 </r>
      <r>     6.7124    28.0901    53.6315    29.8425    -0.0000     0.0000     0.0000 </r>
      <r>     6.7328    28.1130    53.6838    29.8752    -0.0000     0.0000     0.0000 </r>
      <r>     6.7533    28.1360    53.7364    29.9082    -0.0000     0.0000     0.0000 </r>
      <r>     6.7738    28.1592    53.7892    29.9416    -0.0000     0.0000     0.0000 </r>
      <r>     6.7942    28.1825    53.8423    29.9753    -0.0000     0.0000     0.0000 </r>
      <r>     6.8147    28.2059    53.8957    30.0093    -0.0000     0.0000     0.0000 </r>
      <r>     6.8351    28.2294    53.9493    30.0437    -0.0000     0.0000     0.0000 </r>
      <r>     6.8556    28.2530    54.0032    30.0785    -0.0000     0.0000     0.0000 </r>
      <r>     6.8761    28.2768    54.0574    30.1136    -0.0000     0.0000     0.0000 </r>
      <r>     6.8965    28.3007    54.1118    30.1491    -0.0000     0.0000     0.0000 </r>
      <r>     6.9170    28.3247    54.1665    30.1850    -0.0000     0.0000     0.0000 </r>
      <r>     6.9375    28.3489    54.2215    30.2212    -0.0000     0.0000     0.0000 </r>
      <r>     6.9579    28.3731    54.2767    30.2579    -0.0000     0.0000     0.0000 </r>
      <r>     6.9784    28.3975    54.3322    30.2949    -0.0000     0.0000     0.0000 </r>
      <r>     6.9989    28.4221    54.3880    30.3324    -0.0000     0.0000     0.0000 </r>
      <r>     7.0193    28.4467    54.4441    30.3703    -0.0000     0.0000     0.0000 </r>
      <r>     7.0398    28.4715    54.5005    30.4086    -0.0000     0.0000     0.0000 </r>
      <r>     7.0603    28.4965    54.5571    30.4474    -0.0000     0.0000     0.0000 </r>
      <r>     7.0807    28.5215    54.6141    30.4866    -0.0000     0.0000     0.0000 </r>
      <r>     7.1012    28.5467    54.6713    30.5262    -0.0000     0.0000     0.0000 </r>
      <r>     7.1216    28.5720    54.7288    30.5664    -0.0000     0.0000     0.0000 </r>
      <r>     7.1421    28.5975    54.7865    30.6070    -0.0000     0.0000     0.0000 </r>
      <r>     7.1626    28.6231    54.8446    30.6481    -0.0000     0.0000     0.0000 </r>
      <r>     7.1830    28.6488    54.9030    30.6897    -0.0000     0.0000     0.0000 </r>
      <r>     7.2035    28.6746    54.9616    30.7318    -0.0000     0.0000     0.0000 </r>
      <r>     7.2240    28.7006    55.0206    30.7744    -0.0000     0.0000     0.0000 </r>
      <r>     7.2444    28.7268    55.0798    30.8176    -0.0000     0.0000     0.0000 </r>
      <r>     7.2649    28.7530    55.1394    30.8613    -0.0000     0.0000     0.0000 </r>
      <r>     7.2854    28.7795    55.1992    30.9055    -0.0000     0.0000     0.0000 </r>
      <r>     7.3058    28.8060    55.2593    30.9504    -0.0000     0.0000     0.0000 </r>
      <r>     7.3263    28.8327    55.3198    30.9958    -0.0000     0.0000     0.0000 </r>
      <r>     7.3468    28.8595    55.3805    31.0418    -0.0000     0.0000     0.0000 </r>
      <r>     7.3672    28.8865    55.4415    31.0885    -0.0000     0.0000     0.0000 </r>
      <r>     7.3877    28.9136    55.5029    31.1358    -0.0000     0.0000     0.0000 </r>
      <r>     7.4081    28.9409    55.5645    31.1837    -0.0000     0.0000     0.0000 </r>
      <r>     7.4286    28.9683    55.6265    31.2323    -0.0000     0.0000     0.0000 </r>
      <r>     7.4491    28.9959    55.6887    31.2816    -0.0000     0.0000     0.0000 </r>
      <r>     7.4695    29.0236    55.7513    31.3316    -0.0000     0.0000     0.0000 </r>
      <r>     7.4900    29.0515    55.8142    31.3823    -0.0000     0.0000     0.0000 </r>
      <r>     7.5105    29.0795    55.8774    31.4338    -0.0000     0.0000     0.0000 </r>
      <r>     7.5309    29.1076    55.9410    31.4860    -0.0000     0.0000     0.0000 </r>
      <r>     7.5514    29.1359    56.0048    31.5390    -0.0000     0.0000     0.0000 </r>
      <r>     7.5719    29.1644    56.0690    31.5928    -0.0000     0.0000     0.0000 </r>
      <r>     7.5923    29.1930    56.1334    31.6475    -0.0000     0.0000     0.0000 </r>
      <r>     7.6128    29.2218    56.1982    31.7029    -0.0000     0.0000     0.0000 </r>
      <r>     7.6333    29.2507    56.2634    31.7593    -0.0000     0.0000     0.0000 </r>
      <r>     7.6537    29.2798    56.3288    31.8166    -0.0000     0.0000     0.0000 </r>
      <r>     7.6742    29.3091    56.3946    31.8748    -0.0000     0.0000     0.0000 </r>
      <r>     7.6947    29.3385    56.4607    31.9340    -0.0000     0.0000     0.0000 </r>
      <r>     7.7151    29.3680    56.5272    31.9941    -0.0000     0.0000     0.0000 </r>
      <r>     7.7356    29.3977    56.5940    32.0553    -0.0000     0.0000     0.0000 </r>
      <r>     7.7560    29.4276    56.6611    32.1175    -0.0000     0.0000     0.0000 </r>
      <r>     7.7765    29.4577    56.7285    32.1808    -0.0000     0.0000     0.0000 </r>
      <r>     7.7970    29.4879    56.7963    32.2453    -0.0000     0.0000     0.0000 </r>
      <r>     7.8174    29.5183    56.8645    32.3109    -0.0000     0.0000     0.0000 </r>
      <r>     7.8379    29.5488    56.9329    32.3777    -0.0000     0.0000     0.0000 </r>
      <r>     7.8584    29.5795    57.0018    32.4457    -0.0000     0.0000     0.0000 </r>
      <r>     7.8788    29.6104    57.0709    32.5150    -0.0000     0.0000     0.0000 </r>
      <r>     7.8993    29.6415    57.1404    32.5857    -0.0000     0.0000     0.0000 </r>
      <r>     7.9198    29.6727    57.2103    32.6577    -0.0000     0.0000     0.0000 </r>
      <r>     7.9402    29.7041    57.2805    32.7311    -0.0000     0.0000     0.0000 </r>
      <r>     7.9607    29.7357    57.3511    32.8061    -0.0000     0.0000     0.0000 </r>
      <r>     7.9812    29.7674    57.4220    32.8825    -0.0000     0.0000     0.0000 </r>
      <r>     8.0016    29.7993    57.4933    32.9606    -0.0000     0.0000     0.0000 </r>
      <r>     8.0221    29.8314    57.5650    33.0403    -0.0000     0.0000     0.0000 </r>
      <r>     8.0425    29.8637    57.6370    33.1217    -0.0000     0.0000     0.0000 </r>
      <r>     8.0630    29.8962    57.7094    33.2049    -0.0000     0.0000     0.0000 </r>
      <r>     8.0835    29.9288    57.7821    33.2899    -0.0000     0.0000     0.0000 </r>
      <r>     8.1039    29.9616    57.8552    33.3769    -0.0000     0.0000     0.0000 </r>
      <r>     8.1244    29.9946    57.9287    33.4659    -0.0000     0.0000     0.0000 </r>
      <r>     8.1449    30.0278    58.0026    33.5570    -0.0000     0.0000     0.0000 </r>
      <r>     8.1653    30.0612    58.0768    33.6502    -0.0000     0.0000     0.0000 </r>
      <r>     8.1858    30.0948    58.1514    33.7458    -0.0000     0.0000     0.0000 </r>
      <r>     8.2063    30.1285    58.2264    33.8437    -0.0000     0.0000     0.0000 </r>
      <r>     8.2267    30.1625    58.3018    33.9441    -0.0000     0.0000     0.0000 </r>
      <r>     8.2472    30.1966    58.3775    34.0470    -0.0000     0.0000     0.0000 </r>
      <r>     8.2677    30.2310    58.4537    34.1527    -0.0000     0.0000     0.0000 </r>
      <r>     8.2881    30.2655    58.5302    34.2613    -0.0000     0.0000     0.0000 </r>
      <r>     8.3086    30.3002    58.6071    34.3728    -0.0000     0.0000     0.0000 </r>
      <r>     8.3291    30.3352    58.6844    34.4875    -0.0000     0.0000     0.0000 </r>
      <r>     8.3495    30.3703    58.7621    34.6054    -0.0000     0.0000     0.0000 </r>
      <r>     8.3700    30.4056    58.8402    34.7268    -0.0000     0.0000     0.0000 </r>
      <r>     8.3904    30.4411    58.9187    34.8518    -0.0000     0.0000     0.0000 </r>
      <r>     8.4109    30.4769    58.9976    34.9806    -0.0000     0.0000     0.0000 </r>
      <r>     8.4314    30.5128    59.0769    35.1134    -0.0000     0.0000     0.0000 </r>
      <r>     8.4518    30.5490    59.1567    35.2505    -0.0000     0.0000     0.0000 </r>
      <r>     8.4723    30.5853    59.2368    35.3920    -0.0000     0.0000     0.0000 </r>
      <r>     8.4928    30.6219    59.3173    35.5383    -0.0000     0.0000     0.0000 </r>
      <r>     8.5132    30.6587    59.3983    35.6895    -0.0000     0.0000     0.0000 </r>
      <r>     8.5337    30.6957    59.4797    35.8461    -0.0000     0.0000     0.0000 </r>
      <r>     8.5542    30.7329    59.5614    36.0082    -0.0000     0.0000     0.0000 </r>
      <r>     8.5746    30.7704    59.6437    36.1764    -0.0000     0.0000     0.0000 </r>
      <r>     8.5951    30.8080    59.7263    36.3508    -0.0000     0.0000     0.0000 </r>
      <r>     8.6156    30.8459    59.8094    36.5320    -0.0000     0.0000     0.0000 </r>
      <r>     8.6360    30.8840    59.8928    36.7204    -0.0000     0.0000     0.0000 </r>
      <r>     8.6565    30.9223    59.9768    36.9164    -0.0000     0.0000     0.0000 </r>
      <r>     8.6769    30.9609    60.0611    37.1207    -0.0000     0.0000     0.0000 </r>
      <r>     8.6974    30.9997    60.1459    37.3337    -0.0000     0.0000     0.0000 </r>
      <r>     8.7179    31.0387    60.2312    37.5561    -0.0000     0.0000     0.0000 </r>
      <r>     8.7383    31.0779    60.3168    37.7886    -0.0000     0.0000     0.0000 </r>
      <r>     8.7588    31.1174    60.4030    38.0321    -0.0000     0.0000     0.0000 </r>
      <r>     8.7793    31.1571    60.4896    38.2872    -0.0000     0.0000     0.0000 </r>
      <r>     8.7997    31.1971    60.5766    38.5550    -0.0000     0.0000     0.0000 </r>
      <r>     8.8202    31.2373    60.6641    38.8365    -0.0000     0.0000     0.0000 </r>
      <r>     8.8407    31.2778    60.7520    39.1330    -0.0000     0.0000     0.0000 </r>
      <r>     8.8611    31.3185    60.8404    39.4456    -0.0000     0.0000     0.0000 </r>
      <r>     8.8816    31.3594    60.9293    39.7758    -0.0000     0.0000     0.0000 </r>
      <r>     8.9021    31.4006    61.0186    40.1253    -0.0000     0.0000     0.0000 </r>
      <r>     8.9225    31.4420    61.1084    40.4959    -0.0000     0.0000     0.0000 </r>
      <r>     8.9430    31.4837    61.1987    40.8898    -0.0000     0.0000     0.0000 </r>
      <r>     8.9635    31.5257    61.2894    41.3092    -0.0000     0.0000     0.0000 </r>
      <r>     8.9839    31.5679    61.3806    41.7569    -0.0000     0.0000     0.0000 </r>
      <r>     9.0044    31.6104    61.4723    42.2360    -0.0000     0.0000     0.0000 </r>
      <r>     9.0248    31.6531    61.5645    42.7502    -0.0000     0.0000     0.0000 </r>
      <r>     9.0453    31.6961    61.6572    43.3034    -0.0000     0.0000     0.0000 </r>
      <r>     9.0658    31.7394    61.7503    43.9005    -0.0000     0.0000     0.0000 </r>
      <r>     9.0862    31.7829    61.8440    44.5473    -0.0000     0.0000     0.0000 </r>
      <r>     9.1067    31.8268    61.9381    45.2502    -0.0000     0.0000     0.0000 </r>
      <r>     9.1272    31.8709    62.0328    46.0171    -0.0000     0.0000     0.0000 </r>
      <r>     9.1476    31.9152    62.1280    46.8575    -0.0000     0.0000     0.0000 </r>
      <r>     9.1681    31.9599    62.2236    47.7826    -0.0000     0.0000     0.0000 </r>
      <r>     9.1886    32.0048    62.3198    48.8061    -0.0000     0.0000     0.0000 </r>
      <r>     9.2090    32.0501    62.4165    49.9448    -0.0000     0.0000     0.0000 </r>
      <r>     9.2295    32.0956    62.5137    51.2193    -0.0000     0.0000     0.0000 </r>
      <r>     9.2500    32.1414    62.6114    52.6556    -0.0000     0.0000     0.0000 </r>
      <r>     9.2704    32.1875    62.7096    54.2862    -0.0000     0.0000     0.0000 </r>
      <r>     9.2909    32.2339    62.8084    56.1532    -0.0000     0.0000     0.0000 </r>
      <r>     9.3113    32.2806    62.9077    58.3107    -0.0000     0.0000     0.0000 </r>
      <r>     9.3318    32.3276    63.0076    60.8303    -0.0000     0.0000     0.0000 </r>
      <r>     9.3523    32.3749    63.1079    63.8070    -0.0000     0.0000     0.0000 </r>
      <r>     9.3727    32.4225    63.2089    67.3694    -0.0000     0.0000     0.0000 </r>
      <r>     9.3932    32.4704    63.3103    71.6925    -0.0000     0.0000     0.0000 </r>
      <r>     9.4137    32.5187    63.4123    77.0133    -0.0000     0.0000     0.0000 </r>
      <r>     9.4341    32.5673    63.5149    83.6394    -0.0000     0.0000     0.0000 </r>
      <r>     9.4546    32.6161    63.6180    91.9071    -0.0000     0.0000     0.0000 </r>
      <r>     9.4751    32.6654    63.7217   101.8967    -0.0000     0.0000     0.0000 </r>
      <r>     9.4955    32.7149    63.8259   112.0945    -0.0000     0.0000     0.0000 </r>
      <r>     9.5160    32.7648    63.9307   114.0611    -0.0000     0.0000     0.0000 </r>
      <r>     9.5365    32.8150    64.0361    81.1133    -0.0000     0.0000     0.0000 </r>
      <r>     9.5569    32.8655    64.1421     2.1493    -0.0000    -0.0000    -0.0000 </r>
      <r>     9.5774    32.9164    64.2486   -48.7098    -0.0000    -0.0000    -0.0000 </r>
      <r>     9.5979    32.9677    64.3557   -54.1274    -0.0000    -0.0000    -0.0000 </r>
      <r>     9.6183    33.0193    64.4634   -45.0391    -0.0000    -0.0000    -0.0000 </r>
      <r>     9.6388    33.0712    64.5717   -34.6531    -0.0000    -0.0000    -0.0000 </r>
      <r>     9.6592    33.1235    64.6806   -25.8021    -0.0000    -0.0000    -0.0000 </r>
      <r>     9.6797    33.1762    64.7901   -18.6760    -0.0000    -0.0000    -0.0000 </r>
      <r>     9.7002    33.2292    64.9002   -12.9666    -0.0000    -0.0000    -0.0000 </r>
      <r>     9.7206    33.2826    65.0109    -8.3471    -0.0000    -0.0000    -0.0000 </r>
      <r>     9.7411    33.3363    65.1222    -4.5576    -0.0000    -0.0000    -0.0000 </r>
      <r>     9.7616    33.3905    65.2342    -1.4045    -0.0000    -0.0000    -0.0000 </r>
      <r>     9.7820    33.4450    65.3467     1.2540    -0.0000    -0.0000    -0.0000 </r>
      <r>     9.8025    33.4999    65.4599     3.5228    -0.0000    -0.0000    -0.0000 </r>
      <r>     9.8230    33.5552    65.5737     5.4802    -0.0000    -0.0000    -0.0000 </r>
      <r>     9.8434    33.6109    65.6882     7.1855    -0.0000    -0.0000    -0.0000 </r>
      <r>     9.8639    33.6670    65.8033     8.6841    -0.0000    -0.0000    -0.0000 </r>
      <r>     9.8844    33.7235    65.9190    10.0114    -0.0000    -0.0000    -0.0000 </r>
      <r>     9.9048    33.7804    66.0354    11.1952    -0.0000    -0.0000    -0.0000 </r>
      <r>     9.9253    33.8377    66.1524    12.2579    -0.0000    -0.0000    -0.0000 </r>
      <r>     9.9457    33.8954    66.2701    13.2174    -0.0000    -0.0000    -0.0000 </r>
      <r>     9.9662    33.9535    66.3885    14.0881    -0.0000    -0.0000    -0.0000 </r>
      <r>     9.9867    34.0121    66.5075    14.8823    -0.0000    -0.0000    -0.0000 </r>
      <r>    10.0071    34.0711    66.6272    15.6097    -0.0000    -0.0000    -0.0000 </r>
      <r>    10.0276    34.1306    66.7476    16.2787    -0.0000    -0.0000    -0.0000 </r>
      <r>    10.0481    34.1904    66.8686    16.8964    -0.0000    -0.0000    -0.0000 </r>
      <r>    10.0685    34.2508    66.9904    17.4686    -0.0000    -0.0000    -0.0000 </r>
      <r>    10.0890    34.3116    67.1128    18.0004    -0.0000    -0.0000    -0.0000 </r>
      <r>    10.1095    34.3728    67.2360    18.4962    -0.0000    -0.0000    -0.0000 </r>
      <r>    10.1299    34.4345    67.3598    18.9597    -0.0000    -0.0000    -0.0000 </r>
      <r>    10.1504    34.4967    67.4844    19.3941    -0.0000    -0.0000    -0.0000 </r>
      <r>    10.1709    34.5593    67.6096    19.8023    -0.0000    -0.0000    -0.0000 </r>
      <r>    10.1913    34.6224    67.7356    20.1868    -0.0000    -0.0000    -0.0000 </r>
      <r>    10.2118    34.6860    67.8623    20.5498    -0.0000    -0.0000    -0.0000 </r>
      <r>    10.2323    34.7501    67.9898    20.8930    -0.0000    -0.0000    -0.0000 </r>
      <r>    10.2527    34.8147    68.1180    21.2184    -0.0000    -0.0000    -0.0000 </r>
      <r>    10.2732    34.8798    68.2469    21.5273    -0.0000    -0.0000    -0.0000 </r>
      <r>    10.2936    34.9454    68.3765    21.8212    -0.0000    -0.0000    -0.0000 </r>
      <r>    10.3141    35.0116    68.5070    22.1012    -0.0000    -0.0000    -0.0000 </r>
      <r>    10.3346    35.0782    68.6381    22.3684    -0.0000    -0.0000    -0.0000 </r>
      <r>    10.3550    35.1454    68.7701    22.6238    -0.0000    -0.0000    -0.0000 </r>
      <r>    10.3755    35.2131    68.9028    22.8683    -0.0000    -0.0000    -0.0000 </r>
      <r>    10.3960    35.2814    69.0363    23.1026    -0.0000    -0.0000    -0.0000 </r>
      <r>    10.4164    35.3502    69.1706    23.3276    -0.0000    -0.0000    -0.0000 </r>
      <r>    10.4369    35.4196    69.3056    23.5437    -0.0000    -0.0000    -0.0000 </r>
      <r>    10.4574    35.4895    69.4415    23.7518    -0.0000    -0.0000    -0.0000 </r>
      <r>    10.4778    35.5600    69.5781    23.9522    -0.0000    -0.0000    -0.0000 </r>
      <r>    10.4983    35.6311    69.7156    24.1454    -0.0000    -0.0000    -0.0000 </r>
      <r>    10.5188    35.7028    69.8539    24.3320    -0.0000    -0.0000    -0.0000 </r>
      <r>    10.5392    35.7751    69.9930    24.5124    -0.0000    -0.0000    -0.0000 </r>
      <r>    10.5597    35.8480    70.1329    24.6869    -0.0000    -0.0000    -0.0000 </r>
      <r>    10.5801    35.9215    70.2737    24.8559    -0.0000    -0.0000    -0.0000 </r>
      <r>    10.6006    35.9956    70.4153    25.0198    -0.0000    -0.0000    -0.0000 </r>
      <r>    10.6211    36.0703    70.5577    25.1787    -0.0000    -0.0000     0.0000 </r>
      <r>    10.6415    36.1457    70.7010    25.3331    -0.0000    -0.0000     0.0000 </r>
      <r>    10.6620    36.2218    70.8452    25.4831    -0.0000    -0.0000     0.0000 </r>
      <r>    10.6825    36.2985    70.9902    25.6291    -0.0000    -0.0000     0.0000 </r>
      <r>    10.7029    36.3758    71.1362    25.7712    -0.0000    -0.0000     0.0000 </r>
      <r>    10.7234    36.4539    71.2829    25.9096    -0.0000    -0.0000     0.0000 </r>
      <r>    10.7439    36.5326    71.4306    26.0445    -0.0000    -0.0000     0.0000 </r>
      <r>    10.7643    36.6120    71.5792    26.1762    -0.0000    -0.0000     0.0000 </r>
      <r>    10.7848    36.6921    71.7287    26.3048    -0.0000    -0.0000     0.0000 </r>
      <r>    10.8053    36.7730    71.8791    26.4304    -0.0000    -0.0000     0.0000 </r>
      <r>    10.8257    36.8546    72.0304    26.5532    -0.0000    -0.0000     0.0000 </r>
      <r>    10.8462    36.9369    72.1826    26.6734    -0.0000    -0.0000     0.0000 </r>
      <r>    10.8667    37.0199    72.3358    26.7910    -0.0000    -0.0000     0.0000 </r>
      <r>    10.8871    37.1038    72.4899    26.9062    -0.0000    -0.0000     0.0000 </r>
      <r>    10.9076    37.1884    72.6450    27.0191    -0.0000    -0.0000     0.0000 </r>
      <r>    10.9280    37.2738    72.8010    27.1299    -0.0000    -0.0000     0.0000 </r>
      <r>    10.9485    37.3599    72.9580    27.2385    -0.0000    -0.0000     0.0000 </r>
      <r>    10.9690    37.4469    73.1159    27.3452    -0.0000    -0.0000     0.0000 </r>
      <r>    10.9894    37.5347    73.2749    27.4500    -0.0000    -0.0000     0.0000 </r>
      <r>    11.0099    37.6234    73.4348    27.5529    -0.0000    -0.0000     0.0000 </r>
      <r>    11.0304    37.7129    73.5957    27.6542    -0.0000    -0.0000     0.0000 </r>
      <r>    11.0508    37.8032    73.7577    27.7537    -0.0000    -0.0000     0.0000 </r>
      <r>    11.0713    37.8945    73.9206    27.8517    -0.0000    -0.0000     0.0000 </r>
      <r>    11.0918    37.9866    74.0846    27.9482    -0.0000    -0.0000     0.0000 </r>
      <r>    11.1122    38.0796    74.2496    28.0433    -0.0000    -0.0000     0.0000 </r>
      <r>    11.1327    38.1736    74.4157    28.1370    -0.0000    -0.0000     0.0000 </r>
      <r>    11.1532    38.2685    74.5828    28.2293    -0.0000     0.0000     0.0000 </r>
      <r>    11.1736    38.3643    74.7510    28.3204    -0.0000     0.0000     0.0000 </r>
      <r>    11.1941    38.4611    74.9202    28.4103    -0.0000     0.0000     0.0000 </r>
      <r>    11.2145    38.5589    75.0905    28.4990    -0.0000     0.0000     0.0000 </r>
      <r>    11.2350    38.6576    75.2619    28.5866    -0.0000     0.0000     0.0000 </r>
      <r>    11.2555    38.7574    75.4344    28.6731    -0.0000     0.0000     0.0000 </r>
      <r>    11.2759    38.8583    75.6081    28.7586    -0.0000     0.0000     0.0000 </r>
      <r>    11.2964    38.9602    75.7828    28.8432    -0.0000     0.0000     0.0000 </r>
      <r>    11.3169    39.0631    75.9587    28.9268    -0.0000     0.0000     0.0000 </r>
      <r>    11.3373    39.1672    76.1357    29.0095    -0.0000     0.0000     0.0000 </r>
      <r>    11.3578    39.2723    76.3138    29.0913    -0.0000     0.0000     0.0000 </r>
      <r>    11.3783    39.3786    76.4931    29.1723    -0.0000     0.0000     0.0000 </r>
      <r>    11.3987    39.4860    76.6736    29.2525     0.0000     0.0000     0.0000 </r>
      <r>    11.4192    39.5946    76.8553    29.3319     0.0000     0.0000     0.0000 </r>
      <r>    11.4397    39.7044    77.0381    29.4106     0.0000     0.0000     0.0000 </r>
      <r>    11.4601    39.8155    77.2222    29.4886     0.0000     0.0000     0.0000 </r>
      <r>    11.4806    39.9277    77.4074    29.5660     0.0000     0.0000     0.0000 </r>
      <r>    11.5011    40.0412    77.5939    29.6427     0.0000     0.0000     0.0000 </r>
      <r>    11.5215    40.1560    77.7817    29.7187     0.0000     0.0000     0.0000 </r>
      <r>    11.5420    40.2721    77.9706    29.7942     0.0000     0.0000     0.0000 </r>
      <r>    11.5624    40.3896    78.1609    29.8691     0.0000     0.0000     0.0000 </r>
      <r>    11.5829    40.5084    78.3524    29.9434     0.0000     0.0000     0.0000 </r>
      <r>    11.6034    40.6285    78.5451    30.0172     0.0000     0.0000     0.0000 </r>
      <r>    11.6238    40.7501    78.7392    30.0905     0.0000     0.0000     0.0000 </r>
      <r>    11.6443    40.8732    78.9346    30.1633     0.0000     0.0000     0.0000 </r>
      <r>    11.6648    40.9977    79.1313    30.2357     0.0000     0.0000     0.0000 </r>
      <r>    11.6852    41.1237    79.3293    30.3076     0.0000     0.0000     0.0000 </r>
      <r>    11.7057    41.2513    79.5287    30.3790     0.0000     0.0000     0.0000 </r>
      <r>    11.7262    41.3804    79.7294    30.4501     0.0000     0.0000     0.0000 </r>
      <r>    11.7466    41.5111    79.9315    30.5208     0.0000     0.0000     0.0000 </r>
      <r>    11.7671    41.6434    80.1350    30.5911     0.0000     0.0000     0.0000 </r>
      <r>    11.7876    41.7774    80.3399    30.6610     0.0000     0.0000     0.0000 </r>
      <r>    11.8080    41.9131    80.5462    30.7306     0.0000     0.0000     0.0000 </r>
      <r>    11.8285    42.0506    80.7539    30.7998     0.0000     0.0000     0.0000 </r>
      <r>    11.8489    42.1898    80.9631    30.8688     0.0000     0.0000     0.0000 </r>
      <r>    11.8694    42.3308    81.1736    30.9374     0.0000     0.0000     0.0000 </r>
      <r>    11.8899    42.4737    81.3857    31.0058     0.0000     0.0000     0.0000 </r>
      <r>    11.9103    42.6184    81.5992    31.0738     0.0000     0.0000     0.0000 </r>
      <r>    11.9308    42.7651    81.8143    31.1417     0.0000     0.0000     0.0000 </r>
      <r>    11.9513    42.9138    82.0308    31.2092     0.0000     0.0000     0.0000 </r>
      <r>    11.9717    43.0645    82.2489    31.2765     0.0000     0.0000     0.0000 </r>
      <r>    11.9922    43.2173    82.4685    31.3436     0.0000     0.0000     0.0000 </r>
      <r>    12.0127    43.3722    82.6897    31.4105     0.0000     0.0000     0.0000 </r>
      <r>    12.0331    43.5293    82.9124    31.4772     0.0000     0.0000     0.0000 </r>
      <r>    12.0536    43.6885    83.1367    31.5437     0.0000     0.0000     0.0000 </r>
      <r>    12.0741    43.8501    83.3626    31.6100     0.0000     0.0000     0.0000 </r>
      <r>    12.0945    44.0140    83.5901    31.6761     0.0000     0.0000     0.0000 </r>
      <r>    12.1150    44.1803    83.8193    31.7421     0.0000     0.0000     0.0000 </r>
      <r>    12.1354    44.3490    84.0501    31.8079     0.0000     0.0000     0.0000 </r>
      <r>    12.1559    44.5202    84.2826    31.8735     0.0000     0.0000     0.0000 </r>
      <r>    12.1764    44.6940    84.5168    31.9391     0.0000     0.0000     0.0000 </r>
      <r>    12.1968    44.8704    84.7526    32.0045     0.0000     0.0000     0.0000 </r>
      <r>    12.2173    45.0495    84.9902    32.0698     0.0000     0.0000     0.0000 </r>
      <r>    12.2378    45.2314    85.2296    32.1349     0.0000     0.0000     0.0000 </r>
      <r>    12.2582    45.4161    85.4706    32.2000     0.0000     0.0000     0.0000 </r>
      <r>    12.2787    45.6038    85.7135    32.2650     0.0000     0.0000     0.0000 </r>
      <r>    12.2992    45.7944    85.9581    32.3298     0.0000     0.0000     0.0000 </r>
      <r>    12.3196    45.9881    86.2046    32.3946     0.0000     0.0000     0.0000 </r>
      <r>    12.3401    46.1850    86.4529    32.4594     0.0000     0.0000     0.0000 </r>
      <r>    12.3606    46.3851    86.7030    32.5240     0.0000     0.0000     0.0000 </r>
      <r>    12.3810    46.5885    86.9550    32.5887     0.0000     0.0000     0.0000 </r>
      <r>    12.4015    46.7954    87.2089    32.6532     0.0000     0.0000     0.0000 </r>
      <r>    12.4220    47.0058    87.4647    32.7177     0.0000     0.0000     0.0000 </r>
      <r>    12.4424    47.2198    87.7225    32.7822     0.0000     0.0000     0.0000 </r>
      <r>    12.4629    47.4375    87.9822    32.8466     0.0000     0.0000     0.0000 </r>
      <r>    12.4833    47.6591    88.2438    32.9111     0.0000     0.0000     0.0000 </r>
      <r>    12.5038    47.8846    88.5075    32.9755     0.0000     0.0000     0.0000 </r>
      <r>    12.5243    48.1142    88.7732    33.0398     0.0000     0.0000     0.0000 </r>
      <r>    12.5447    48.3480    89.0409    33.1042     0.0000     0.0000     0.0000 </r>
      <r>    12.5652    48.5861    89.3107    33.1686     0.0000     0.0000     0.0000 </r>
      <r>    12.5857    48.8286    89.5825    33.2330     0.0000     0.0000     0.0000 </r>
      <r>    12.6061    49.0758    89.8565    33.2974     0.0000     0.0000     0.0000 </r>
      <r>    12.6266    49.3276    90.1326    33.3618     0.0000     0.0000     0.0000 </r>
      <r>    12.6471    49.5844    90.4108    33.4262     0.0000     0.0000     0.0000 </r>
      <r>    12.6675    49.8462    90.6912    33.4906     0.0000     0.0000     0.0000 </r>
      <r>    12.6880    50.1132    90.9739    33.5551     0.0000     0.0000     0.0000 </r>
      <r>    12.7085    50.3856    91.2587    33.6196     0.0000     0.0000     0.0000 </r>
      <r>    12.7289    50.6635    91.5458    33.6842     0.0000     0.0000     0.0000 </r>
      <r>    12.7494    50.9472    91.8352    33.7488     0.0000     0.0000     0.0000 </r>
      <r>    12.7698    51.2369    92.1269    33.8134     0.0000     0.0000     0.0000 </r>
      <r>    12.7903    51.5327    92.4209    33.8781     0.0000     0.0000     0.0000 </r>
      <r>    12.8108    51.8349    92.7173    33.9429     0.0000     0.0000     0.0000 </r>
      <r>    12.8312    52.1436    93.0161    34.0077     0.0000     0.0000     0.0000 </r>
      <r>    12.8517    52.4592    93.3172    34.0726     0.0000     0.0000     0.0000 </r>
      <r>    12.8722    52.7819    93.6209    34.1376     0.0000     0.0000     0.0000 </r>
      <r>    12.8926    53.1119    93.9269    34.2026     0.0000     0.0000     0.0000 </r>
      <r>    12.9131    53.4496    94.2355    34.2678     0.0000     0.0000     0.0000 </r>
      <r>    12.9336    53.7951    94.5466    34.3330     0.0000     0.0000     0.0000 </r>
      <r>    12.9540    54.1489    94.8603    34.3983     0.0000     0.0000     0.0000 </r>
      <r>    12.9745    54.5112    95.1766    34.4637     0.0000     0.0000     0.0000 </r>
      <r>    12.9950    54.8824    95.4955    34.5292     0.0000     0.0000     0.0000 </r>
      <r>    13.0154    55.2629    95.8170    34.5948     0.0000     0.0000     0.0000 </r>
      <r>    13.0359    55.6529    96.1412    34.6605     0.0000     0.0000     0.0000 </r>
      <r>    13.0564    56.0529    96.4681    34.7263     0.0000     0.0000     0.0000 </r>
      <r>    13.0768    56.4634    96.7978    34.7922     0.0000     0.0000     0.0000 </r>
      <r>    13.0973    56.8847    97.1303    34.8583     0.0000     0.0000     0.0000 </r>
      <r>    13.1177    57.3174    97.4656    34.9244     0.0000     0.0000     0.0000 </r>
      <r>    13.1382    57.7619    97.8037    34.9907     0.0000     0.0000     0.0000 </r>
      <r>    13.1587    58.2188    98.1447    35.0571     0.0000     0.0000     0.0000 </r>
      <r>    13.1791    58.6886    98.4887    35.1237     0.0000     0.0000     0.0000 </r>
      <r>    13.1996    59.1720    98.8356    35.1904     0.0000     0.0000     0.0000 </r>
      <r>    13.2201    59.6695    99.1855    35.2572     0.0000     0.0000     0.0000 </r>
      <r>    13.2405    60.1818    99.5384    35.3242     0.0000     0.0000     0.0000 </r>
      <r>    13.2610    60.7096    99.8944    35.3913     0.0000     0.0000     0.0000 </r>
      <r>    13.2815    61.2538   100.2535    35.4586     0.0000     0.0000     0.0000 </r>
      <r>    13.3019    61.8151   100.6158    35.5261     0.0000     0.0000     0.0000 </r>
      <r>    13.3224    62.3943   100.9812    35.5936     0.0000     0.0000     0.0000 </r>
      <r>    13.3429    62.9925   101.3499    35.6614     0.0000     0.0000     0.0000 </r>
      <r>    13.3633    63.6107   101.7219    35.7293     0.0000     0.0000     0.0000 </r>
      <r>    13.3838    64.2498   102.0972    35.7974     0.0000     0.0000     0.0000 </r>
      <r>    13.4042    64.9110   102.4758    35.8657     0.0000     0.0000     0.0000 </r>
      <r>    13.4247    65.5956   102.8578    35.9341     0.0000     0.0000     0.0000 </r>
      <r>    13.4452    66.3050   103.2433    36.0027     0.0000     0.0000     0.0000 </r>
      <r>    13.4656    67.0404   103.6323    36.0715     0.0000     0.0000     0.0000 </r>
      <r>    13.4861    67.8035   104.0248    36.1405     0.0000     0.0000     0.0000 </r>
      <r>    13.5066    68.5960   104.4209    36.2097     0.0000     0.0000     0.0000 </r>
      <r>    13.5270    69.4196   104.8207    36.2790     0.0000     0.0000     0.0000 </r>
      <r>    13.5475    70.2763   105.2241    36.3486     0.0000     0.0000     0.0000 </r>
      <r>    13.5680    71.1682   105.6313    36.4183     0.0000     0.0000     0.0000 </r>
      <r>    13.5884    72.0977   106.0422    36.4883     0.0000     0.0000     0.0000 </r>
      <r>    13.6089    73.0672   106.4570    36.5584     0.0000     0.0000     0.0000 </r>
      <r>    13.6294    74.0795   106.8757    36.6288     0.0000     0.0000     0.0000 </r>
      <r>    13.6498    75.1377   107.2983    36.6994     0.0000     0.0000     0.0000 </r>
      <r>    13.6703    76.2450   107.7249    36.7702     0.0000     0.0000     0.0000 </r>
      <r>    13.6908    77.4050   108.1556    36.8412     0.0000     0.0000     0.0000 </r>
      <r>    13.7112    78.6217   108.5904    36.9124     0.0000     0.0000     0.0000 </r>
      <r>    13.7317    79.8995   109.0293    36.9839     0.0000     0.0000     0.0000 </r>
      <r>    13.7521    81.2434   109.4725    37.0556     0.0000     0.0000     0.0000 </r>
      <r>    13.7726    82.6586   109.9199    37.1275     0.0000     0.0000     0.0000 </r>
      <r>    13.7931    84.1513   110.3717    37.1997     0.0000     0.0000     0.0000 </r>
      <r>    13.8135    85.7280   110.8279    37.2721     0.0000     0.0000     0.0000 </r>
      <r>    13.8340    87.3964   111.2886    37.3447     0.0000     0.0000     0.0000 </r>
      <r>    13.8545    89.1647   111.7538    37.4176     0.0000     0.0000     0.0000 </r>
      <r>    13.8749    91.0425   112.2237    37.4907     0.0000     0.0000     0.0000 </r>
      <r>    13.8954    93.0405   112.6981    37.5641     0.0000     0.0000     0.0000 </r>
      <r>    13.9159    95.1707   113.1774    37.6377     0.0000     0.0000     0.0000 </r>
      <r>    13.9363    97.4471   113.6614    37.7116     0.0000     0.0000     0.0000 </r>
      <r>    13.9568    99.8855   114.1503    37.7857     0.0000     0.0000     0.0000 </r>
      <r>    13.9773   102.5039   114.6442    37.8601     0.0000     0.0000     0.0000 </r>
      <r>    13.9977   105.3233   115.1430    37.9348     0.0000     0.0000     0.0000 </r>
      <r>    14.0182   108.3682   115.6470    38.0097     0.0000     0.0000     0.0000 </r>
      <r>    14.0386   111.6668   116.1562    38.0849     0.0000     0.0000     0.0000 </r>
      <r>    14.0591   115.2525   116.6706    38.1604     0.0000     0.0000     0.0000 </r>
      <r>    14.0796   119.1648   117.1903    38.2361     0.0000     0.0000     0.0000 </r>
      <r>    14.1000   123.4503   117.7155    38.3122     0.0000     0.0000     0.0000 </r>
      <r>    14.1205   128.1653   118.2462    38.3885     0.0000     0.0000     0.0000 </r>
      <r>    14.1410   133.3777   118.7824    38.4651     0.0000     0.0000     0.0000 </r>
      <r>    14.1614   139.1700   119.3243    38.5420     0.0000     0.0000     0.0000 </r>
      <r>    14.1819   145.6442   119.8720    38.6192     0.0000     0.0000     0.0000 </r>
      <r>    14.2024   152.9266   120.4256    38.6967     0.0000     0.0000     0.0000 </r>
      <r>    14.2228   161.1764   120.9850    38.7745     0.0000     0.0000     0.0000 </r>
      <r>    14.2433   170.5958   121.5506    38.8527     0.0000     0.0000     0.0000 </r>
      <r>    14.2638   181.4460   122.1222    38.9311     0.0000     0.0000     0.0000 </r>
      <r>    14.2842   194.0676   122.7001    39.0098     0.0000     0.0000     0.0000 </r>
      <r>    14.3047   208.9127   123.2843    39.0888     0.0000     0.0000     0.0000 </r>
      <r>    14.3252   226.5880   123.8750    39.1682     0.0000     0.0000     0.0000 </r>
      <r>    14.3456   247.9172   124.4722    39.2479     0.0000     0.0000     0.0000 </r>
      <r>    14.3661   274.0212   125.0760    39.3279     0.0000     0.0000     0.0000 </r>
      <r>    14.3865   306.3945   125.6867    39.4082     0.0000     0.0000     0.0000 </r>
      <r>    14.4070   346.8585   126.3042    39.4888     0.0000     0.0000     0.0000 </r>
      <r>    14.4275   396.8550   126.9286    39.5698     0.0000     0.0000     0.0000 </r>
      <r>    14.4479   453.7879   127.5602    39.6512     0.0000     0.0000     0.0000 </r>
      <r>    14.4684   495.1656   128.1990    39.7328     0.0000     0.0000     0.0000 </r>
      <r>    14.4889   427.1920   128.8452    39.8148     0.0000     0.0000     0.0000 </r>
      <r>    14.5093    87.2743   129.4988    39.8972     0.0000     0.0000     0.0000 </r>
      <r>    14.5298  -308.3777   130.1600    39.9799    -0.0000     0.0000    -0.0000 </r>
      <r>    14.5503  -428.1701   130.8290    40.0630    -0.0000     0.0000    -0.0000 </r>
      <r>    14.5707  -399.6410   131.5058    40.1464    -0.0000     0.0000    -0.0000 </r>
      <r>    14.5912  -342.9054   132.1906    40.2302    -0.0000     0.0000    -0.0000 </r>
      <r>    14.6117  -290.7377   132.8836    40.3144    -0.0000     0.0000    -0.0000 </r>
      <r>    14.6321  -248.1238   133.5849    40.3989    -0.0000     0.0000    -0.0000 </r>
      <r>    14.6526  -214.0270   134.2946    40.4838    -0.0000     0.0000    -0.0000 </r>
      <r>    14.6730  -186.6032   135.0128    40.5690    -0.0000     0.0000    -0.0000 </r>
      <r>    14.6935  -164.2672   135.7399    40.6547    -0.0000     0.0000    -0.0000 </r>
      <r>    14.7140  -145.8165   136.4758    40.7407    -0.0000     0.0000    -0.0000 </r>
      <r>    14.7344  -130.3657   137.2208    40.8271    -0.0000     0.0000    -0.0000 </r>
      <r>    14.7549  -117.2636   137.9750    40.9140    -0.0000     0.0000    -0.0000 </r>
      <r>    14.7754  -106.0266   138.7386    41.0012    -0.0000     0.0000    -0.0000 </r>
      <r>    14.7958   -96.2912   139.5118    41.0888    -0.0000     0.0000    -0.0000 </r>
      <r>    14.8163   -87.7799   140.2948    41.1768    -0.0000     0.0000    -0.0000 </r>
      <r>    14.8368   -80.2783   141.0877    41.2652    -0.0000     0.0000    -0.0000 </r>
      <r>    14.8572   -73.6183   141.8907    41.3540    -0.0000     0.0000    -0.0000 </r>
      <r>    14.8777   -67.6665   142.7040    41.4432    -0.0000     0.0000    -0.0000 </r>
      <r>    14.8982   -62.3161   143.5278    41.5329    -0.0000     0.0000    -0.0000 </r>
      <r>    14.9186   -57.4802   144.3624    41.6230    -0.0000     0.0000    -0.0000 </r>
      <r>    14.9391   -53.0880   145.2079    41.7135    -0.0000     0.0000    -0.0000 </r>
      <r>    14.9596   -49.0806   146.0645    41.8044    -0.0000     0.0000    -0.0000 </r>
      <r>    14.9800   -45.4094   146.9325    41.8957    -0.0000     0.0000    -0.0000 </r>
      <r>    15.0005   -42.0333   147.8121    41.9875    -0.0000     0.0000    -0.0000 </r>
      <r>    15.0209   -38.9177   148.7034    42.0798    -0.0000     0.0000    -0.0000 </r>
      <r>    15.0414   -36.0331   149.6069    42.1725    -0.0000     0.0000    -0.0000 </r>
      <r>    15.0619   -33.3543   150.5226    42.2656    -0.0000     0.0000    -0.0000 </r>
      <r>    15.0823   -30.8597   151.4509    42.3592    -0.0000     0.0000    -0.0000 </r>
      <r>    15.1028   -28.5304   152.3919    42.4532    -0.0000     0.0000    -0.0000 </r>
      <r>    15.1233   -26.3502   153.3461    42.5477    -0.0000     0.0000    -0.0000 </r>
      <r>    15.1437   -24.3047   154.3136    42.6427    -0.0000     0.0000    -0.0000 </r>
      <r>    15.1642   -22.3814   155.2946    42.7381    -0.0000     0.0000    -0.0000 </r>
      <r>    15.1847   -20.5695   156.2896    42.8340    -0.0000     0.0000    -0.0000 </r>
      <r>    15.2051   -18.8590   157.2988    42.9304    -0.0000     0.0000    -0.0000 </r>
      <r>    15.2256   -17.2414   158.3225    43.0273    -0.0000     0.0000    -0.0000 </r>
      <r>    15.2461   -15.7090   159.3610    43.1247    -0.0000     0.0000    -0.0000 </r>
      <r>    15.2665   -14.2549   160.4147    43.2225    -0.0000     0.0000    -0.0000 </r>
      <r>    15.2870   -12.8729   161.4838    43.3209    -0.0000     0.0000    -0.0000 </r>
      <r>    15.3074   -11.5575   162.5687    43.4197    -0.0000     0.0000    -0.0000 </r>
      <r>    15.3279   -10.3037   163.6697    43.5191    -0.0000     0.0000    -0.0000 </r>
      <r>    15.3484    -9.1070   164.7873    43.6190    -0.0000     0.0000    -0.0000 </r>
      <r>    15.3688    -7.9633   165.9217    43.7194    -0.0000     0.0000    -0.0000 </r>
      <r>    15.3893    -6.8690   167.0735    43.8203    -0.0000     0.0000    -0.0000 </r>
      <r>    15.4098    -5.8206   168.2429    43.9217    -0.0000     0.0000    -0.0000 </r>
      <r>    15.4302    -4.8151   169.4303    44.0237    -0.0000     0.0000    -0.0000 </r>
      <r>    15.4507    -3.8496   170.6362    44.1262    -0.0000     0.0000    -0.0000 </r>
      <r>    15.4712    -2.9217   171.8611    44.2292    -0.0000     0.0000    -0.0000 </r>
      <r>    15.4916    -2.0288   173.1053    44.3328    -0.0000     0.0000    -0.0000 </r>
      <r>    15.5121    -1.1689   174.3694    44.4369    -0.0000     0.0000    -0.0000 </r>
      <r>    15.5326    -0.3400   175.6537    44.5416    -0.0000     0.0000    -0.0000 </r>
      <r>    15.5530     0.4598   176.9588    44.6468    -0.0000     0.0000    -0.0000 </r>
      <r>    15.5735     1.2322   178.2852    44.7526    -0.0000     0.0000    -0.0000 </r>
      <r>    15.5940     1.9787   179.6335    44.8590    -0.0000     0.0000    -0.0000 </r>
      <r>    15.6144     2.7009   181.0040    44.9660    -0.0000     0.0000    -0.0000 </r>
      <r>    15.6349     3.4000   182.3975    45.0735    -0.0000     0.0000    -0.0000 </r>
      <r>    15.6553     4.0773   183.8145    45.1816    -0.0000     0.0000    -0.0000 </r>
      <r>    15.6758     4.7341   185.2555    45.2903    -0.0000     0.0000    -0.0000 </r>
      <r>    15.6963     5.3713   186.7213    45.3996    -0.0000     0.0000    -0.0000 </r>
      <r>    15.7167     5.9900   188.2123    45.5095    -0.0000     0.0000    -0.0000 </r>
      <r>    15.7372     6.5911   189.7294    45.6201    -0.0000     0.0000    -0.0000 </r>
      <r>    15.7577     7.1756   191.2731    45.7312    -0.0000     0.0000    -0.0000 </r>
      <r>    15.7781     7.7442   192.8442    45.8429    -0.0000     0.0000    -0.0000 </r>
      <r>    15.7986     8.2978   194.4434    45.9553    -0.0000     0.0000    -0.0000 </r>
      <r>    15.8191     8.8370   196.0715    46.0683    -0.0000     0.0000    -0.0000 </r>
      <r>    15.8395     9.3626   197.7292    46.1820    -0.0000     0.0000    -0.0000 </r>
      <r>    15.8600     9.8752   199.4174    46.2962    -0.0000     0.0000    -0.0000 </r>
      <r>    15.8805    10.3754   201.1368    46.4112    -0.0000     0.0000    -0.0000 </r>
      <r>    15.9009    10.8637   202.8885    46.5267    -0.0000     0.0000    -0.0000 </r>
      <r>    15.9214    11.3408   204.6732    46.6430    -0.0000     0.0000    -0.0000 </r>
      <r>    15.9418    11.8071   206.4919    46.7599    -0.0000     0.0000    -0.0000 </r>
      <r>    15.9623    12.2631   208.3457    46.8775    -0.0000     0.0000    -0.0000 </r>
      <r>    15.9828    12.7092   210.2354    46.9958    -0.0000     0.0000    -0.0000 </r>
      <r>    16.0032    13.1460   212.1622    47.1147    -0.0000     0.0000    -0.0000 </r>
      <r>    16.0237    13.5737   214.1272    47.2344    -0.0000     0.0000    -0.0000 </r>
      <r>    16.0442    13.9927   216.1315    47.3547    -0.0000     0.0000    -0.0000 </r>
      <r>    16.0646    14.4036   218.1763    47.4757    -0.0000     0.0000    -0.0000 </r>
      <r>    16.0851    14.8065   220.2628    47.5975    -0.0000     0.0000    -0.0000 </r>
      <r>    16.1056    15.2018   222.3923    47.7200    -0.0000     0.0000    -0.0000 </r>
      <r>    16.1260    15.5898   224.5661    47.8432    -0.0000     0.0000    -0.0000 </r>
      <r>    16.1465    15.9708   226.7857    47.9671    -0.0000     0.0000    -0.0000 </r>
      <r>    16.1670    16.3452   229.0525    48.0918    -0.0000     0.0000    -0.0000 </r>
      <r>    16.1874    16.7131   231.3680    48.2172    -0.0000     0.0000    -0.0000 </r>
      <r>    16.2079    17.0749   233.7338    48.3434    -0.0000     0.0000    -0.0000 </r>
      <r>    16.2284    17.4307   236.1515    48.4703    -0.0000     0.0000    -0.0000 </r>
      <r>    16.2488    17.7808   238.6229    48.5981    -0.0000     0.0000    -0.0000 </r>
      <r>    16.2693    18.1254   241.1497    48.7265    -0.0000     0.0000    -0.0000 </r>
      <r>    16.2897    18.4648   243.7339    48.8558    -0.0000     0.0000    -0.0000 </r>
      <r>    16.3102    18.7991   246.3774    48.9859    -0.0000     0.0000    -0.0000 </r>
      <r>    16.3307    19.1286   249.0822    49.1167    -0.0000     0.0000    -0.0000 </r>
      <r>    16.3511    19.4534   251.8506    49.2484    -0.0000     0.0000    -0.0000 </r>
      <r>    16.3716    19.7737   254.6847    49.3809    -0.0000     0.0000    -0.0000 </r>
      <r>    16.3921    20.0896   257.5870    49.5142    -0.0000     0.0000    -0.0000 </r>
      <r>    16.4125    20.4014   260.5599    49.6483    -0.0000     0.0000    -0.0000 </r>
      <r>    16.4330    20.7092   263.6060    49.7833    -0.0000     0.0000    -0.0000 </r>
      <r>    16.4535    21.0131   266.7280    49.9191    -0.0000     0.0000    -0.0000 </r>
      <r>    16.4739    21.3133   269.9289    50.0558    -0.0000     0.0000    -0.0000 </r>
      <r>    16.4944    21.6100   273.2116    50.1933    -0.0000     0.0000    -0.0000 </r>
      <r>    16.5149    21.9032   276.5793    50.3317    -0.0000     0.0000    -0.0000 </r>
      <r>    16.5353    22.1931   280.0353    50.4710    -0.0000     0.0000    -0.0000 </r>
      <r>    16.5558    22.4798   283.5832    50.6112    -0.0000     0.0000    -0.0000 </r>
      <r>    16.5762    22.7634   287.2266    50.7523    -0.0000     0.0000    -0.0000 </r>
      <r>    16.5967    23.0441   290.9694    50.8943    -0.0000     0.0000    -0.0000 </r>
      <r>    16.6172    23.3219   294.8158    51.0372    -0.0000     0.0000    -0.0000 </r>
      <r>    16.6376    23.5970   298.7701    51.1810    -0.0000     0.0000    -0.0000 </r>
      <r>    16.6581    23.8695   302.8368    51.3258    -0.0000     0.0000    -0.0000 </r>
      <r>    16.6786    24.1395   307.0210    51.4715    -0.0000     0.0000    -0.0000 </r>
      <r>    16.6990    24.4070   311.3276    51.6182    -0.0000     0.0000    -0.0000 </r>
      <r>    16.7195    24.6721   315.7621    51.7658    -0.0000     0.0000    -0.0000 </r>
      <r>    16.7400    24.9350   320.3303    51.9144    -0.0000     0.0000    -0.0000 </r>
      <r>    16.7604    25.1957   325.0384    52.0640    -0.0000     0.0000    -0.0000 </r>
      <r>    16.7809    25.4544   329.8928    52.2146    -0.0000     0.0000    -0.0000 </r>
      <r>    16.8014    25.7110   334.9004    52.3662    -0.0000     0.0000    -0.0000 </r>
      <r>    16.8218    25.9657   340.0686    52.5188    -0.0000     0.0000    -0.0000 </r>
      <r>    16.8423    26.2186   345.4052    52.6724    -0.0000     0.0000    -0.0000 </r>
      <r>    16.8627    26.4697   350.9186    52.8271    -0.0000     0.0000    -0.0000 </r>
      <r>    16.8832    26.7191   356.6176    52.9828    -0.0000     0.0000    -0.0000 </r>
      <r>    16.9037    26.9668   362.5118    53.1396    -0.0000     0.0000    -0.0000 </r>
      <r>    16.9241    27.2130   368.6114    53.2974    -0.0000     0.0000    -0.0000 </r>
      <r>    16.9446    27.4577   374.9273    53.4563    -0.0000     0.0000    -0.0000 </r>
      <r>    16.9651    27.7010   381.4710    53.6164    -0.0000     0.0000    -0.0000 </r>
      <r>    16.9855    27.9428   388.2553    53.7775    -0.0000     0.0000    -0.0000 </r>
      <r>    17.0060    28.1834   395.2935    53.9397    -0.0000     0.0000    -0.0000 </r>
      <r>    17.0265    28.4227   402.6001    54.1031    -0.0000     0.0000    -0.0000 </r>
      <r>    17.0469    28.6608   410.1907    54.2676    -0.0000     0.0000    -0.0000 </r>
      <r>    17.0674    28.8978   418.0823    54.4332    -0.0000     0.0000    -0.0000 </r>
      <r>    17.0879    29.1336   426.2929    54.6000    -0.0000     0.0000    -0.0000 </r>
      <r>    17.1083    29.3685   434.8423    54.7680    -0.0000     0.0000    -0.0000 </r>
      <r>    17.1288    29.6023   443.7519    54.9372    -0.0000     0.0000    -0.0000 </r>
      <r>    17.1493    29.8352   453.0447    55.1076    -0.0000     0.0000    -0.0000 </r>
      <r>    17.1697    30.0672   462.7462    55.2792    -0.0000     0.0000    -0.0000 </r>
      <r>    17.1902    30.2984   472.8836    55.4520    -0.0000     0.0000    -0.0000 </r>
      <r>    17.2106    30.5288   483.4870    55.6261    -0.0000     0.0000    -0.0000 </r>
      <r>    17.2311    30.7585   494.5892    55.8014    -0.0000     0.0000    -0.0000 </r>
      <r>    17.2516    30.9874   506.2261    55.9780    -0.0000     0.0000    -0.0000 </r>
      <r>    17.2720    31.2157   518.4371    56.1559    -0.0000     0.0000    -0.0000 </r>
      <r>    17.2925    31.4434   531.2657    56.3351    -0.0000     0.0000    -0.0000 </r>
      <r>    17.3130    31.6705   544.7598    56.5156    -0.0000     0.0000    -0.0000 </r>
      <r>    17.3334    31.8971   558.9724    56.6974    -0.0000     0.0000    -0.0000 </r>
      <r>    17.3539    32.1232   573.9621    56.8805    -0.0000     0.0000    -0.0000 </r>
      <r>    17.3744    32.3488   589.7944    57.0651    -0.0000     0.0000    -0.0000 </r>
      <r>    17.3948    32.5740   606.5419    57.2509    -0.0000     0.0000    -0.0000 </r>
      <r>    17.4153    32.7989   624.2860    57.4382    -0.0000     0.0000    -0.0000 </r>
      <r>    17.4358    33.0234   643.1182    57.6269    -0.0000     0.0000    -0.0000 </r>
      <r>    17.4562    33.2476   663.1410    57.8170    -0.0000     0.0000    -0.0000 </r>
      <r>    17.4767    33.4716   684.4706    58.0085    -0.0000     0.0000    -0.0000 </r>
      <r>    17.4971    33.6953   707.2385    58.2015    -0.0000     0.0000    -0.0000 </r>
      <r>    17.5176    33.9189   731.5944    58.3960    -0.0000     0.0000    -0.0000 </r>
      <r>    17.5381    34.1423   757.7095    58.5919    -0.0000     0.0000    -0.0000 </r>
      <r>    17.5585    34.3656   785.7803    58.7893    -0.0000     0.0000    -0.0000 </r>
      <r>    17.5790    34.5888   816.0334    58.9883    -0.0000     0.0000    -0.0000 </r>
      <r>    17.5995    34.8119   848.7316    59.1888    -0.0000     0.0000    -0.0000 </r>
      <r>    17.6199    35.0350   884.1814    59.3909    -0.0000     0.0000    -0.0000 </r>
      <r>    17.6404    35.2581   922.7422    59.5945    -0.0000     0.0000    -0.0000 </r>
      <r>    17.6609    35.4813   964.8383    59.7997    -0.0000     0.0000    -0.0000 </r>
      <r>    17.6813    35.7046  1010.9738    60.0066    -0.0000     0.0000    -0.0000 </r>
      <r>    17.7018    35.9279  1061.7521    60.2151    -0.0000     0.0000    -0.0000 </r>
      <r>    17.7223    36.1514  1117.9018    60.4252    -0.0000     0.0000    -0.0000 </r>
      <r>    17.7427    36.3751  1180.3092    60.6370    -0.0000     0.0000    -0.0000 </r>
      <r>    17.7632    36.5990  1250.0638    60.8505    -0.0000     0.0000    -0.0000 </r>
      <r>    17.7837    36.8231  1328.5178    61.0657    -0.0000     0.0000    -0.0000 </r>
      <r>    17.8041    37.0474  1417.3681    61.2826    -0.0000     0.0000    -0.0000 </r>
      <r>    17.8246    37.2721  1518.7702    61.5013    -0.0000     0.0000    -0.0000 </r>
      <r>    17.8450    37.4971  1635.4968    61.7217    -0.0000     0.0000    -0.0000 </r>
      <r>    17.8655    37.7224  1771.1640    61.9440    -0.0000     0.0000    -0.0000 </r>
      <r>    17.8860    37.9481  1930.5538    62.1681    -0.0000     0.0000    -0.0000 </r>
      <r>    17.9064    38.1742  2120.0767    62.3940    -0.0000     0.0000    -0.0000 </r>
      <r>    17.9269    38.4008  2348.4232    62.6218    -0.0000     0.0000    -0.0000 </r>
      <r>    17.9474    38.6278  2627.4241    62.8515    -0.0000     0.0000    -0.0000 </r>
      <r>    17.9678    38.8553  2972.9454    63.0831    -0.0000     0.0000    -0.0000 </r>
      <r>    17.9883    39.0833  3404.7648    63.3166    -0.0000     0.0000    -0.0000 </r>
      <r>    18.0088    39.3119  3940.6823    63.5521    -0.0000     0.0000    -0.0000 </r>
      <r>    18.0292    39.5411  4564.4904    63.7895    -0.0000     0.0000    -0.0000 </r>
      <r>    18.0497    39.7709  5084.0753    64.0290    -0.0000     0.0000    -0.0000 </r>
      <r>    18.0702    40.0013  4634.6841    64.2705    -0.0000     0.0000    -0.0000 </r>
      <r>    18.0906    40.2324  1354.7818    64.5141    -0.0000     0.0000    -0.0000 </r>
      <r>    18.1111    40.4642 -3290.6626    64.7598     0.0000    -0.0000    -0.0000 </r>
      <r>    18.1315    40.6967 -5048.7235    65.0076     0.0000    -0.0000    -0.0000 </r>
      <r>    18.1520    40.9300 -4861.6830    65.2575     0.0000    -0.0000    -0.0000 </r>
      <r>    18.1725    41.1640 -4245.1340    65.5096     0.0000    -0.0000    -0.0000 </r>
      <r>    18.1929    41.3989 -3654.8000    65.7639     0.0000    -0.0000    -0.0000 </r>
      <r>    18.2134    41.6346 -3168.7090    66.0204     0.0000    -0.0000    -0.0000 </r>
      <r>    18.2339    41.8711 -2779.6407    66.2792     0.0000    -0.0000    -0.0000 </r>
      <r>    18.2543    42.1086 -2467.3143    66.5403     0.0000    -0.0000    -0.0000 </r>
      <r>    18.2748    42.3469 -2213.5852    66.8037     0.0000    -0.0000    -0.0000 </r>
      <r>    18.2953    42.5862 -2004.5557    67.0695     0.0000    -0.0000    -0.0000 </r>
      <r>    18.3157    42.8265 -1829.9736    67.3376     0.0000    -0.0000    -0.0000 </r>
      <r>    18.3362    43.0679 -1682.3036    67.6082     0.0000    -0.0000    -0.0000 </r>
      <r>    18.3567    43.3102 -1555.9614    67.8812     0.0000    -0.0000    -0.0000 </r>
      <r>    18.3771    43.5536 -1446.7550    68.1566     0.0000    -0.0000    -0.0000 </r>
      <r>    18.3976    43.7981 -1351.4941    68.4346     0.0000    -0.0000    -0.0000 </r>
      <r>    18.4181    44.0438 -1267.7165    68.7152     0.0000    -0.0000    -0.0000 </r>
      <r>    18.4385    44.2905 -1193.4966    68.9983     0.0000    -0.0000    -0.0000 </r>
      <r>    18.4590    44.5385 -1127.3098    69.2841     0.0000    -0.0000    -0.0000 </r>
      <r>    18.4794    44.7877 -1067.9348    69.5725     0.0000    -0.0000    -0.0000 </r>
      <r>    18.4999    45.0381 -1014.3831    69.8636     0.0000    -0.0000    -0.0000 </r>
      <r>    18.5204    45.2899  -965.8464    70.1574     0.0000    -0.0000    -0.0000 </r>
      <r>    18.5408    45.5429  -921.6580    70.4540     0.0000    -0.0000    -0.0000 </r>
      <r>    18.5613    45.7972  -881.2634    70.7534     0.0000    -0.0000    -0.0000 </r>
      <r>    18.5818    46.0530  -844.1978    71.0557     0.0000    -0.0000    -0.0000 </r>
      <r>    18.6022    46.3101  -810.0688    71.3609     0.0000    -0.0000    -0.0000 </r>
      <r>    18.6227    46.5687  -778.5428    71.6690     0.0000    -0.0000    -0.0000 </r>
      <r>    18.6432    46.8287  -749.3348    71.9801     0.0000    -0.0000    -0.0000 </r>
      <r>    18.6636    47.0902  -722.1995    72.2941     0.0000    -0.0000    -0.0000 </r>
      <r>    18.6841    47.3532  -696.9251    72.6113     0.0000    -0.0000    -0.0000 </r>
      <r>    18.7046    47.6179  -673.3273    72.9316     0.0000    -0.0000    -0.0000 </r>
      <r>    18.7250    47.8841  -651.2454    73.2550     0.0000    -0.0000    -0.0000 </r>
      <r>    18.7455    48.1519  -630.5385    73.5816     0.0000    -0.0000    -0.0000 </r>
      <r>    18.7659    48.4214  -611.0826    73.9115     0.0000    -0.0000    -0.0000 </r>
      <r>    18.7864    48.6926  -592.7681    74.2447     0.0000    -0.0000    -0.0000 </r>
      <r>    18.8069    48.9655  -575.4977    74.5812     0.0000    -0.0000    -0.0000 </r>
      <r>    18.8273    49.2403  -559.1850    74.9211     0.0000    -0.0000    -0.0000 </r>
      <r>    18.8478    49.5168  -543.7527    75.2645     0.0000    -0.0000    -0.0000 </r>
      <r>    18.8683    49.7951  -529.1316    75.6114     0.0000    -0.0000    -0.0000 </r>
      <r>    18.8887    50.0753  -515.2596    75.9618     0.0000    -0.0000    -0.0000 </r>
      <r>    18.9092    50.3575  -502.0807    76.3159     0.0000    -0.0000    -0.0000 </r>
      <r>    18.9297    50.6416  -489.5445    76.6736     0.0000    -0.0000    -0.0000 </r>
      <r>    18.9501    50.9277  -477.6050    77.0351     0.0000    -0.0000    -0.0000 </r>
      <r>    18.9706    51.2158  -466.2209    77.4003     0.0000    -0.0000    -0.0000 </r>
      <r>    18.9911    51.5060  -455.3544    77.7694     0.0000    -0.0000    -0.0000 </r>
      <r>    19.0115    51.7983  -444.9709    78.1424     0.0000    -0.0000    -0.0000 </r>
      <r>    19.0320    52.0928  -435.0392    78.5193     0.0000    -0.0000    -0.0000 </r>
      <r>    19.0525    52.3894  -425.5304    78.9003     0.0000    -0.0000    -0.0000 </r>
      <r>    19.0729    52.6883  -416.4181    79.2854     0.0000    -0.0000    -0.0000 </r>
      <r>    19.0934    52.9894  -407.6781    79.6746     0.0000    -0.0000    -0.0000 </r>
      <r>    19.1138    53.2929  -399.2881    80.0681     0.0000    -0.0000    -0.0000 </r>
      <r>    19.1343    53.5988  -391.2275    80.4659     0.0000    -0.0000    -0.0000 </r>
      <r>    19.1548    53.9070  -383.4774    80.8680     0.0000    -0.0000    -0.0000 </r>
      <r>    19.1752    54.2177  -376.0201    81.2746     0.0000    -0.0000    -0.0000 </r>
      <r>    19.1957    54.5309  -368.8394    81.6857     0.0000    -0.0000    -0.0000 </r>
      <r>    19.2162    54.8467  -361.9203    82.1014     0.0000    -0.0000    -0.0000 </r>
      <r>    19.2366    55.1650  -355.2487    82.5218     0.0000    -0.0000    -0.0000 </r>
      <r>    19.2571    55.4860  -348.8116    82.9469     0.0000    -0.0000    -0.0000 </r>
      <r>    19.2776    55.8097  -342.5969    83.3769     0.0000    -0.0000    -0.0000 </r>
      <r>    19.2980    56.1361  -336.5933    83.8118     0.0000    -0.0000    -0.0000 </r>
      <r>    19.3185    56.4653  -330.7902    84.2516     0.0000    -0.0000    -0.0000 </r>
      <r>    19.3390    56.7974  -325.1778    84.6966     0.0000    -0.0000    -0.0000 </r>
      <r>    19.3594    57.1323  -319.7468    85.1467     0.0000    -0.0000    -0.0000 </r>
      <r>    19.3799    57.4702  -314.4886    85.6021     0.0000    -0.0000    -0.0000 </r>
      <r>    19.4003    57.8111  -309.3951    86.0629     0.0000    -0.0000    -0.0000 </r>
      <r>    19.4208    58.1551  -304.4587    86.5291     0.0000    -0.0000    -0.0000 </r>
      <r>    19.4413    58.5022  -299.6723    87.0008     0.0000    -0.0000    -0.0000 </r>
      <r>    19.4617    58.8525  -295.0290    87.4782     0.0000    -0.0000    -0.0000 </r>
      <r>    19.4822    59.2060  -290.5227    87.9614     0.0000    -0.0000    -0.0000 </r>
      <r>    19.5027    59.5628  -286.1474    88.4504     0.0000    -0.0000    -0.0000 </r>
      <r>    19.5231    59.9230  -281.8974    88.9454     0.0000    -0.0000    -0.0000 </r>
      <r>    19.5436    60.2866  -277.7674    89.4465     0.0000    -0.0000    -0.0000 </r>
      <r>    19.5641    60.6537  -273.7525    89.9537     0.0000    -0.0000    -0.0000 </r>
      <r>    19.5845    61.0244  -269.8479    90.4672     0.0000    -0.0000    -0.0000 </r>
      <r>    19.6050    61.3986  -266.0491    90.9872     0.0000    -0.0000    -0.0000 </r>
      <r>    19.6255    61.7766  -262.3519    91.5137     0.0000    -0.0000    -0.0000 </r>
      <r>    19.6459    62.1583  -258.7523    92.0469     0.0000    -0.0000    -0.0000 </r>
      <r>    19.6664    62.5439  -255.2465    92.5868     0.0000    -0.0000    -0.0000 </r>
      <r>    19.6869    62.9333  -251.8309    93.1337     0.0000    -0.0000    -0.0000 </r>
      <r>    19.7073    63.3267  -248.5019    93.6876     0.0000    -0.0000    -0.0000 </r>
      <r>    19.7278    63.7242  -245.2565    94.2488     0.0000    -0.0000    -0.0000 </r>
      <r>    19.7482    64.1258  -242.0915    94.8172     0.0000    -0.0000    -0.0000 </r>
      <r>    19.7687    64.5317  -239.0039    95.3932     0.0000    -0.0000    -0.0000 </r>
      <r>    19.7892    64.9418  -235.9909    95.9767     0.0000    -0.0000    -0.0000 </r>
      <r>    19.8096    65.3563  -233.0500    96.5681     0.0000    -0.0000    -0.0000 </r>
      <r>    19.8301    65.7752  -230.1785    97.1674     0.0000    -0.0000    -0.0000 </r>
      <r>    19.8506    66.1987  -227.3739    97.7748     0.0000    -0.0000    -0.0000 </r>
      <r>    19.8710    66.6269  -224.6341    98.3904     0.0000    -0.0000    -0.0000 </r>
      <r>    19.8915    67.0597  -221.9568    99.0145     0.0000    -0.0000    -0.0000 </r>
      <r>    19.9120    67.4974  -219.3398    99.6472     0.0000    -0.0000    -0.0000 </r>
      <r>    19.9324    67.9400  -216.7812   100.2887     0.0000    -0.0000    -0.0000 </r>
      <r>    19.9529    68.3876  -214.2791   100.9391     0.0000    -0.0000    -0.0000 </r>
      <r>    19.9734    68.8404  -211.8315   101.5987     0.0000    -0.0000    -0.0000 </r>
      <r>    19.9938    69.2983  -209.4368   102.2677     0.0000    -0.0000    -0.0000 </r>
      <r>    20.0143    69.7616  -207.0932   102.9462     0.0000    -0.0000    -0.0000 </r>
      <r>    20.0347    70.2303  -204.7992   103.6345     0.0000    -0.0000    -0.0000 </r>
      <r>    20.0552    70.7045  -202.5531   104.3327     0.0000    -0.0000    -0.0000 </r>
      <r>    20.0757    71.1844  -200.3535   105.0412     0.0000    -0.0000    -0.0000 </r>
      <r>    20.0961    71.6701  -198.1990   105.7601     0.0000    -0.0000    -0.0000 </r>
      <r>    20.1166    72.1616  -196.0882   106.4896     0.0000    -0.0000    -0.0000 </r>
      <r>    20.1371    72.6592  -194.0198   107.2300     0.0000    -0.0000    -0.0000 </r>
      <r>    20.1575    73.1629  -191.9925   107.9815     0.0000    -0.0000    -0.0000 </r>
      <r>    20.1780    73.6728  -190.0052   108.7444     0.0000    -0.0000    -0.0000 </r>
      <r>    20.1985    74.1892  -188.0566   109.5190     0.0000    -0.0000    -0.0000 </r>
      <r>    20.2189    74.7121  -186.1456   110.3055     0.0000    -0.0000    -0.0000 </r>
      <r>    20.2394    75.2416  -184.2712   111.1041     0.0000    -0.0000    -0.0000 </r>
      <r>    20.2599    75.7780  -182.4323   111.9153     0.0000    -0.0000    -0.0000 </r>
      <r>    20.2803    76.3213  -180.6279   112.7392     0.0000    -0.0000    -0.0000 </r>
      <r>    20.3008    76.8717  -178.8571   113.5762     0.0000    -0.0000    -0.0000 </r>
      <r>    20.3213    77.4294  -177.1189   114.4266     0.0000    -0.0000    -0.0000 </r>
      <r>    20.3417    77.9945  -175.4125   115.2907     0.0000    -0.0000    -0.0000 </r>
      <r>    20.3622    78.5672  -173.7369   116.1689     0.0000    -0.0000    -0.0000 </r>
      <r>    20.3826    79.1476  -172.0915   117.0614     0.0000    -0.0000    -0.0000 </r>
      <r>    20.4031    79.7360  -170.4752   117.9687     0.0000    -0.0000    -0.0000 </r>
      <r>    20.4236    80.3324  -168.8875   118.8911     0.0000    -0.0000    -0.0000 </r>
      <r>    20.4440    80.9372  -167.3275   119.8290     0.0000    -0.0000    -0.0000 </r>
      <r>    20.4645    81.5504  -165.7946   120.7829     0.0000    -0.0000    -0.0000 </r>
      <r>    20.4850    82.1723  -164.2880   121.7530     0.0000    -0.0000    -0.0000 </r>
      <r>    20.5054    82.8030  -162.8070   122.7398     0.0000    -0.0000    -0.0000 </r>
      <r>    20.5259    83.4429  -161.3511   123.7438     0.0000    -0.0000    -0.0000 </r>
      <r>    20.5464    84.0920  -159.9195   124.7654     0.0000    -0.0000    -0.0000 </r>
      <r>    20.5668    84.7506  -158.5117   125.8051     0.0000    -0.0000    -0.0000 </r>
      <r>    20.5873    85.4189  -157.1272   126.8634     0.0000    -0.0000    -0.0000 </r>
      <r>    20.6078    86.0972  -155.7652   127.9407     0.0000    -0.0000    -0.0000 </r>
      <r>    20.6282    86.7856  -154.4254   129.0376     0.0000    -0.0000    -0.0000 </r>
      <r>    20.6487    87.4845  -153.1071   130.1547     0.0000    -0.0000    -0.0000 </r>
      <r>    20.6691    88.1942  -151.8098   131.2924     0.0000    -0.0000    -0.0000 </r>
      <r>    20.6896    88.9147  -150.5331   132.4514     0.0000    -0.0000    -0.0000 </r>
      <r>    20.7101    89.6465  -149.2764   133.6322    -0.0000    -0.0000    -0.0000 </r>
      <r>    20.7305    90.3898  -148.0394   134.8355    -0.0000    -0.0000    -0.0000 </r>
      <r>    20.7510    91.1449  -146.8214   136.0620    -0.0000    -0.0000    -0.0000 </r>
      <r>    20.7715    91.9120  -145.6222   137.3123    -0.0000    -0.0000    -0.0000 </r>
      <r>    20.7919    92.6916  -144.4412   138.5871    -0.0000    -0.0000    -0.0000 </r>
      <r>    20.8124    93.4839  -143.2781   139.8872    -0.0000    -0.0000    -0.0000 </r>
      <r>    20.8329    94.2892  -142.1325   141.2132    -0.0000    -0.0000    -0.0000 </r>
      <r>    20.8533    95.1079  -141.0039   142.5661    -0.0000    -0.0000    -0.0000 </r>
      <r>    20.8738    95.9403  -139.8921   143.9465    -0.0000    -0.0000    -0.0000 </r>
      <r>    20.8943    96.7868  -138.7965   145.3555    -0.0000    -0.0000    -0.0000 </r>
      <r>    20.9147    97.6478  -137.7170   146.7937    -0.0000    -0.0000    -0.0000 </r>
      <r>    20.9352    98.5237  -136.6530   148.2623    -0.0000    -0.0000    -0.0000 </r>
      <r>    20.9557    99.4148  -135.6044   149.7621    -0.0000    -0.0000    -0.0000 </r>
      <r>    20.9761   100.3217  -134.5707   151.2941    -0.0000    -0.0000    -0.0000 </r>
      <r>    20.9966   101.2446  -133.5517   152.8595    -0.0000    -0.0000    -0.0000 </r>
      <r>    21.0170   102.1841  -132.5470   154.4592    -0.0000    -0.0000    -0.0000 </r>
      <r>    21.0375   103.1406  -131.5564   156.0945    -0.0000    -0.0000    -0.0000 </r>
      <r>    21.0580   104.1146  -130.5795   157.7666    -0.0000    -0.0000    -0.0000 </r>
      <r>    21.0784   105.1067  -129.6161   159.4767    -0.0000    -0.0000    -0.0000 </r>
      <r>    21.0989   106.1173  -128.6659   161.2261    -0.0000    -0.0000    -0.0000 </r>
      <r>    21.1194   107.1469  -127.7286   163.0161    -0.0000    -0.0000    -0.0000 </r>
      <r>    21.1398   108.1962  -126.8039   164.8483    -0.0000    -0.0000    -0.0000 </r>
      <r>    21.1603   109.2657  -125.8917   166.7241    -0.0000    -0.0000    -0.0000 </r>
      <r>    21.1808   110.3561  -124.9917   168.6452    -0.0000    -0.0000    -0.0000 </r>
      <r>    21.2012   111.4679  -124.1035   170.6131    -0.0000    -0.0000    -0.0000 </r>
      <r>    21.2217   112.6018  -123.2271   172.6296    -0.0000    -0.0000    -0.0000 </r>
      <r>    21.2422   113.7585  -122.3621   174.6965    -0.0000    -0.0000    -0.0000 </r>
      <r>    21.2626   114.9387  -121.5084   176.8157    -0.0000    -0.0000    -0.0000 </r>
      <r>    21.2831   116.1431  -120.6657   178.9893    -0.0000    -0.0000    -0.0000 </r>
      <r>    21.3035   117.3726  -119.8338   181.2194    -0.0000    -0.0000    -0.0000 </r>
      <r>    21.3240   118.6279  -119.0125   183.5081    -0.0000    -0.0000    -0.0000 </r>
      <r>    21.3445   119.9098  -118.2016   185.8579    -0.0000    -0.0000    -0.0000 </r>
      <r>    21.3649   121.2193  -117.4010   188.2712    -0.0000    -0.0000    -0.0000 </r>
      <r>    21.3854   122.5573  -116.6103   190.7507    -0.0000    -0.0000    -0.0000 </r>
      <r>    21.4059   123.9246  -115.8295   193.2990    -0.0000    -0.0000    -0.0000 </r>
      <r>    21.4263   125.3224  -115.0583   195.9192    -0.0000    -0.0000    -0.0000 </r>
      <r>    21.4468   126.7516  -114.2967   198.6142    -0.0000    -0.0000    -0.0000 </r>
      <r>    21.4673   128.2133  -113.5443   201.3873    -0.0000    -0.0000    -0.0000 </r>
      <r>    21.4877   129.7087  -112.8010   204.2421    -0.0000    -0.0000    -0.0000 </r>
      <r>    21.5082   131.2390  -112.0668   207.1820    -0.0000    -0.0000    -0.0000 </r>
      <r>    21.5287   132.8055  -111.3413   210.2111    -0.0000    -0.0000    -0.0000 </r>
      <r>    21.5491   134.4094  -110.6245   213.3334    -0.0000    -0.0000    -0.0000 </r>
      <r>    21.5696   136.0521  -109.9162   216.5533    -0.0000    -0.0000    -0.0000 </r>
      <r>    21.5900   137.7350  -109.2162   219.8754    -0.0000    -0.0000    -0.0000 </r>
      <r>    21.6105   139.4598  -108.5245   223.3048    -0.0000    -0.0000    -0.0000 </r>
      <r>    21.6310   141.2279  -107.8408   226.8466    -0.0000    -0.0000    -0.0000 </r>
      <r>    21.6514   143.0411  -107.1650   230.5064    -0.0000    -0.0000    -0.0000 </r>
      <r>    21.6719   144.9012  -106.4971   234.2904    -0.0000    -0.0000    -0.0000 </r>
      <r>    21.6924   146.8099  -105.8368   238.2048    -0.0000    -0.0000    -0.0000 </r>
      <r>    21.7128   148.7692  -105.1840   242.2566    -0.0000    -0.0000    -0.0000 </r>
      <r>    21.7333   150.7813  -104.5386   246.4532    -0.0000    -0.0000    -0.0000 </r>
      <r>    21.7538   152.8482  -103.9005   250.8023    -0.0000    -0.0000    -0.0000 </r>
      <r>    21.7742   154.9724  -103.2695   255.3126    -0.0000    -0.0000    -0.0000 </r>
      <r>    21.7947   157.1561  -102.6456   259.9930    -0.0000    -0.0000    -0.0000 </r>
      <r>    21.8152   159.4020  -102.0285   264.8535    -0.0000    -0.0000    -0.0000 </r>
      <r>    21.8356   161.7128  -101.4183   269.9045    -0.0000    -0.0000    -0.0000 </r>
      <r>    21.8561   164.0913  -100.8148   275.1576    -0.0000    -0.0000    -0.0000 </r>
      <r>    21.8766   166.5407  -100.2179   280.6251    -0.0000    -0.0000    -0.0000 </r>
      <r>    21.8970   169.0641   -99.6274   286.3203    -0.0000    -0.0000    -0.0000 </r>
      <r>    21.9175   171.6650   -99.0434   292.2577    -0.0000    -0.0000    -0.0000 </r>
      <r>    21.9379   174.3470   -98.4655   298.4532    -0.0000    -0.0000    -0.0000 </r>
      <r>    21.9584   177.1141   -97.8939   304.9240    -0.0000    -0.0000    -0.0000 </r>
      <r>    21.9789   179.9702   -97.3283   311.6887    -0.0000    -0.0000    -0.0000 </r>
      <r>    21.9993   182.9199   -96.7688   318.7678    -0.0000    -0.0000    -0.0000 </r>
      <r>    22.0198   185.9678   -96.2151   326.1837    -0.0000    -0.0000    -0.0000 </r>
      <r>    22.0403   189.1190   -95.6672   333.9610    -0.0000    -0.0000    -0.0000 </r>
      <r>    22.0607   192.3787   -95.1250   342.1267    -0.0000    -0.0000    -0.0000 </r>
      <r>    22.0812   195.7528   -94.5884   350.7107    -0.0000    -0.0000    -0.0000 </r>
      <r>    22.1017   199.2474   -94.0573   359.7457    -0.0000    -0.0000    -0.0000 </r>
      <r>    22.1221   202.8691   -93.5317   369.2683    -0.0000    -0.0000    -0.0000 </r>
      <r>    22.1426   206.6250   -93.0115   379.3188    -0.0000    -0.0000    -0.0000 </r>
      <r>    22.1631   210.5226   -92.4965   389.9423    -0.0000    -0.0000    -0.0000 </r>
      <r>    22.1835   214.5703   -91.9867   401.1891    -0.0000    -0.0000    -0.0000 </r>
      <r>    22.2040   218.7767   -91.4821   413.1155    -0.0000     0.0000    -0.0000 </r>
      <r>    22.2244   223.1516   -90.9825   425.7849    -0.0000     0.0000    -0.0000 </r>
      <r>    22.2449   227.7053   -90.4879   439.2685    -0.0000     0.0000    -0.0000 </r>
      <r>    22.2654   232.4489   -89.9982   453.6471    -0.0000     0.0000    -0.0000 </r>
      <r>    22.2858   237.3947   -89.5133   469.0125    -0.0000     0.0000    -0.0000 </r>
      <r>    22.3063   242.5557   -89.0332   485.4694    -0.0000     0.0000    -0.0000 </r>
      <r>    22.3268   247.9465   -88.5577   503.1376    -0.0000     0.0000    -0.0000 </r>
      <r>    22.3472   253.5827   -88.0869   522.1553    -0.0000     0.0000    -0.0000 </r>
      <r>    22.3677   259.4816   -87.6206   542.6821    -0.0000     0.0000    -0.0000 </r>
      <r>    22.3882   265.6618   -87.1589   564.9038    -0.0000     0.0000    -0.0000 </r>
      <r>    22.4086   272.1440   -86.7015   589.0375    -0.0000     0.0000    -0.0000 </r>
      <r>    22.4291   278.9509   -86.2485   615.3390    -0.0000     0.0000    -0.0000 </r>
      <r>    22.4496   286.1075   -85.7999   644.1111    -0.0000     0.0000    -0.0000 </r>
      <r>    22.4700   293.6415   -85.3554   675.7151    -0.0000     0.0000    -0.0000 </r>
      <r>    22.4905   301.5834   -84.9152   710.5856    -0.0000     0.0000    -0.0000 </r>
      <r>    22.5110   309.9674   -84.4790   749.2492    -0.0000     0.0000    -0.0000 </r>
      <r>    22.5314   318.8312   -84.0469   792.3504    -0.0000     0.0000    -0.0000 </r>
      <r>    22.5519   328.2173   -83.6189   840.6853    -0.0000     0.0000    -0.0000 </r>
      <r>    22.5723   338.1730   -83.1948   895.2481    -0.0000     0.0000    -0.0000 </r>
      <r>    22.5928   348.7517   -82.7746   957.2945    -0.0000     0.0000    -0.0000 </r>
      <r>    22.6133   360.0136   -82.3582  1028.4304    -0.0000     0.0000    -0.0000 </r>
      <r>    22.6337   372.0269   -81.9457  1110.7373    -0.0000     0.0000    -0.0000 </r>
      <r>    22.6542   384.8690   -81.5368  1206.9502    -0.0000     0.0000    -0.0000 </r>
      <r>    22.6747   398.6284   -81.1317  1320.7137    -0.0000     0.0000    -0.0000 </r>
      <r>    22.6951   413.4065   -80.7303  1456.9463    -0.0000     0.0000    -0.0000 </r>
      <r>    22.7156   429.3202   -80.3324  1622.3399    -0.0000     0.0000    -0.0000 </r>
      <r>    22.7361   446.5047   -79.9380  1825.9647    -0.0000     0.0000    -0.0000 </r>
      <r>    22.7565   465.1177   -79.5472  2079.6508    -0.0000     0.0000    -0.0000 </r>
      <r>    22.7770   485.3434   -79.1598  2396.5660    -0.0000     0.0000    -0.0000 </r>
      <r>    22.7975   507.3992   -78.7759  2781.1129    -0.0000     0.0000    -0.0000 </r>
      <r>    22.8179   531.5427   -78.3953  3181.0434    -0.0000     0.0000    -0.0000 </r>
      <r>    22.8384   558.0819   -78.0180  3294.0544    -0.0000     0.0000    -0.0000 </r>
      <r>    22.8588   587.3874   -77.6440  2124.3395    -0.0000     0.0000    -0.0000 </r>
      <r>    22.8793   619.9093   -77.2733  -907.3473    -0.0000    -0.0000     0.0000 </r>
      <r>    22.8998   656.1991   -76.9057 -3010.0012    -0.0000    -0.0000     0.0000 </r>
      <r>    22.9202   696.9394   -76.5413 -3285.9101    -0.0000    -0.0000     0.0000 </r>
      <r>    22.9407   742.9843   -76.1800 -2945.0578    -0.0000    -0.0000     0.0000 </r>
      <r>    22.9612   795.4147   -75.8218 -2539.9698    -0.0000    -0.0000     0.0000 </r>
      <r>    22.9816   855.6163   -75.4667 -2192.5572    -0.0000    -0.0000     0.0000 </r>
      <r>    23.0021   925.3889   -75.1145 -1912.7132    -0.0000    -0.0000     0.0000 </r>
      <r>    23.0226  1007.1038   -74.7653 -1688.7788    -0.0000    -0.0000     0.0000 </r>
      <r>    23.0430  1103.9279   -74.4190 -1507.9226    -0.0000    -0.0000     0.0000 </r>
      <r>    23.0635  1220.1431   -74.0756 -1359.8704    -0.0000    -0.0000     0.0000 </r>
      <r>    23.0840  1361.5786   -73.7351 -1236.9639    -0.0000    -0.0000     0.0000 </r>
      <r>    23.1044  1536.1101   -73.3974 -1133.5781    -0.0000    -0.0000     0.0000 </r>
      <r>    23.1249  1753.8656   -73.0624 -1045.5632    -0.0000    -0.0000     0.0000 </r>
      <r>    23.1454  2025.4465   -72.7302  -969.8229    -0.0000    -0.0000     0.0000 </r>
      <r>    23.1658  2350.8599   -72.4008  -904.0156    -0.0000    -0.0000     0.0000 </r>
      <r>    23.1863  2668.5027   -72.0740  -846.3452    -0.0000    -0.0000     0.0000 </r>
      <r>    23.2067  2657.8733   -71.7498  -795.4154    -0.0000    -0.0000     0.0000 </r>
      <r>    23.2272  1396.2939   -71.4283  -750.1267    -0.0000    -0.0000     0.0000 </r>
      <r>    23.2477 -1182.6839   -71.1094  -709.6028     0.0000    -0.0000    -0.0000 </r>
      <r>    23.2681 -2607.6449   -70.7930  -673.1376     0.0000    -0.0000    -0.0000 </r>
      <r>    23.2886 -2684.7937   -70.4792  -640.1565     0.0000    -0.0000    -0.0000 </r>
      <r>    23.3091 -2377.0330   -70.1679  -610.1872     0.0000    -0.0000    -0.0000 </r>
      <r>    23.3295 -2047.9986   -69.8590  -582.8385     0.0000    -0.0000    -0.0000 </r>
      <r>    23.3500 -1771.1407   -69.5526  -557.7834     0.0000    -0.0000    -0.0000 </r>
      <r>    23.3705 -1548.8709   -69.2485  -534.7468     0.0000    -0.0000    -0.0000 </r>
      <r>    23.3909 -1370.8369   -68.9469  -513.4957     0.0000    -0.0000    -0.0000 </r>
      <r>    23.4114 -1226.7355   -68.6476  -493.8312     0.0000    -0.0000    -0.0000 </r>
      <r>    23.4319 -1108.4826   -68.3507  -475.5828     0.0000    -0.0000    -0.0000 </r>
      <r>    23.4523 -1010.0824   -68.0560  -458.6035     0.0000    -0.0000    -0.0000 </r>
      <r>    23.4728  -927.1312   -67.7636  -442.7659     0.0000    -0.0000    -0.0000 </r>
      <r>    23.4932  -856.3748   -67.4735  -427.9588     0.0000    -0.0000    -0.0000 </r>
      <r>    23.5137  -795.3799   -67.1856  -414.0852     0.0000    -0.0000    -0.0000 </r>
      <r>    23.5342  -742.3016   -66.8999  -401.0597     0.0000    -0.0000    -0.0000 </r>
      <r>    23.5546  -695.7216   -66.6164  -388.8069     0.0000    -0.0000    -0.0000 </r>
      <r>    23.5751  -654.5347   -66.3350  -377.2602     0.0000    -0.0000    -0.0000 </r>
      <r>    23.5956  -617.8685   -66.0557  -366.3604     0.0000    -0.0000    -0.0000 </r>
      <r>    23.6160  -585.0268   -65.7786  -356.0545     0.0000    -0.0000    -0.0000 </r>
      <r>    23.6365  -555.4474   -65.5035  -346.2955     0.0000    -0.0000    -0.0000 </r>
      <r>    23.6570  -528.6719   -65.2305  -337.0407     0.0000    -0.0000    -0.0000 </r>
      <r>    23.6774  -504.3231   -64.9595  -328.2523     0.0000    -0.0000    -0.0000 </r>
      <r>    23.6979  -482.0879   -64.6905  -319.8957     0.0000    -0.0000    -0.0000 </r>
      <r>    23.7184  -461.7047   -64.4236  -311.9398     0.0000    -0.0000    -0.0000 </r>
      <r>    23.7388  -442.9526   -64.1585  -304.3566     0.0000    -0.0000    -0.0000 </r>
      <r>    23.7593  -425.6446   -63.8955  -297.1202     0.0000    -0.0000    -0.0000 </r>
      <r>    23.7798  -409.6209   -63.6343  -290.2075     0.0000    -0.0000    -0.0000 </r>
      <r>    23.8002  -394.7443   -63.3751  -283.5971     0.0000    -0.0000    -0.0000 </r>
      <r>    23.8207  -380.8965   -63.1177  -277.2696     0.0000    -0.0000    -0.0000 </r>
      <r>    23.8411  -367.9747   -62.8622  -271.2071     0.0000    -0.0000    -0.0000 </r>
      <r>    23.8616  -355.8894   -62.6086  -265.3932     0.0000    -0.0000    -0.0000 </r>
      <r>    23.8821  -344.5621   -62.3567  -259.8129     0.0000    -0.0000    -0.0000 </r>
      <r>    23.9025  -333.9239   -62.1067  -254.4524     0.0000    -0.0000    -0.0000 </r>
      <r>    23.9230  -323.9139   -61.8585  -249.2987     0.0000    -0.0000    -0.0000 </r>
      <r>    23.9435  -314.4781   -61.6120  -244.3402     0.0000    -0.0000    -0.0000 </r>
      <r>    23.9639  -305.5688   -61.3673  -239.5658     0.0000    -0.0000    -0.0000 </r>
      <r>    23.9844  -297.1430   -61.1243  -234.9654     0.0000    -0.0000    -0.0000 </r>
      <r>    24.0049  -289.1625   -60.8830  -230.5296     0.0000    -0.0000    -0.0000 </r>
      <r>    24.0253  -281.5929   -60.6434  -226.2497     0.0000    -0.0000    -0.0000 </r>
      <r>    24.0458  -274.4034   -60.4055  -222.1174     0.0000    -0.0000    -0.0000 </r>
      <r>    24.0663  -267.5660   -60.1692  -218.1252     0.0000    -0.0000    -0.0000 </r>
      <r>    24.0867  -261.0555   -59.9346  -214.2661     0.0000    -0.0000    -0.0000 </r>
      <r>    24.1072  -254.8490   -59.7016  -210.5333     0.0000    -0.0000    -0.0000 </r>
      <r>    24.1276  -248.9257   -59.4702  -206.9208     0.0000    -0.0000    -0.0000 </r>
      <r>    24.1481  -243.2667   -59.2405  -203.4226     0.0000    -0.0000    -0.0000 </r>
      <r>    24.1686  -237.8545   -59.0122  -200.0335     0.0000    -0.0000    -0.0000 </r>
      <r>    24.1890  -232.6735   -58.7856  -196.7483     0.0000    -0.0000    -0.0000 </r>
      <r>    24.2095  -227.7091   -58.5605  -193.5621     0.0000    -0.0000    -0.0000 </r>
      <r>    24.2300  -222.9480   -58.3369  -190.4706     0.0000    -0.0000    -0.0000 </r>
      <r>    24.2504  -218.3779   -58.1148  -187.4695     0.0000    -0.0000    -0.0000 </r>
      <r>    24.2709  -213.9875   -57.8943  -184.5548     0.0000    -0.0000    -0.0000 </r>
      <r>    24.2914  -209.7665   -57.6752  -181.7227     0.0000    -0.0000    -0.0000 </r>
      <r>    24.3118  -205.7051   -57.4576  -178.9697     0.0000    -0.0000    -0.0000 </r>
      <r>    24.3323  -201.7945   -57.2414  -176.2924     0.0000    -0.0000    -0.0000 </r>
      <r>    24.3528  -198.0265   -57.0267  -173.6878     0.0000    -0.0000    -0.0000 </r>
      <r>    24.3732  -194.3933   -56.8134  -171.1527     0.0000    -0.0000    -0.0000 </r>
      <r>    24.3937  -190.8877   -56.6016  -168.6844     0.0000    -0.0000    -0.0000 </r>
      <r>    24.4142  -187.5033   -56.3911  -166.2801     0.0000    -0.0000    -0.0000 </r>
      <r>    24.4346  -184.2337   -56.1820  -163.9374     0.0000    -0.0000    -0.0000 </r>
      <r>    24.4551  -181.0733   -55.9743  -161.6537     0.0000    -0.0000    -0.0000 </r>
      <r>    24.4755  -178.0165   -55.7679  -159.4269     0.0000    -0.0000    -0.0000 </r>
      <r>    24.4960  -175.0584   -55.5629  -157.2547     0.0000    -0.0000    -0.0000 </r>
      <r>    24.5165  -172.1942   -55.3592  -155.1351     0.0000    -0.0000    -0.0000 </r>
      <r>    24.5369  -169.4196   -55.1568  -153.0661     0.0000    -0.0000    -0.0000 </r>
      <r>    24.5574  -166.7303   -54.9558  -151.0458     0.0000    -0.0000    -0.0000 </r>
      <r>    24.5779  -164.1225   -54.7560  -149.0724     0.0000    -0.0000    -0.0000 </r>
      <r>    24.5983  -161.5924   -54.5575  -147.1442     0.0000    -0.0000    -0.0000 </r>
      <r>    24.6188  -159.1367   -54.3603  -145.2597     0.0000    -0.0000    -0.0000 </r>
      <r>    24.6393  -156.7521   -54.1644  -143.4172     0.0000    -0.0000    -0.0000 </r>
      <r>    24.6597  -154.4354   -53.9697  -141.6152     0.0000    -0.0000    -0.0000 </r>
      <r>    24.6802  -152.1839   -53.7762  -139.8524     0.0000    -0.0000    -0.0000 </r>
      <r>    24.7007  -149.9948   -53.5839  -138.1273     0.0000    -0.0000    -0.0000 </r>
      <r>    24.7211  -147.8655   -53.3929  -136.4388     0.0000    -0.0000    -0.0000 </r>
      <r>    24.7416  -145.7936   -53.2031  -134.7855     0.0000    -0.0000    -0.0000 </r>
      <r>    24.7620  -143.7767   -53.0144  -133.1662     0.0000    -0.0000    -0.0000 </r>
      <r>    24.7825  -141.8127   -52.8269  -131.5799     0.0000    -0.0000    -0.0000 </r>
      <r>    24.8030  -139.8995   -52.6406  -130.0254     0.0000    -0.0000    -0.0000 </r>
      <r>    24.8234  -138.0351   -52.4555  -128.5017     0.0000    -0.0000    -0.0000 </r>
      <r>    24.8439  -136.2177   -52.2715  -127.0077     0.0000    -0.0000    -0.0000 </r>
      <r>    24.8644  -134.4454   -52.0886  -125.5425     0.0000    -0.0000    -0.0000 </r>
      <r>    24.8848  -132.7166   -51.9069  -124.1052     0.0000    -0.0000    -0.0000 </r>
      <r>    24.9053  -131.0298   -51.7263  -122.6949     0.0000    -0.0000    -0.0000 </r>
      <r>    24.9258  -129.3833   -51.5468  -121.3106     0.0000    -0.0000    -0.0000 </r>
      <r>    24.9462  -127.7757   -51.3684  -119.9517     0.0000    -0.0000    -0.0000 </r>
      <r>    24.9667  -126.2056   -51.1910  -118.6172     0.0000    -0.0000    -0.0000 </r>
      <r>    24.9872  -124.6717   -51.0148  -117.3064     0.0000    -0.0000    -0.0000 </r>
      <r>    25.0076  -123.1728   -50.8396  -116.0186     0.0000    -0.0000    -0.0000 </r>
      <r>    25.0281  -121.7076   -50.6655  -114.7530     0.0000    -0.0000    -0.0000 </r>
      <r>    25.0486  -120.2749   -50.4924  -113.5089     0.0000    -0.0000    -0.0000 </r>
      <r>    25.0690  -118.8738   -50.3203  -112.2858     0.0000    -0.0000    -0.0000 </r>
      <r>    25.0895  -117.5031   -50.1493  -111.0828     0.0000    -0.0000    -0.0000 </r>
      <r>    25.1099  -116.1618   -49.9793  -109.8994     0.0000    -0.0000    -0.0000 </r>
      <r>    25.1304  -114.8490   -49.8103  -108.7351     0.0000    -0.0000    -0.0000 </r>
      <r>    25.1509  -113.5638   -49.6424  -107.5891     0.0000    -0.0000    -0.0000 </r>
      <r>    25.1713  -112.3052   -49.4754  -106.4609     0.0000    -0.0000    -0.0000 </r>
      <r>    25.1918  -111.0724   -49.3094  -105.3500     0.0000    -0.0000    -0.0000 </r>
      <r>    25.2123  -109.8647   -49.1443  -104.2558     0.0000    -0.0000    -0.0000 </r>
      <r>    25.2327  -108.6811   -48.9803  -103.1778     0.0000    -0.0000    -0.0000 </r>
      <r>    25.2532  -107.5211   -48.8172  -102.1155     0.0000    -0.0000    -0.0000 </r>
      <r>    25.2737  -106.3838   -48.6550  -101.0684     0.0000    -0.0000    -0.0000 </r>
      <r>    25.2941  -105.2686   -48.4938  -100.0360     0.0000    -0.0000    -0.0000 </r>
      <r>    25.3146  -104.1748   -48.3336   -99.0178     0.0000    -0.0000    -0.0000 </r>
      <r>    25.3351  -103.1018   -48.1742   -98.0133     0.0000    -0.0000    -0.0000 </r>
      <r>    25.3555  -102.0490   -48.0158   -97.0222     0.0000    -0.0000    -0.0000 </r>
      <r>    25.3760  -101.0157   -47.8583   -96.0439     0.0000    -0.0000    -0.0000 </r>
      <r>    25.3964  -100.0015   -47.7017   -95.0780     0.0000    -0.0000    -0.0000 </r>
      <r>    25.4169   -99.0057   -47.5460   -94.1241     0.0000    -0.0000    -0.0000 </r>
      <r>    25.4374   -98.0278   -47.3912   -93.1818     0.0000    -0.0000    -0.0000 </r>
      <r>    25.4578   -97.0674   -47.2372   -92.2507     0.0000    -0.0000    -0.0000 </r>
      <r>    25.4783   -96.1239   -47.0842   -91.3303     0.0000    -0.0000    -0.0000 </r>
      <r>    25.4988   -95.1969   -46.9320   -90.4202     0.0000    -0.0000    -0.0000 </r>
      <r>    25.5192   -94.2858   -46.7807   -89.5200     0.0000    -0.0000    -0.0000 </r>
      <r>    25.5397   -93.3904   -46.6302   -88.6295     0.0000    -0.0000    -0.0000 </r>
      <r>    25.5602   -92.5101   -46.4805   -87.7480     0.0000    -0.0000    -0.0000 </r>
      <r>    25.5806   -91.6445   -46.3317   -86.8753     0.0000    -0.0000    -0.0000 </r>
      <r>    25.6011   -90.7933   -46.1838   -86.0110     0.0000    -0.0000    -0.0000 </r>
      <r>    25.6216   -89.9560   -46.0366   -85.1547     0.0000    -0.0000    -0.0000 </r>
      <r>    25.6420   -89.1323   -45.8903   -84.3060     0.0000    -0.0000    -0.0000 </r>
      <r>    25.6625   -88.3218   -45.7448   -83.4644     0.0000    -0.0000    -0.0000 </r>
      <r>    25.6830   -87.5242   -45.6001   -82.6297     0.0000    -0.0000    -0.0000 </r>
      <r>    25.7034   -86.7391   -45.4562   -81.8014     0.0000    -0.0000    -0.0000 </r>
      <r>    25.7239   -85.9662   -45.3130   -80.9791     0.0000    -0.0000    -0.0000 </r>
      <r>    25.7443   -85.2052   -45.1707   -80.1624     0.0000    -0.0000    -0.0000 </r>
      <r>    25.7648   -84.4558   -45.0292   -79.3509     0.0000    -0.0000    -0.0000 </r>
      <r>    25.7853   -83.7177   -44.8884   -78.5442     0.0000    -0.0000    -0.0000 </r>
      <r>    25.8057   -82.9906   -44.7484   -77.7418     0.0000    -0.0000    -0.0000 </r>
      <r>    25.8262   -82.2742   -44.6091   -76.9434     0.0000    -0.0000    -0.0000 </r>
      <r>    25.8467   -81.5683   -44.4706   -76.1485     0.0000    -0.0000    -0.0000 </r>
      <r>    25.8671   -80.8725   -44.3329   -75.3565     0.0000    -0.0000    -0.0000 </r>
      <r>    25.8876   -80.1866   -44.1959   -74.5672     0.0000    -0.0000    -0.0000 </r>
      <r>    25.9081   -79.5104   -44.0596   -73.7798     0.0000    -0.0000    -0.0000 </r>
      <r>    25.9285   -78.8436   -43.9241   -72.9941     0.0000    -0.0000    -0.0000 </r>
      <r>    25.9490   -78.1861   -43.7892   -72.2093     0.0000    -0.0000    -0.0000 </r>
      <r>    25.9695   -77.5374   -43.6551   -71.4250     0.0000    -0.0000    -0.0000 </r>
      <r>    25.9899   -76.8975   -43.5218   -70.6406     0.0000    -0.0000    -0.0000 </r>
      <r>    26.0104   -76.2661   -43.3891   -69.8555     0.0000    -0.0000    -0.0000 </r>
      <r>    26.0308   -75.6430   -43.2571   -69.0690     0.0000    -0.0000    -0.0000 </r>
      <r>    26.0513   -75.0280   -43.1259   -68.2805     0.0000    -0.0000    -0.0000 </r>
      <r>    26.0718   -74.4208   -42.9953   -67.4892     0.0000    -0.0000    -0.0000 </r>
      <r>    26.0922   -73.8214   -42.8654   -66.6944     0.0000    -0.0000    -0.0000 </r>
      <r>    26.1127   -73.2294   -42.7362   -65.8953     0.0000    -0.0000    -0.0000 </r>
      <r>    26.1332   -72.6446   -42.6076   -65.0910     0.0000    -0.0000    -0.0000 </r>
      <r>    26.1536   -72.0670   -42.4798   -64.2805     0.0000    -0.0000    -0.0000 </r>
      <r>    26.1741   -71.4963   -42.3526   -63.4628     0.0000    -0.0000    -0.0000 </r>
      <r>    26.1946   -70.9324   -42.2260   -62.6369     0.0000    -0.0000    -0.0000 </r>
      <r>    26.2150   -70.3749   -42.1002   -61.8016     0.0000    -0.0000    -0.0000 </r>
      <r>    26.2355   -69.8239   -41.9749   -60.9556     0.0000    -0.0000    -0.0000 </r>
      <r>    26.2560   -69.2791   -41.8503   -60.0975     0.0000    -0.0000    -0.0000 </r>
      <r>    26.2764   -68.7402   -41.7264   -59.2257     0.0000    -0.0000    -0.0000 </r>
      <r>    26.2969   -68.2073   -41.6031   -58.3385     0.0000    -0.0000    -0.0000 </r>
      <r>    26.3173   -67.6801   -41.4804   -57.4342     0.0000    -0.0000    -0.0000 </r>
      <r>    26.3378   -67.1584   -41.3584   -56.5107     0.0000    -0.0000    -0.0000 </r>
      <r>    26.3583   -66.6420   -41.2369   -55.5656     0.0000    -0.0000    -0.0000 </r>
      <r>    26.3787   -66.1309   -41.1161   -54.5964     0.0000    -0.0000    -0.0000 </r>
      <r>    26.3992   -65.6248   -40.9959   -53.6004     0.0000    -0.0000    -0.0000 </r>
      <r>    26.4197   -65.1237   -40.8764   -52.5742     0.0000    -0.0000    -0.0000 </r>
      <r>    26.4401   -64.6272   -40.7574   -51.5144     0.0000    -0.0000    -0.0000 </r>
      <r>    26.4606   -64.1354   -40.6390   -50.4168     0.0000    -0.0000    -0.0000 </r>
      <r>    26.4811   -63.6479   -40.5212   -49.2768     0.0000    -0.0000    -0.0000 </r>
      <r>    26.5015   -63.1647   -40.4040   -48.0891     0.0000    -0.0000    -0.0000 </r>
      <r>    26.5220   -62.6857   -40.2874   -46.8476     0.0000    -0.0000    -0.0000 </r>
      <r>    26.5425   -62.2106   -40.1714   -45.5453     0.0000    -0.0000    -0.0000 </r>
      <r>    26.5629   -61.7392   -40.0559   -44.1740     0.0000    -0.0000    -0.0000 </r>
      <r>    26.5834   -61.2715   -39.9410   -42.7243     0.0000    -0.0000    -0.0000 </r>
      <r>    26.6039   -60.8073   -39.8267   -41.1848     0.0000    -0.0000    -0.0000 </r>
      <r>    26.6243   -60.3464   -39.7130   -39.5424     0.0000    -0.0000    -0.0000 </r>
      <r>    26.6448   -59.8886   -39.5998   -37.7812     0.0000    -0.0000    -0.0000 </r>
      <r>    26.6652   -59.4338   -39.4872   -35.8823     0.0000    -0.0000    -0.0000 </r>
      <r>    26.6857   -58.9818   -39.3751   -33.8224     0.0000    -0.0000    -0.0000 </r>
      <r>    26.7062   -58.5324   -39.2636   -31.5736     0.0000    -0.0000    -0.0000 </r>
      <r>    26.7266   -58.0854   -39.1526   -29.1009     0.0000    -0.0000    -0.0000 </r>
      <r>    26.7471   -57.6407   -39.0421   -26.3609     0.0000    -0.0000    -0.0000 </r>
      <r>    26.7676   -57.1980   -38.9322   -23.2985     0.0000    -0.0000    -0.0000 </r>
      <r>    26.7880   -56.7573   -38.8229   -19.8434     0.0000    -0.0000    -0.0000 </r>
      <r>    26.8085   -56.3181   -38.7140   -15.9044     0.0000    -0.0000    -0.0000 </r>
      <r>    26.8290   -55.8805   -38.6057   -11.3616     0.0000    -0.0000    -0.0000 </r>
      <r>    26.8494   -55.4441   -38.4979    -6.0549     0.0000    -0.0000    -0.0000 </r>
      <r>    26.8699   -55.0086   -38.3907     0.2315     0.0000    -0.0000    -0.0000 </r>
      <r>    26.8904   -54.5739   -38.2839     7.7917     0.0000    -0.0000    -0.0000 </r>
      <r>    26.9108   -54.1398   -38.1777    17.0236     0.0000    -0.0000    -0.0000 </r>
      <r>    26.9313   -53.7058   -38.0719    28.4439     0.0000    -0.0000    -0.0000 </r>
      <r>    26.9517   -53.2719   -37.9667    42.6166     0.0000    -0.0000    -0.0000 </r>
      <r>    26.9722   -52.8375   -37.8620    59.6723     0.0000    -0.0000    -0.0000 </r>
      <r>    26.9927   -52.4025   -37.7577    77.0521     0.0000    -0.0000    -0.0000 </r>
      <r>    27.0131   -51.9666   -37.6540    80.5207     0.0000    -0.0000    -0.0000 </r>
      <r>    27.0336   -51.5292   -37.5507    25.1952     0.0000    -0.0000    -0.0000 </r>
      <r>    27.0541   -51.0901   -37.4480  -107.1080     0.0000     0.0000    -0.0000 </r>
      <r>    27.0745   -50.6488   -37.3457  -191.8124     0.0000     0.0000     0.0000 </r>
      <r>    27.0950   -50.2049   -37.2439  -200.4589     0.0000     0.0000     0.0000 </r>
      <r>    27.1155   -49.7579   -37.1426  -184.9162     0.0000     0.0000     0.0000 </r>
      <r>    27.1359   -49.3072   -37.0417  -167.2367     0.0000     0.0000     0.0000 </r>
      <r>    27.1564   -48.8523   -36.9414  -152.1410     0.0000     0.0000     0.0000 </r>
      <r>    27.1769   -48.3925   -36.8415  -139.9409     0.0000     0.0000    -0.0000 </r>
      <r>    27.1973   -47.9271   -36.7420  -130.1186     0.0000     0.0000    -0.0000 </r>
      <r>    27.2178   -47.4554   -36.6430  -122.1257     0.0000     0.0000    -0.0000 </r>
      <r>    27.2383   -46.9765   -36.5445  -115.5267     0.0000     0.0000    -0.0000 </r>
      <r>    27.2587   -46.4895   -36.4464  -109.9976     0.0000     0.0000    -0.0000 </r>
      <r>    27.2792   -45.9932   -36.3488  -105.3002     0.0000     0.0000    -0.0000 </r>
      <r>    27.2996   -45.4866   -36.2516  -101.2588     0.0000     0.0000    -0.0000 </r>
      <r>    27.3201   -44.9683   -36.1549   -97.7422     0.0000     0.0000    -0.0000 </r>
      <r>    27.3406   -44.4368   -36.0586   -94.6512     0.0000     0.0000    -0.0000 </r>
      <r>    27.3610   -43.8904   -35.9628   -91.9093     0.0000     0.0000    -0.0000 </r>
      <r>    27.3815   -43.3272   -35.8674   -89.4574     0.0000     0.0000    -0.0000 </r>
      <r>    27.4020   -42.7450   -35.7724   -87.2486     0.0000     0.0000    -0.0000 </r>
      <r>    27.4224   -42.1413   -35.6779   -85.2456     0.0000     0.0000    -0.0000 </r>
      <r>    27.4429   -41.5131   -35.5838   -83.4183     0.0000     0.0000    -0.0000 </r>
      <r>    27.4634   -40.8570   -35.4901   -81.7423     0.0000     0.0000    -0.0000 </r>
      <r>    27.4838   -40.1691   -35.3968   -80.1973     0.0000     0.0000    -0.0000 </r>
      <r>    27.5043   -39.4447   -35.3040   -78.7667     0.0000     0.0000    -0.0000 </r>
      <r>    27.5248   -38.6783   -35.2116   -77.4365     0.0000     0.0000    -0.0000 </r>
      <r>    27.5452   -37.8633   -35.1196   -76.1949     0.0000     0.0000    -0.0000 </r>
      <r>    27.5657   -36.9916   -35.0280   -75.0320     0.0000     0.0000    -0.0000 </r>
      <r>    27.5861   -36.0537   -34.9368   -73.9392     0.0000     0.0000    -0.0000 </r>
      <r>    27.6066   -35.0377   -34.8460   -72.9092     0.0000     0.0000    -0.0000 </r>
      <r>    27.6271   -33.9290   -34.7556   -71.9357     0.0000     0.0000    -0.0000 </r>
      <r>    27.6475   -32.7093   -34.6656   -71.0132     0.0000     0.0000    -0.0000 </r>
      <r>    27.6680   -31.3553   -34.5760   -70.1370     0.0000     0.0000    -0.0000 </r>
      <r>    27.6885   -29.8374   -34.4869   -69.3029     0.0000     0.0000    -0.0000 </r>
      <r>    27.7089   -28.1168   -34.3981   -68.5071     0.0000     0.0000    -0.0000 </r>
      <r>    27.7294   -26.1426   -34.3097   -67.7466     0.0000     0.0000    -0.0000 </r>
      <r>    27.7499   -23.8468   -34.2217   -67.0182     0.0000     0.0000    -0.0000 </r>
      <r>    27.7703   -21.1371   -34.1340   -66.3196     0.0000     0.0000    -0.0000 </r>
      <r>    27.7908   -17.8883   -34.0468   -65.6485     0.0000     0.0000    -0.0000 </r>
      <r>    27.8113   -13.9310   -33.9599   -65.0026     0.0000     0.0000    -0.0000 </r>
      <r>    27.8317    -9.0490   -33.8735   -64.3804     0.0000     0.0000    -0.0000 </r>
      <r>    27.8522    -3.0209   -33.7873   -63.7800     0.0000     0.0000    -0.0000 </r>
      <r>    27.8727     4.1228   -33.7016   -63.2000     0.0000     0.0000    -0.0000 </r>
      <r>    27.8931    10.9309   -33.6163   -62.6390     0.0000     0.0000    -0.0000 </r>
      <r>    27.9136    10.0797   -33.5313   -62.0959     0.0000     0.0000    -0.0000 </r>
      <r>    27.9340   -18.4855   -33.4466   -61.5694     0.0000     0.0000    -0.0000 </r>
      <r>    27.9545   -72.8644   -33.3624   -61.0585     0.0000     0.0000     0.0000 </r>
      <r>    27.9750  -100.6568   -33.2785   -60.5624     0.0000     0.0000     0.0000 </r>
      <r>    27.9954  -101.1994   -33.1949   -60.0802     0.0000     0.0000     0.0000 </r>
      <r>    28.0159   -94.3555   -33.1118   -59.6111     0.0000     0.0000     0.0000 </r>
      <r>    28.0364   -87.2434   -33.0289   -59.1543     0.0000     0.0000     0.0000 </r>
      <r>    28.0568   -81.2587   -32.9465   -58.7092     0.0000     0.0000     0.0000 </r>
      <r>    28.0773   -76.4198   -32.8643   -58.2752     0.0000     0.0000     0.0000 </r>
      <r>    28.0978   -72.5047   -32.7826   -57.8517     0.0000     0.0000     0.0000 </r>
      <r>    28.1182   -69.2976   -32.7012   -57.4382     0.0000     0.0000     0.0000 </r>
      <r>    28.1387   -66.6304   -32.6201   -57.0342     0.0000     0.0000     0.0000 </r>
      <r>    28.1592   -64.3785   -32.5393   -56.6393     0.0000     0.0000     0.0000 </r>
      <r>    28.1796   -62.4504   -32.4589   -56.2530     0.0000     0.0000     0.0000 </r>
      <r>    28.2001   -60.7783   -32.3789   -55.8749     0.0000     0.0000     0.0000 </r>
      <r>    28.2205   -59.3116   -32.2992   -55.5047     0.0000     0.0000    -0.0000 </r>
      <r>    28.2410   -58.0119   -32.2198   -55.1420     0.0000     0.0000    -0.0000 </r>
      <r>    28.2615   -56.8496   -32.1407   -54.7865     0.0000     0.0000    -0.0000 </r>
      <r>    28.2819   -55.8017   -32.0620   -54.4379     0.0000     0.0000    -0.0000 </r>
      <r>    28.3024   -54.8499   -31.9836   -54.0959     0.0000     0.0000    -0.0000 </r>
      <r>    28.3229   -53.9797   -31.9055   -53.7603     0.0000     0.0000    -0.0000 </r>
      <r>    28.3433   -53.1793   -31.8278   -53.4308     0.0000     0.0000    -0.0000 </r>
      <r>    28.3638   -52.4391   -31.7504   -53.1072     0.0000     0.0000    -0.0000 </r>
      <r>    28.3843   -51.7512   -31.6732   -52.7893     0.0000     0.0000    -0.0000 </r>
      <r>    28.4047   -51.1091   -31.5965   -52.4767     0.0000     0.0000    -0.0000 </r>
      <r>    28.4252   -50.5071   -31.5200   -52.1695     0.0000     0.0000    -0.0000 </r>
      <r>    28.4457   -49.9408   -31.4438   -51.8672     0.0000     0.0000    -0.0000 </r>
      <r>    28.4661   -49.4062   -31.3680   -51.5699     0.0000     0.0000    -0.0000 </r>
      <r>    28.4866   -48.8998   -31.2925   -51.2773     0.0000     0.0000    -0.0000 </r>
      <r>    28.5071   -48.4189   -31.2172   -50.9893     0.0000     0.0000    -0.0000 </r>
      <r>    28.5275   -47.9608   -31.1423   -50.7057     0.0000     0.0000    -0.0000 </r>
      <r>    28.5480   -47.5235   -31.0677   -50.4263     0.0000     0.0000    -0.0000 </r>
      <r>    28.5684   -47.1051   -30.9934   -50.1511     0.0000     0.0000    -0.0000 </r>
      <r>    28.5889   -46.7039   -30.9194   -49.8799     0.0000     0.0000    -0.0000 </r>
      <r>    28.6094   -46.3183   -30.8457   -49.6126     0.0000     0.0000    -0.0000 </r>
      <r>    28.6298   -45.9472   -30.7723   -49.3490     0.0000     0.0000    -0.0000 </r>
      <r>    28.6503   -45.5895   -30.6992   -49.0892     0.0000     0.0000    -0.0000 </r>
      <r>    28.6708   -45.2439   -30.6264   -48.8328     0.0000     0.0000    -0.0000 </r>
      <r>    28.6912   -44.9098   -30.5538   -48.5800     0.0000     0.0000    -0.0000 </r>
      <r>    28.7117   -44.5861   -30.4816   -48.3305     0.0000     0.0000    -0.0000 </r>
      <r>    28.7322   -44.2723   -30.4097   -48.0842     0.0000     0.0000    -0.0000 </r>
      <r>    28.7526   -43.9676   -30.3380   -47.8411     0.0000     0.0000    -0.0000 </r>
      <r>    28.7731   -43.6715   -30.2666   -47.6012     0.0000     0.0000    -0.0000 </r>
      <r>    28.7936   -43.3834   -30.1956   -47.3642     0.0000     0.0000    -0.0000 </r>
      <r>    28.8140   -43.1028   -30.1248   -47.1302     0.0000     0.0000    -0.0000 </r>
      <r>    28.8345   -42.8292   -30.0542   -46.8990     0.0000     0.0000    -0.0000 </r>
      <r>    28.8549   -42.5623   -29.9840   -46.6706     0.0000     0.0000    -0.0000 </r>
      <r>    28.8754   -42.3016   -29.9140   -46.4449     0.0000     0.0000    -0.0000 </r>
      <r>    28.8959   -42.0469   -29.8444   -46.2219     0.0000     0.0000    -0.0000 </r>
      <r>    28.9163   -41.7978   -29.7749   -46.0015     0.0000     0.0000    -0.0000 </r>
      <r>    28.9368   -41.5540   -29.7058   -45.7836     0.0000     0.0000    -0.0000 </r>
      <r>    28.9573   -41.3153   -29.6369   -45.5682     0.0000     0.0000    -0.0000 </r>
      <r>    28.9777   -41.0813   -29.5684   -45.3552     0.0000     0.0000    -0.0000 </r>
      <r>    28.9982   -40.8520   -29.5000   -45.1446     0.0000     0.0000    -0.0000 </r>
      <r>    29.0187   -40.6270   -29.4320   -44.9363     0.0000     0.0000    -0.0000 </r>
      <r>    29.0391   -40.4061   -29.3642   -44.7302     0.0000     0.0000    -0.0000 </r>
      <r>    29.0596   -40.1893   -29.2966   -44.5263     0.0000     0.0000    -0.0000 </r>
      <r>    29.0801   -39.9762   -29.2294   -44.3247     0.0000     0.0000    -0.0000 </r>
      <r>    29.1005   -39.7668   -29.1624   -44.1251     0.0000     0.0000    -0.0000 </r>
      <r>    29.1210   -39.5609   -29.0956   -43.9276     0.0000     0.0000    -0.0000 </r>
      <r>    29.1415   -39.3583   -29.0291   -43.7321     0.0000     0.0000    -0.0000 </r>
      <r>    29.1619   -39.1590   -28.9629   -43.5386     0.0000     0.0000    -0.0000 </r>
      <r>    29.1824   -38.9627   -28.8969   -43.3471     0.0000     0.0000    -0.0000 </r>
      <r>    29.2028   -38.7695   -28.8312   -43.1575     0.0000     0.0000    -0.0000 </r>
      <r>    29.2233   -38.5791   -28.7657   -42.9698     0.0000     0.0000    -0.0000 </r>
      <r>    29.2438   -38.3915   -28.7005   -42.7839     0.0000     0.0000    -0.0000 </r>
      <r>    29.2642   -38.2065   -28.6356   -42.5998     0.0000     0.0000    -0.0000 </r>
      <r>    29.2847   -38.0242   -28.5708   -42.4174     0.0000     0.0000    -0.0000 </r>
      <r>    29.3052   -37.8443   -28.5064   -42.2369     0.0000     0.0000    -0.0000 </r>
      <r>    29.3256   -37.6669   -28.4421   -42.0580     0.0000     0.0000    -0.0000 </r>
      <r>    29.3461   -37.4918   -28.3782   -41.8808     0.0000     0.0000    -0.0000 </r>
      <r>    29.3666   -37.3190   -28.3144   -41.7052     0.0000     0.0000    -0.0000 </r>
      <r>    29.3870   -37.1484   -28.2509   -41.5313     0.0000     0.0000    -0.0000 </r>
      <r>    29.4075   -36.9799   -28.1877   -41.3589     0.0000     0.0000    -0.0000 </r>
      <r>    29.4280   -36.8135   -28.1246   -41.1881     0.0000     0.0000    -0.0000 </r>
      <r>    29.4484   -36.6492   -28.0619   -41.0189     0.0000     0.0000    -0.0000 </r>
      <r>    29.4689   -36.4867   -27.9993   -40.8511     0.0000     0.0000    -0.0000 </r>
      <r>    29.4893   -36.3262   -27.9370   -40.6849     0.0000     0.0000    -0.0000 </r>
      <r>    29.5098   -36.1675   -27.8749   -40.5201     0.0000     0.0000    -0.0000 </r>
      <r>    29.5303   -36.0106   -27.8131   -40.3567     0.0000     0.0000    -0.0000 </r>
      <r>    29.5507   -35.8555   -27.7515   -40.1947     0.0000     0.0000    -0.0000 </r>
      <r>    29.5712   -35.7021   -27.6901   -40.0342     0.0000     0.0000    -0.0000 </r>
      <r>    29.5917   -35.5504   -27.6289   -39.8750     0.0000     0.0000    -0.0000 </r>
      <r>    29.6121   -35.4002   -27.5680   -39.7171     0.0000     0.0000    -0.0000 </r>
      <r>    29.6326   -35.2517   -27.5073   -39.5606     0.0000     0.0000    -0.0000 </r>
      <r>    29.6531   -35.1047   -27.4468   -39.4054     0.0000     0.0000    -0.0000 </r>
      <r>    29.6735   -34.9593   -27.3866   -39.2514     0.0000     0.0000    -0.0000 </r>
      <r>    29.6940   -34.8153   -27.3265   -39.0987     0.0000     0.0000    -0.0000 </r>
      <r>    29.7145   -34.6727   -27.2667   -38.9473     0.0000     0.0000    -0.0000 </r>
      <r>    29.7349   -34.5316   -27.2072   -38.7971     0.0000     0.0000    -0.0000 </r>
      <r>    29.7554   -34.3919   -27.1478   -38.6481     0.0000     0.0000    -0.0000 </r>
      <r>    29.7759   -34.2535   -27.0886   -38.5003     0.0000     0.0000    -0.0000 </r>
      <r>    29.7963   -34.1164   -27.0297   -38.3537     0.0000     0.0000    -0.0000 </r>
      <r>    29.8168   -33.9807   -26.9710   -38.2082     0.0000     0.0000    -0.0000 </r>
      <r>    29.8372   -33.8462   -26.9125   -38.0639     0.0000     0.0000    -0.0000 </r>
      <r>    29.8577   -33.7129   -26.8542   -37.9207     0.0000     0.0000    -0.0000 </r>
      <r>    29.8782   -33.5809   -26.7961   -37.7786     0.0000     0.0000    -0.0000 </r>
      <r>    29.8986   -33.4501   -26.7382   -37.6376     0.0000     0.0000    -0.0000 </r>
      <r>    29.9191   -33.3204   -26.6806   -37.4976     0.0000     0.0000    -0.0000 </r>
      <r>    29.9396   -33.1919   -26.6231   -37.3588     0.0000     0.0000    -0.0000 </r>
      <r>    29.9600   -33.0646   -26.5659   -37.2210     0.0000     0.0000    -0.0000 </r>
      <r>    29.9805   -32.9383   -26.5089   -37.0842     0.0000     0.0000    -0.0000 </r>
      <r>    30.0010   -32.8131   -26.4520   -36.9484     0.0000     0.0000    -0.0000 </r>
      <r>    30.0214   -32.6891   -26.3954   -36.8137     0.0000     0.0000    -0.0000 </r>
      <r>    30.0419   -32.5660   -26.3390   -36.6800     0.0000     0.0000    -0.0000 </r>
      <r>    30.0624   -32.4440   -26.2828   -36.5472     0.0000     0.0000    -0.0000 </r>
      <r>    30.0828   -32.3230   -26.2268   -36.4154     0.0000     0.0000    -0.0000 </r>
      <r>    30.1033   -32.2030   -26.1710   -36.2846     0.0000     0.0000    -0.0000 </r>
      <r>    30.1237   -32.0840   -26.1153   -36.1547     0.0000     0.0000    -0.0000 </r>
      <r>    30.1442   -31.9660   -26.0599   -36.0257     0.0000     0.0000    -0.0000 </r>
      <r>    30.1647   -31.8489   -26.0047   -35.8977     0.0000     0.0000    -0.0000 </r>
      <r>    30.1851   -31.7327   -25.9497   -35.7706     0.0000     0.0000    -0.0000 </r>
      <r>    30.2056   -31.6175   -25.8948   -35.6443     0.0000     0.0000    -0.0000 </r>
      <r>    30.2261   -31.5031   -25.8402   -35.5190     0.0000     0.0000    -0.0000 </r>
      <r>    30.2465   -31.3897   -25.7858   -35.3945     0.0000     0.0000    -0.0000 </r>
      <r>    30.2670   -31.2771   -25.7315   -35.2710     0.0000     0.0000    -0.0000 </r>
      <r>    30.2875   -31.1655   -25.6775   -35.1482     0.0000     0.0000    -0.0000 </r>
      <r>    30.3079   -31.0546   -25.6236   -35.0263     0.0000     0.0000    -0.0000 </r>
      <r>    30.3284   -30.9446   -25.5699   -34.9053     0.0000     0.0000    -0.0000 </r>
      <r>    30.3489   -30.8354   -25.5164   -34.7850     0.0000     0.0000    -0.0000 </r>
      <r>    30.3693   -30.7271   -25.4631   -34.6656     0.0000     0.0000    -0.0000 </r>
      <r>    30.3898   -30.6195   -25.4100   -34.5470     0.0000     0.0000    -0.0000 </r>
      <r>    30.4103   -30.5127   -25.3571   -34.4292     0.0000     0.0000    -0.0000 </r>
      <r>    30.4307   -30.4067   -25.3043   -34.3122     0.0000     0.0000    -0.0000 </r>
      <r>    30.4512   -30.3015   -25.2518   -34.1960     0.0000     0.0000    -0.0000 </r>
      <r>    30.4716   -30.1971   -25.1994   -34.0805     0.0000     0.0000    -0.0000 </r>
      <r>    30.4921   -30.0934   -25.1472   -33.9658     0.0000     0.0000    -0.0000 </r>
      <r>    30.5126   -29.9904   -25.0952   -33.8519     0.0000     0.0000    -0.0000 </r>
      <r>    30.5330   -29.8882   -25.0434   -33.7387     0.0000     0.0000    -0.0000 </r>
      <r>    30.5535   -29.7866   -24.9917   -33.6262     0.0000     0.0000    -0.0000 </r>
      <r>    30.5740   -29.6858   -24.9402   -33.5145     0.0000     0.0000    -0.0000 </r>
      <r>    30.5944   -29.5857   -24.8889   -33.4035     0.0000     0.0000    -0.0000 </r>
      <r>    30.6149   -29.4863   -24.8378   -33.2932     0.0000     0.0000    -0.0000 </r>
      <r>    30.6354   -29.3876   -24.7868   -33.1836     0.0000     0.0000    -0.0000 </r>
      <r>    30.6558   -29.2895   -24.7361   -33.0747     0.0000     0.0000    -0.0000 </r>
      <r>    30.6763   -29.1921   -24.6855   -32.9665     0.0000     0.0000    -0.0000 </r>
      <r>    30.6968   -29.0954   -24.6350   -32.8590     0.0000     0.0000    -0.0000 </r>
      <r>    30.7172   -28.9993   -24.5848   -32.7521     0.0000     0.0000    -0.0000 </r>
      <r>    30.7377   -28.9039   -24.5347   -32.6460     0.0000     0.0000    -0.0000 </r>
      <r>    30.7581   -28.8090   -24.4848   -32.5404     0.0000     0.0000    -0.0000 </r>
      <r>    30.7786   -28.7149   -24.4351   -32.4356     0.0000     0.0000    -0.0000 </r>
      <r>    30.7991   -28.6213   -24.3855   -32.3314     0.0000     0.0000    -0.0000 </r>
      <r>    30.8195   -28.5283   -24.3361   -32.2278     0.0000     0.0000    -0.0000 </r>
      <r>    30.8400   -28.4360   -24.2868   -32.1249     0.0000     0.0000    -0.0000 </r>
      <r>    30.8605   -28.3442   -24.2378   -32.0226     0.0000     0.0000    -0.0000 </r>
      <r>    30.8809   -28.2531   -24.1889   -31.9209     0.0000     0.0000    -0.0000 </r>
      <r>    30.9014   -28.1625   -24.1401   -31.8199     0.0000     0.0000    -0.0000 </r>
      <r>    30.9219   -28.0725   -24.0915   -31.7194     0.0000     0.0000    -0.0000 </r>
      <r>    30.9423   -27.9831   -24.0431   -31.6196     0.0000     0.0000    -0.0000 </r>
      <r>    30.9628   -27.8942   -23.9949   -31.5203     0.0000     0.0000    -0.0000 </r>
      <r>    30.9833   -27.8059   -23.9468   -31.4217     0.0000     0.0000    -0.0000 </r>
      <r>    31.0037   -27.7182   -23.8988   -31.3236     0.0000     0.0000    -0.0000 </r>
      <r>    31.0242   -27.6309   -23.8511   -31.2262     0.0000     0.0000    -0.0000 </r>
      <r>    31.0446   -27.5443   -23.8035   -31.1292     0.0000     0.0000    -0.0000 </r>
      <r>    31.0651   -27.4581   -23.7560   -31.0329     0.0000     0.0000    -0.0000 </r>
      <r>    31.0856   -27.3725   -23.7087   -30.9371     0.0000     0.0000    -0.0000 </r>
      <r>    31.1060   -27.2875   -23.6616   -30.8419     0.0000     0.0000    -0.0000 </r>
      <r>    31.1265   -27.2029   -23.6146   -30.7473     0.0000     0.0000    -0.0000 </r>
      <r>    31.1470   -27.1188   -23.5678   -30.6532     0.0000     0.0000    -0.0000 </r>
      <r>    31.1674   -27.0353   -23.5211   -30.5596     0.0000     0.0000    -0.0000 </r>
      <r>    31.1879   -26.9523   -23.4746   -30.4666     0.0000     0.0000    -0.0000 </r>
      <r>    31.2084   -26.8697   -23.4282   -30.3741     0.0000     0.0000    -0.0000 </r>
      <r>    31.2288   -26.7876   -23.3820   -30.2821     0.0000     0.0000    -0.0000 </r>
      <r>    31.2493   -26.7061   -23.3359   -30.1907     0.0000     0.0000    -0.0000 </r>
      <r>    31.2698   -26.6250   -23.2900   -30.0998     0.0000     0.0000    -0.0000 </r>
      <r>    31.2902   -26.5444   -23.2443   -30.0094     0.0000     0.0000    -0.0000 </r>
      <r>    31.3107   -26.4642   -23.1987   -29.9195     0.0000     0.0000    -0.0000 </r>
      <r>    31.3312   -26.3846   -23.1532   -29.8301     0.0000     0.0000    -0.0000 </r>
      <r>    31.3516   -26.3053   -23.1079   -29.7412     0.0000     0.0000    -0.0000 </r>
      <r>    31.3721   -26.2266   -23.0627   -29.6528     0.0000     0.0000    -0.0000 </r>
      <r>    31.3925   -26.1483   -23.0177   -29.5649     0.0000     0.0000    -0.0000 </r>
      <r>    31.4130   -26.0704   -22.9728   -29.4775     0.0000     0.0000    -0.0000 </r>
      <r>    31.4335   -25.9930   -22.9281   -29.3905     0.0000     0.0000    -0.0000 </r>
      <r>    31.4539   -25.9160   -22.8835   -29.3041     0.0000     0.0000    -0.0000 </r>
      <r>    31.4744   -25.8395   -22.8391   -29.2181     0.0000     0.0000    -0.0000 </r>
      <r>    31.4949   -25.7634   -22.7948   -29.1326     0.0000     0.0000    -0.0000 </r>
      <r>    31.5153   -25.6877   -22.7507   -29.0475     0.0000     0.0000    -0.0000 </r>
      <r>    31.5358   -25.6125   -22.7066   -28.9630     0.0000     0.0000    -0.0000 </r>
      <r>    31.5563   -25.5377   -22.6628   -28.8788     0.0000     0.0000    -0.0000 </r>
      <r>    31.5767   -25.4633   -22.6191   -28.7952     0.0000     0.0000    -0.0000 </r>
      <r>    31.5972   -25.3893   -22.5755   -28.7119     0.0000     0.0000    -0.0000 </r>
      <r>    31.6177   -25.3157   -22.5320   -28.6292     0.0000     0.0000    -0.0000 </r>
      <r>    31.6381   -25.2425   -22.4887   -28.5468     0.0000     0.0000    -0.0000 </r>
      <r>    31.6586   -25.1697   -22.4455   -28.4649     0.0000     0.0000    -0.0000 </r>
      <r>    31.6790   -25.0973   -22.4025   -28.3835     0.0000     0.0000    -0.0000 </r>
      <r>    31.6995   -25.0253   -22.3596   -28.3025     0.0000     0.0000    -0.0000 </r>
      <r>    31.7200   -24.9537   -22.3169   -28.2219     0.0000     0.0000    -0.0000 </r>
      <r>    31.7404   -24.8825   -22.2742   -28.1417     0.0000     0.0000    -0.0000 </r>
      <r>    31.7609   -24.8117   -22.2318   -28.0619     0.0000     0.0000    -0.0000 </r>
      <r>    31.7814   -24.7412   -22.1894   -27.9826     0.0000     0.0000    -0.0000 </r>
      <r>    31.8018   -24.6711   -22.1472   -27.9037     0.0000     0.0000    -0.0000 </r>
      <r>    31.8223   -24.6014   -22.1051   -27.8252     0.0000     0.0000    -0.0000 </r>
      <r>    31.8428   -24.5321   -22.0632   -27.7471     0.0000     0.0000    -0.0000 </r>
      <r>    31.8632   -24.4631   -22.0213   -27.6694     0.0000     0.0000    -0.0000 </r>
      <r>    31.8837   -24.3945   -21.9796   -27.5921     0.0000     0.0000    -0.0000 </r>
      <r>    31.9042   -24.3263   -21.9381   -27.5152     0.0000     0.0000    -0.0000 </r>
      <r>    31.9246   -24.2584   -21.8967   -27.4386     0.0000     0.0000    -0.0000 </r>
      <r>    31.9451   -24.1909   -21.8554   -27.3625     0.0000     0.0000    -0.0000 </r>
      <r>    31.9656   -24.1237   -21.8142   -27.2868     0.0000     0.0000    -0.0000 </r>
      <r>    31.9860   -24.0569   -21.7732   -27.2114     0.0000     0.0000    -0.0000 </r>
      <r>    32.0065   -23.9904   -21.7322   -27.1365     0.0000     0.0000    -0.0000 </r>
      <r>    32.0269   -23.9242   -21.6915   -27.0619     0.0000     0.0000    -0.0000 </r>
      <r>    32.0474   -23.8584   -21.6508   -26.9877     0.0000     0.0000    -0.0000 </r>
      <r>    32.0679   -23.7930   -21.6103   -26.9139     0.0000     0.0000    -0.0000 </r>
      <r>    32.0883   -23.7278   -21.5699   -26.8404     0.0000     0.0000    -0.0000 </r>
      <r>    32.1088   -23.6630   -21.5296   -26.7673     0.0000     0.0000    -0.0000 </r>
      <r>    32.1293   -23.5986   -21.4894   -26.6945     0.0000     0.0000    -0.0000 </r>
      <r>    32.1497   -23.5344   -21.4494   -26.6222     0.0000     0.0000    -0.0000 </r>
      <r>    32.1702   -23.4706   -21.4095   -26.5502     0.0000     0.0000    -0.0000 </r>
      <r>    32.1907   -23.4071   -21.3697   -26.4785     0.0000     0.0000    -0.0000 </r>
      <r>    32.2111   -23.3439   -21.3300   -26.4072     0.0000     0.0000    -0.0000 </r>
      <r>    32.2316   -23.2811   -21.2905   -26.3362     0.0000     0.0000    -0.0000 </r>
      <r>    32.2521   -23.2185   -21.2511   -26.2656     0.0000     0.0000    -0.0000 </r>
      <r>    32.2725   -23.1563   -21.2118   -26.1953     0.0000     0.0000    -0.0000 </r>
      <r>    32.2930   -23.0944   -21.1726   -26.1254     0.0000     0.0000    -0.0000 </r>
      <r>    32.3134   -23.0327   -21.1336   -26.0558     0.0000     0.0000    -0.0000 </r>
      <r>    32.3339   -22.9714   -21.0946   -25.9866     0.0000     0.0000    -0.0000 </r>
      <r>    32.3544   -22.9104   -21.0558   -25.9177     0.0000     0.0000    -0.0000 </r>
      <r>    32.3748   -22.8497   -21.0171   -25.8491     0.0000     0.0000    -0.0000 </r>
      <r>    32.3953   -22.7892   -20.9785   -25.7808     0.0000     0.0000    -0.0000 </r>
      <r>    32.4158   -22.7291   -20.9400   -25.7129     0.0000     0.0000    -0.0000 </r>
      <r>    32.4362   -22.6693   -20.9017   -25.6453     0.0000     0.0000    -0.0000 </r>
      <r>    32.4567   -22.6097   -20.8635   -25.5780     0.0000     0.0000    -0.0000 </r>
      <r>    32.4772   -22.5505   -20.8253   -25.5111     0.0000     0.0000    -0.0000 </r>
      <r>    32.4976   -22.4915   -20.7873   -25.4444     0.0000     0.0000    -0.0000 </r>
      <r>    32.5181   -22.4328   -20.7494   -25.3781     0.0000     0.0000    -0.0000 </r>
      <r>    32.5386   -22.3744   -20.7117   -25.3121     0.0000     0.0000    -0.0000 </r>
      <r>    32.5590   -22.3162   -20.6740   -25.2464     0.0000     0.0000    -0.0000 </r>
      <r>    32.5795   -22.2584   -20.6365   -25.1810     0.0000     0.0000    -0.0000 </r>
      <r>    32.6000   -22.2008   -20.5990   -25.1159     0.0000     0.0000    -0.0000 </r>
      <r>    32.6204   -22.1435   -20.5617   -25.0511     0.0000     0.0000    -0.0000 </r>
      <r>    32.6409   -22.0865   -20.5245   -24.9867     0.0000     0.0000    -0.0000 </r>
      <r>    32.6613   -22.0297   -20.4874   -24.9225     0.0000     0.0000    -0.0000 </r>
      <r>    32.6818   -21.9732   -20.4504   -24.8586     0.0000     0.0000    -0.0000 </r>
      <r>    32.7023   -21.9169   -20.4135   -24.7950     0.0000     0.0000    -0.0000 </r>
      <r>    32.7227   -21.8610   -20.3767   -24.7317     0.0000     0.0000    -0.0000 </r>
      <r>    32.7432   -21.8053   -20.3401   -24.6687     0.0000     0.0000    -0.0000 </r>
      <r>    32.7637   -21.7498   -20.3035   -24.6060     0.0000     0.0000    -0.0000 </r>
      <r>    32.7841   -21.6946   -20.2671   -24.5436     0.0000     0.0000    -0.0000 </r>
      <r>    32.8046   -21.6396   -20.2308   -24.4814     0.0000     0.0000    -0.0000 </r>
      <r>    32.8251   -21.5850   -20.1945   -24.4196     0.0000     0.0000    -0.0000 </r>
      <r>    32.8455   -21.5305   -20.1584   -24.3580     0.0000     0.0000    -0.0000 </r>
      <r>    32.8660   -21.4763   -20.1224   -24.2967     0.0000     0.0000    -0.0000 </r>
      <r>    32.8865   -21.4224   -20.0865   -24.2357     0.0000     0.0000    -0.0000 </r>
      <r>    32.9069   -21.3687   -20.0507   -24.1749     0.0000     0.0000    -0.0000 </r>
      <r>    32.9274   -21.3152   -20.0150   -24.1144     0.0000     0.0000    -0.0000 </r>
      <r>    32.9478   -21.2620   -19.9794   -24.0542     0.0000     0.0000    -0.0000 </r>
      <r>    32.9683   -21.2091   -19.9439   -23.9943     0.0000     0.0000    -0.0000 </r>
      <r>    32.9888   -21.1563   -19.9085   -23.9346     0.0000     0.0000    -0.0000 </r>
      <r>    33.0092   -21.1038   -19.8732   -23.8752     0.0000     0.0000    -0.0000 </r>
      <r>    33.0297   -21.0516   -19.8381   -23.8161     0.0000     0.0000    -0.0000 </r>
      <r>    33.0502   -20.9996   -19.8030   -23.7572     0.0000     0.0000    -0.0000 </r>
      <r>    33.0706   -20.9478   -19.7680   -23.6986     0.0000     0.0000    -0.0000 </r>
      <r>    33.0911   -20.8962   -19.7332   -23.6403     0.0000     0.0000    -0.0000 </r>
      <r>    33.1116   -20.8449   -19.6984   -23.5822     0.0000     0.0000    -0.0000 </r>
      <r>    33.1320   -20.7938   -19.6637   -23.5243     0.0000     0.0000    -0.0000 </r>
      <r>    33.1525   -20.7429   -19.6291   -23.4667     0.0000     0.0000    -0.0000 </r>
      <r>    33.1730   -20.6923   -19.5947   -23.4094     0.0000     0.0000    -0.0000 </r>
      <r>    33.1934   -20.6418   -19.5603   -23.3523     0.0000     0.0000    -0.0000 </r>
      <r>    33.2139   -20.5916   -19.5260   -23.2955     0.0000     0.0000    -0.0000 </r>
      <r>    33.2344   -20.5416   -19.4919   -23.2389     0.0000     0.0000    -0.0000 </r>
      <r>    33.2548   -20.4919   -19.4578   -23.1825     0.0000     0.0000    -0.0000 </r>
      <r>    33.2753   -20.4423   -19.4238   -23.1264     0.0000     0.0000    -0.0000 </r>
      <r>    33.2957   -20.3930   -19.3900   -23.0706     0.0000     0.0000    -0.0000 </r>
      <r>    33.3162   -20.3439   -19.3562   -23.0150     0.0000     0.0000    -0.0000 </r>
      <r>    33.3367   -20.2950   -19.3225   -22.9596     0.0000     0.0000    -0.0000 </r>
      <r>    33.3571   -20.2463   -19.2889   -22.9044     0.0000     0.0000    -0.0000 </r>
      <r>    33.3776   -20.1978   -19.2554   -22.8495     0.0000     0.0000    -0.0000 </r>
      <r>    33.3981   -20.1495   -19.2220   -22.7949     0.0000     0.0000    -0.0000 </r>
      <r>    33.4185   -20.1015   -19.1887   -22.7404     0.0000     0.0000    -0.0000 </r>
      <r>    33.4390   -20.0536   -19.1555   -22.6862     0.0000     0.0000    -0.0000 </r>
      <r>    33.4595   -20.0059   -19.1224   -22.6322     0.0000     0.0000    -0.0000 </r>
      <r>    33.4799   -19.9585   -19.0894   -22.5785     0.0000     0.0000    -0.0000 </r>
      <r>    33.5004   -19.9112   -19.0565   -22.5250     0.0000    -0.0000    -0.0000 </r>
      <r>    33.5209   -19.8642   -19.0237   -22.4717     0.0000    -0.0000    -0.0000 </r>
      <r>    33.5413   -19.8173   -18.9909   -22.4186     0.0000    -0.0000    -0.0000 </r>
      <r>    33.5618   -19.7707   -18.9583   -22.3658     0.0000    -0.0000    -0.0000 </r>
      <r>    33.5822   -19.7242   -18.9257   -22.3131     0.0000    -0.0000    -0.0000 </r>
      <r>    33.6027   -19.6779   -18.8933   -22.2607     0.0000    -0.0000    -0.0000 </r>
      <r>    33.6232   -19.6319   -18.8609   -22.2085     0.0000    -0.0000    -0.0000 </r>
      <r>    33.6436   -19.5860   -18.8286   -22.1566     0.0000    -0.0000    -0.0000 </r>
      <r>    33.6641   -19.5403   -18.7964   -22.1048     0.0000    -0.0000    -0.0000 </r>
      <r>    33.6846   -19.4948   -18.7643   -22.0533     0.0000    -0.0000    -0.0000 </r>
      <r>    33.7050   -19.4495   -18.7323   -22.0019     0.0000    -0.0000    -0.0000 </r>
      <r>    33.7255   -19.4044   -18.7004   -21.9508     0.0000    -0.0000    -0.0000 </r>
      <r>    33.7460   -19.3595   -18.6686   -21.8999     0.0000    -0.0000    -0.0000 </r>
      <r>    33.7664   -19.3147   -18.6369   -21.8492     0.0000    -0.0000    -0.0000 </r>
      <r>    33.7869   -19.2702   -18.6052   -21.7987     0.0000    -0.0000    -0.0000 </r>
      <r>    33.8074   -19.2258   -18.5737   -21.7484     0.0000    -0.0000    -0.0000 </r>
      <r>    33.8278   -19.1816   -18.5422   -21.6983     0.0000    -0.0000    -0.0000 </r>
      <r>    33.8483   -19.1376   -18.5108   -21.6485     0.0000    -0.0000    -0.0000 </r>
      <r>    33.8688   -19.0937   -18.4795   -21.5988     0.0000    -0.0000    -0.0000 </r>
      <r>    33.8892   -19.0501   -18.4483   -21.5493     0.0000    -0.0000    -0.0000 </r>
      <r>    33.9097   -19.0066   -18.4172   -21.5000     0.0000    -0.0000    -0.0000 </r>
      <r>    33.9301   -18.9633   -18.3861   -21.4510     0.0000    -0.0000    -0.0000 </r>
      <r>    33.9506   -18.9202   -18.3552   -21.4021     0.0000    -0.0000    -0.0000 </r>
      <r>    33.9711   -18.8772   -18.3243   -21.3534     0.0000    -0.0000    -0.0000 </r>
      <r>    33.9915   -18.8345   -18.2935   -21.3049     0.0000    -0.0000    -0.0000 </r>
      <r>    34.0120   -18.7919   -18.2628   -21.2566     0.0000    -0.0000    -0.0000 </r>
      <r>    34.0325   -18.7494   -18.2322   -21.2085     0.0000    -0.0000    -0.0000 </r>
      <r>    34.0529   -18.7072   -18.2017   -21.1606     0.0000    -0.0000    -0.0000 </r>
      <r>    34.0734   -18.6651   -18.1713   -21.1129     0.0000    -0.0000    -0.0000 </r>
      <r>    34.0939   -18.6231   -18.1409   -21.0654     0.0000    -0.0000    -0.0000 </r>
      <r>    34.1143   -18.5814   -18.1106   -21.0180     0.0000    -0.0000    -0.0000 </r>
      <r>    34.1348   -18.5398   -18.0804   -20.9709     0.0000    -0.0000    -0.0000 </r>
      <r>    34.1553   -18.4984   -18.0503   -20.9239     0.0000    -0.0000    -0.0000 </r>
      <r>    34.1757   -18.4571   -18.0203   -20.8772     0.0000    -0.0000    -0.0000 </r>
      <r>    34.1962   -18.4160   -17.9903   -20.8306     0.0000    -0.0000    -0.0000 </r>
      <r>    34.2166   -18.3751   -17.9605   -20.7841     0.0000    -0.0000    -0.0000 </r>
      <r>    34.2371   -18.3343   -17.9307   -20.7379     0.0000    -0.0000    -0.0000 </r>
      <r>    34.2576   -18.2937   -17.9010   -20.6919     0.0000    -0.0000    -0.0000 </r>
      <r>    34.2780   -18.2532   -17.8714   -20.6460     0.0000    -0.0000    -0.0000 </r>
      <r>    34.2985   -18.2129   -17.8418   -20.6003     0.0000    -0.0000    -0.0000 </r>
      <r>    34.3190   -18.1728   -17.8123   -20.5548     0.0000    -0.0000    -0.0000 </r>
      <r>    34.3394   -18.1328   -17.7830   -20.5095     0.0000    -0.0000    -0.0000 </r>
      <r>    34.3599   -18.0929   -17.7537   -20.4643     0.0000    -0.0000    -0.0000 </r>
      <r>    34.3804   -18.0533   -17.7244   -20.4193     0.0000    -0.0000    -0.0000 </r>
      <r>    34.4008   -18.0137   -17.6953   -20.3745     0.0000    -0.0000    -0.0000 </r>
      <r>    34.4213   -17.9744   -17.6662   -20.3299     0.0000    -0.0000    -0.0000 </r>
      <r>    34.4418   -17.9352   -17.6372   -20.2854     0.0000    -0.0000    -0.0000 </r>
      <r>    34.4622   -17.8961   -17.6083   -20.2411     0.0000    -0.0000    -0.0000 </r>
      <r>    34.4827   -17.8572   -17.5795   -20.1970     0.0000    -0.0000    -0.0000 </r>
      <r>    34.5032   -17.8184   -17.5507   -20.1530     0.0000    -0.0000    -0.0000 </r>
      <r>    34.5236   -17.7798   -17.5220   -20.1092     0.0000    -0.0000    -0.0000 </r>
      <r>    34.5441   -17.7413   -17.4934   -20.0656     0.0000    -0.0000    -0.0000 </r>
      <r>    34.5645   -17.7030   -17.4649   -20.0221     0.0000    -0.0000    -0.0000 </r>
      <r>    34.5850   -17.6648   -17.4365   -19.9788     0.0000    -0.0000    -0.0000 </r>
      <r>    34.6055   -17.6268   -17.4081   -19.9357     0.0000    -0.0000    -0.0000 </r>
      <r>    34.6259   -17.5889   -17.3798   -19.8927     0.0000    -0.0000    -0.0000 </r>
      <r>    34.6464   -17.5511   -17.3516   -19.8499     0.0000    -0.0000    -0.0000 </r>
      <r>    34.6669   -17.5135   -17.3234   -19.8073     0.0000    -0.0000    -0.0000 </r>
      <r>    34.6873   -17.4761   -17.2953   -19.7648     0.0000    -0.0000    -0.0000 </r>
      <r>    34.7078   -17.4388   -17.2673   -19.7225     0.0000    -0.0000    -0.0000 </r>
      <r>    34.7283   -17.4016   -17.2394   -19.6803     0.0000    -0.0000    -0.0000 </r>
      <r>    34.7487   -17.3645   -17.2115   -19.6383     0.0000    -0.0000    -0.0000 </r>
      <r>    34.7692   -17.3276   -17.1838   -19.5964     0.0000    -0.0000    -0.0000 </r>
      <r>    34.7897   -17.2909   -17.1561   -19.5547     0.0000    -0.0000    -0.0000 </r>
      <r>    34.8101   -17.2542   -17.1284   -19.5132     0.0000    -0.0000    -0.0000 </r>
      <r>    34.8306   -17.2178   -17.1009   -19.4718     0.0000    -0.0000    -0.0000 </r>
      <r>    34.8510   -17.1814   -17.0734   -19.4306     0.0000    -0.0000    -0.0000 </r>
      <r>    34.8715   -17.1452   -17.0460   -19.3895     0.0000    -0.0000    -0.0000 </r>
      <r>    34.8920   -17.1091   -17.0186   -19.3485     0.0000    -0.0000    -0.0000 </r>
      <r>    34.9124   -17.0731   -16.9913   -19.3078     0.0000    -0.0000    -0.0000 </r>
      <r>    34.9329   -17.0373   -16.9641   -19.2671     0.0000    -0.0000    -0.0000 </r>
      <r>    34.9534   -17.0016   -16.9370   -19.2266     0.0000    -0.0000    -0.0000 </r>
      <r>    34.9738   -16.9661   -16.9100   -19.1863     0.0000    -0.0000    -0.0000 </r>
      <r>    34.9943   -16.9306   -16.8830   -19.1461     0.0000    -0.0000    -0.0000 </r>
      <r>    35.0148   -16.8953   -16.8561   -19.1061     0.0000    -0.0000    -0.0000 </r>
      <r>    35.0352   -16.8602   -16.8292   -19.0662     0.0000    -0.0000    -0.0000 </r>
      <r>    35.0557   -16.8251   -16.8024   -19.0264     0.0000    -0.0000    -0.0000 </r>
      <r>    35.0762   -16.7902   -16.7757   -18.9868     0.0000    -0.0000    -0.0000 </r>
      <r>    35.0966   -16.7554   -16.7491   -18.9474     0.0000    -0.0000    -0.0000 </r>
      <r>    35.1171   -16.7208   -16.7225   -18.9080     0.0000    -0.0000    -0.0000 </r>
      <r>    35.1375   -16.6862   -16.6960   -18.8689     0.0000    -0.0000    -0.0000 </r>
      <r>    35.1580   -16.6518   -16.6696   -18.8298     0.0000    -0.0000    -0.0000 </r>
      <r>    35.1785   -16.6175   -16.6432   -18.7909     0.0000    -0.0000    -0.0000 </r>
      <r>    35.1989   -16.5834   -16.6169   -18.7522     0.0000    -0.0000    -0.0000 </r>
      <r>    35.2194   -16.5493   -16.5907   -18.7136     0.0000    -0.0000    -0.0000 </r>
      <r>    35.2399   -16.5154   -16.5645   -18.6751     0.0000    -0.0000    -0.0000 </r>
      <r>    35.2603   -16.4816   -16.5384   -18.6367     0.0000    -0.0000    -0.0000 </r>
      <r>    35.2808   -16.4479   -16.5124   -18.5985     0.0000    -0.0000    -0.0000 </r>
      <r>    35.3013   -16.4144   -16.4864   -18.5605     0.0000    -0.0000    -0.0000 </r>
      <r>    35.3217   -16.3809   -16.4605   -18.5225     0.0000    -0.0000    -0.0000 </r>
      <r>    35.3422   -16.3476   -16.4347   -18.4847     0.0000    -0.0000    -0.0000 </r>
      <r>    35.3627   -16.3144   -16.4089   -18.4471     0.0000    -0.0000    -0.0000 </r>
      <r>    35.3831   -16.2813   -16.3832   -18.4095     0.0000    -0.0000    -0.0000 </r>
      <r>    35.4036   -16.2484   -16.3576   -18.3721     0.0000    -0.0000    -0.0000 </r>
      <r>    35.4241   -16.2155   -16.3321   -18.3348     0.0000    -0.0000    -0.0000 </r>
      <r>    35.4445   -16.1828   -16.3066   -18.2977     0.0000    -0.0000    -0.0000 </r>
      <r>    35.4650   -16.1501   -16.2811   -18.2607     0.0000    -0.0000    -0.0000 </r>
      <r>    35.4854   -16.1176   -16.2557   -18.2238     0.0000    -0.0000    -0.0000 </r>
      <r>    35.5059   -16.0853   -16.2304   -18.1871     0.0000    -0.0000    -0.0000 </r>
      <r>    35.5264   -16.0530   -16.2052   -18.1505     0.0000    -0.0000    -0.0000 </r>
      <r>    35.5468   -16.0208   -16.1800   -18.1140     0.0000    -0.0000    -0.0000 </r>
      <r>    35.5673   -15.9888   -16.1549   -18.0776     0.0000    -0.0000    -0.0000 </r>
      <r>    35.5878   -15.9568   -16.1299   -18.0414     0.0000    -0.0000    -0.0000 </r>
      <r>    35.6082   -15.9250   -16.1049   -18.0052     0.0000    -0.0000    -0.0000 </r>
      <r>    35.6287   -15.8933   -16.0799   -17.9693     0.0000    -0.0000    -0.0000 </r>
      <r>    35.6492   -15.8617   -16.0551   -17.9334     0.0000    -0.0000    -0.0000 </r>
      <r>    35.6696   -15.8302   -16.0303   -17.8976     0.0000    -0.0000    -0.0000 </r>
      <r>    35.6901   -15.7988   -16.0055   -17.8620     0.0000    -0.0000    -0.0000 </r>
      <r>    35.7106   -15.7675   -15.9809   -17.8265     0.0000    -0.0000    -0.0000 </r>
      <r>    35.7310   -15.7363   -15.9562   -17.7912     0.0000    -0.0000    -0.0000 </r>
      <r>    35.7515   -15.7052   -15.9317   -17.7559     0.0000    -0.0000    -0.0000 </r>
      <r>    35.7719   -15.6743   -15.9072   -17.7208     0.0000    -0.0000    -0.0000 </r>
      <r>    35.7924   -15.6434   -15.8828   -17.6858     0.0000    -0.0000    -0.0000 </r>
      <r>    35.8129   -15.6127   -15.8584   -17.6509     0.0000    -0.0000    -0.0000 </r>
      <r>    35.8333   -15.5820   -15.8341   -17.6161     0.0000    -0.0000    -0.0000 </r>
      <r>    35.8538   -15.5515   -15.8099   -17.5815     0.0000    -0.0000    -0.0000 </r>
      <r>    35.8743   -15.5210   -15.7857   -17.5469     0.0000    -0.0000    -0.0000 </r>
      <r>    35.8947   -15.4907   -15.7615   -17.5125     0.0000    -0.0000    -0.0000 </r>
      <r>    35.9152   -15.4605   -15.7375   -17.4782     0.0000    -0.0000    -0.0000 </r>
      <r>    35.9357   -15.4304   -15.7135   -17.4440     0.0000    -0.0000    -0.0000 </r>
      <r>    35.9561   -15.4003   -15.6895   -17.4099     0.0000    -0.0000    -0.0000 </r>
      <r>    35.9766   -15.3704   -15.6656   -17.3760     0.0000    -0.0000    -0.0000 </r>
      <r>    35.9971   -15.3406   -15.6418   -17.3421     0.0000    -0.0000    -0.0000 </r>
      <r>    36.0175   -15.3108   -15.6180   -17.3084     0.0000    -0.0000    -0.0000 </r>
      <r>    36.0380   -15.2812   -15.5943   -17.2748     0.0000    -0.0000    -0.0000 </r>
      <r>    36.0585   -15.2517   -15.5707   -17.2413     0.0000    -0.0000    -0.0000 </r>
      <r>    36.0789   -15.2223   -15.5471   -17.2079     0.0000    -0.0000    -0.0000 </r>
      <r>    36.0994   -15.1929   -15.5235   -17.1746     0.0000    -0.0000    -0.0000 </r>
      <r>    36.1198   -15.1637   -15.5001   -17.1414     0.0000    -0.0000    -0.0000 </r>
      <r>    36.1403   -15.1346   -15.4766   -17.1084     0.0000    -0.0000    -0.0000 </r>
      <r>    36.1608   -15.1055   -15.4533   -17.0754     0.0000    -0.0000    -0.0000 </r>
      <r>    36.1812   -15.0766   -15.4300   -17.0426     0.0000    -0.0000    -0.0000 </r>
      <r>    36.2017   -15.0477   -15.4067   -17.0099     0.0000    -0.0000    -0.0000 </r>
      <r>    36.2222   -15.0190   -15.3835   -16.9772     0.0000    -0.0000    -0.0000 </r>
      <r>    36.2426   -14.9903   -15.3604   -16.9447     0.0000    -0.0000    -0.0000 </r>
      <r>    36.2631   -14.9618   -15.3373   -16.9123     0.0000    -0.0000    -0.0000 </r>
      <r>    36.2836   -14.9333   -15.3143   -16.8800     0.0000    -0.0000    -0.0000 </r>
      <r>    36.3040   -14.9049   -15.2913   -16.8478     0.0000    -0.0000    -0.0000 </r>
      <r>    36.3245   -14.8767   -15.2684   -16.8157     0.0000    -0.0000    -0.0000 </r>
      <r>    36.3450   -14.8485   -15.2456   -16.7837     0.0000    -0.0000    -0.0000 </r>
      <r>    36.3654   -14.8204   -15.2228   -16.7518     0.0000    -0.0000    -0.0000 </r>
      <r>    36.3859   -14.7924   -15.2000   -16.7201     0.0000    -0.0000    -0.0000 </r>
      <r>    36.4063   -14.7645   -15.1773   -16.6884     0.0000    -0.0000    -0.0000 </r>
      <r>    36.4268   -14.7366   -15.1547   -16.6568     0.0000    -0.0000    -0.0000 </r>
      <r>    36.4473   -14.7089   -15.1321   -16.6254     0.0000    -0.0000    -0.0000 </r>
      <r>    36.4677   -14.6813   -15.1096   -16.5940     0.0000    -0.0000    -0.0000 </r>
      <r>    36.4882   -14.6537   -15.0871   -16.5627     0.0000    -0.0000    -0.0000 </r>
      <r>    36.5087   -14.6262   -15.0647   -16.5316     0.0000    -0.0000    -0.0000 </r>
      <r>    36.5291   -14.5989   -15.0423   -16.5005     0.0000    -0.0000    -0.0000 </r>
      <r>    36.5496   -14.5716   -15.0200   -16.4695     0.0000    -0.0000    -0.0000 </r>
      <r>    36.5701   -14.5444   -14.9978   -16.4387     0.0000    -0.0000    -0.0000 </r>
      <r>    36.5905   -14.5173   -14.9756   -16.4079     0.0000    -0.0000    -0.0000 </r>
      <r>    36.6110   -14.4903   -14.9534   -16.3772     0.0000    -0.0000    -0.0000 </r>
      <r>    36.6315   -14.4633   -14.9313   -16.3467     0.0000    -0.0000    -0.0000 </r>
      <r>    36.6519   -14.4365   -14.9093   -16.3162     0.0000    -0.0000    -0.0000 </r>
      <r>    36.6724   -14.4097   -14.8873   -16.2858     0.0000    -0.0000    -0.0000 </r>
      <r>    36.6929   -14.3830   -14.8654   -16.2555     0.0000    -0.0000    -0.0000 </r>
      <r>    36.7133   -14.3564   -14.8435   -16.2254     0.0000    -0.0000    -0.0000 </r>
      <r>    36.7338   -14.3299   -14.8217   -16.1953     0.0000    -0.0000    -0.0000 </r>
      <r>    36.7542   -14.3035   -14.7999   -16.1653     0.0000    -0.0000    -0.0000 </r>
      <r>    36.7747   -14.2771   -14.7781   -16.1354     0.0000    -0.0000    -0.0000 </r>
      <r>    36.7952   -14.2509   -14.7565   -16.1056     0.0000    -0.0000    -0.0000 </r>
      <r>    36.8156   -14.2247   -14.7348   -16.0759     0.0000    -0.0000    -0.0000 </r>
      <r>    36.8361   -14.1986   -14.7133   -16.0463     0.0000    -0.0000    -0.0000 </r>
      <r>    36.8566   -14.1726   -14.6917   -16.0168     0.0000    -0.0000    -0.0000 </r>
      <r>    36.8770   -14.1467   -14.6703   -15.9874     0.0000    -0.0000    -0.0000 </r>
      <r>    36.8975   -14.1208   -14.6489   -15.9580     0.0000    -0.0000    -0.0000 </r>
      <r>    36.9180   -14.0951   -14.6275   -15.9288     0.0000    -0.0000    -0.0000 </r>
      <r>    36.9384   -14.0694   -14.6062   -15.8996     0.0000    -0.0000    -0.0000 </r>
      <r>    36.9589   -14.0438   -14.5849   -15.8706     0.0000    -0.0000    -0.0000 </r>
      <r>    36.9794   -14.0182   -14.5637   -15.8416     0.0000    -0.0000    -0.0000 </r>
      <r>    36.9998   -13.9928   -14.5425   -15.8127     0.0000    -0.0000    -0.0000 </r>
      <r>    37.0203   -13.9674   -14.5214   -15.7839     0.0000    -0.0000    -0.0000 </r>
      <r>    37.0407   -13.9421   -14.5003   -15.7553     0.0000    -0.0000    -0.0000 </r>
      <r>    37.0612   -13.9169   -14.4793   -15.7266     0.0000    -0.0000    -0.0000 </r>
      <r>    37.0817   -13.8918   -14.4583   -15.6981     0.0000    -0.0000    -0.0000 </r>
      <r>    37.1021   -13.8668   -14.4374   -15.6697     0.0000    -0.0000    -0.0000 </r>
      <r>    37.1226   -13.8418   -14.4165   -15.6414     0.0000    -0.0000    -0.0000 </r>
      <r>    37.1431   -13.8169   -14.3957   -15.6131     0.0000    -0.0000    -0.0000 </r>
      <r>    37.1635   -13.7921   -14.3749   -15.5849     0.0000    -0.0000    -0.0000 </r>
      <r>    37.1840   -13.7673   -14.3542   -15.5568     0.0000    -0.0000    -0.0000 </r>
      <r>    37.2045   -13.7426   -14.3335   -15.5289     0.0000    -0.0000    -0.0000 </r>
      <r>    37.2249   -13.7180   -14.3129   -15.5009     0.0000    -0.0000    -0.0000 </r>
      <r>    37.2454   -13.6935   -14.2923   -15.4731     0.0000    -0.0000    -0.0000 </r>
      <r>    37.2659   -13.6691   -14.2718   -15.4454     0.0000    -0.0000    -0.0000 </r>
      <r>    37.2863   -13.6447   -14.2513   -15.4177     0.0000    -0.0000    -0.0000 </r>
      <r>    37.3068   -13.6204   -14.2308   -15.3902     0.0000    -0.0000    -0.0000 </r>
      <r>    37.3273   -13.5962   -14.2105   -15.3627     0.0000    -0.0000    -0.0000 </r>
      <r>    37.3477   -13.5720   -14.1901   -15.3353     0.0000    -0.0000    -0.0000 </r>
      <r>    37.3682   -13.5480   -14.1698   -15.3080     0.0000    -0.0000    -0.0000 </r>
      <r>    37.3886   -13.5240   -14.1496   -15.2807     0.0000    -0.0000    -0.0000 </r>
      <r>    37.4091   -13.5000   -14.1294   -15.2536     0.0000    -0.0000    -0.0000 </r>
      <r>    37.4296   -13.4762   -14.1092   -15.2265     0.0000    -0.0000    -0.0000 </r>
      <r>    37.4500   -13.4524   -14.0891   -15.1995     0.0000    -0.0000    -0.0000 </r>
      <r>    37.4705   -13.4287   -14.0690   -15.1726     0.0000    -0.0000    -0.0000 </r>
      <r>    37.4910   -13.4051   -14.0490   -15.1458     0.0000    -0.0000    -0.0000 </r>
      <r>    37.5114   -13.3815   -14.0290   -15.1190     0.0000    -0.0000    -0.0000 </r>
      <r>    37.5319   -13.3580   -14.0091   -15.0924     0.0000    -0.0000    -0.0000 </r>
      <r>    37.5524   -13.3346   -13.9892   -15.0658     0.0000    -0.0000    -0.0000 </r>
      <r>    37.5728   -13.3112   -13.9694   -15.0393     0.0000    -0.0000    -0.0000 </r>
      <r>    37.5933   -13.2879   -13.9496   -15.0128     0.0000    -0.0000    -0.0000 </r>
      <r>    37.6138   -13.2647   -13.9298   -14.9865     0.0000    -0.0000    -0.0000 </r>
      <r>    37.6342   -13.2415   -13.9101   -14.9602     0.0000    -0.0000    -0.0000 </r>
      <r>    37.6547   -13.2185   -13.8905   -14.9340     0.0000    -0.0000    -0.0000 </r>
      <r>    37.6751   -13.1954   -13.8709   -14.9079     0.0000    -0.0000    -0.0000 </r>
      <r>    37.6956   -13.1725   -13.8513   -14.8819     0.0000    -0.0000    -0.0000 </r>
      <r>    37.7161   -13.1496   -13.8318   -14.8559     0.0000    -0.0000    -0.0000 </r>
      <r>    37.7365   -13.1268   -13.8123   -14.8300     0.0000    -0.0000    -0.0000 </r>
      <r>    37.7570   -13.1041   -13.7929   -14.8042     0.0000    -0.0000    -0.0000 </r>
      <r>    37.7775   -13.0814   -13.7735   -14.7785     0.0000    -0.0000    -0.0000 </r>
      <r>    37.7979   -13.0588   -13.7542   -14.7529     0.0000    -0.0000    -0.0000 </r>
      <r>    37.8184   -13.0363   -13.7349   -14.7273     0.0000    -0.0000    -0.0000 </r>
      <r>    37.8389   -13.0138   -13.7156   -14.7018     0.0000    -0.0000    -0.0000 </r>
      <r>    37.8593   -12.9914   -13.6964   -14.6764     0.0000    -0.0000    -0.0000 </r>
      <r>    37.8798   -12.9690   -13.6772   -14.6510     0.0000    -0.0000    -0.0000 </r>
      <r>    37.9003   -12.9468   -13.6581   -14.6257     0.0000    -0.0000    -0.0000 </r>
      <r>    37.9207   -12.9245   -13.6390   -14.6005     0.0000    -0.0000    -0.0000 </r>
      <r>    37.9412   -12.9024   -13.6200   -14.5754     0.0000    -0.0000    -0.0000 </r>
      <r>    37.9617   -12.8803   -13.6010   -14.5503     0.0000    -0.0000    -0.0000 </r>
      <r>    37.9821   -12.8583   -13.5820   -14.5254     0.0000    -0.0000    -0.0000 </r>
      <r>    38.0026   -12.8363   -13.5631   -14.5004     0.0000    -0.0000    -0.0000 </r>
      <r>    38.0230   -12.8145   -13.5442   -14.4756     0.0000    -0.0000    -0.0000 </r>
      <r>    38.0435   -12.7926   -13.5254   -14.4508     0.0000    -0.0000    -0.0000 </r>
      <r>    38.0640   -12.7709   -13.5066   -14.4261     0.0000    -0.0000    -0.0000 </r>
      <r>    38.0844   -12.7492   -13.4879   -14.4015     0.0000    -0.0000    -0.0000 </r>
      <r>    38.1049   -12.7275   -13.4692   -14.3770     0.0000    -0.0000    -0.0000 </r>
      <r>    38.1254   -12.7059   -13.4505   -14.3525     0.0000    -0.0000    -0.0000 </r>
      <r>    38.1458   -12.6844   -13.4319   -14.3281     0.0000    -0.0000    -0.0000 </r>
      <r>    38.1663   -12.6630   -13.4133   -14.3037     0.0000    -0.0000    -0.0000 </r>
      <r>    38.1868   -12.6416   -13.3948   -14.2795     0.0000    -0.0000    -0.0000 </r>
      <r>    38.2072   -12.6203   -13.3763   -14.2553     0.0000    -0.0000    -0.0000 </r>
      <r>    38.2277   -12.5990   -13.3578   -14.2311     0.0000    -0.0000    -0.0000 </r>
      <r>    38.2482   -12.5778   -13.3394   -14.2071     0.0000    -0.0000    -0.0000 </r>
      <r>    38.2686   -12.5566   -13.3211   -14.1831     0.0000    -0.0000    -0.0000 </r>
      <r>    38.2891   -12.5356   -13.3027   -14.1592     0.0000    -0.0000    -0.0000 </r>
      <r>    38.3095   -12.5145   -13.2844   -14.1353     0.0000    -0.0000    -0.0000 </r>
      <r>    38.3300   -12.4936   -13.2662   -14.1115     0.0000    -0.0000    -0.0000 </r>
      <r>    38.3505   -12.4727   -13.2480   -14.0878     0.0000    -0.0000    -0.0000 </r>
      <r>    38.3709   -12.4518   -13.2298   -14.0641     0.0000    -0.0000    -0.0000 </r>
      <r>    38.3914   -12.4310   -13.2117   -14.0405     0.0000    -0.0000    -0.0000 </r>
      <r>    38.4119   -12.4103   -13.1936   -14.0170     0.0000    -0.0000    -0.0000 </r>
      <r>    38.4323   -12.3896   -13.1755   -13.9936     0.0000    -0.0000    -0.0000 </r>
      <r>    38.4528   -12.3690   -13.1575   -13.9702     0.0000    -0.0000    -0.0000 </r>
      <r>    38.4733   -12.3485   -13.1396   -13.9469     0.0000    -0.0000    -0.0000 </r>
      <r>    38.4937   -12.3280   -13.1216   -13.9236     0.0000    -0.0000    -0.0000 </r>
      <r>    38.5142   -12.3075   -13.1038   -13.9004     0.0000    -0.0000    -0.0000 </r>
      <r>    38.5347   -12.2871   -13.0859   -13.8773     0.0000    -0.0000    -0.0000 </r>
      <r>    38.5551   -12.2668   -13.0681   -13.8542     0.0000    -0.0000    -0.0000 </r>
      <r>    38.5756   -12.2466   -13.0503   -13.8313     0.0000    -0.0000    -0.0000 </r>
      <r>    38.5961   -12.2263   -13.0326   -13.8083     0.0000    -0.0000    -0.0000 </r>
      <r>    38.6165   -12.2062   -13.0149   -13.7855     0.0000    -0.0000    -0.0000 </r>
      <r>    38.6370   -12.1861   -12.9972   -13.7627     0.0000    -0.0000    -0.0000 </r>
      <r>    38.6574   -12.1661   -12.9796   -13.7399     0.0000    -0.0000    -0.0000 </r>
      <r>    38.6779   -12.1461   -12.9620   -13.7172     0.0000    -0.0000    -0.0000 </r>
      <r>    38.6984   -12.1261   -12.9445   -13.6946     0.0000    -0.0000    -0.0000 </r>
      <r>    38.7188   -12.1063   -12.9270   -13.6721     0.0000    -0.0000    -0.0000 </r>
      <r>    38.7393   -12.0864   -12.9095   -13.6496     0.0000    -0.0000    -0.0000 </r>
      <r>    38.7598   -12.0667   -12.8921   -13.6272     0.0000    -0.0000    -0.0000 </r>
      <r>    38.7802   -12.0470   -12.8747   -13.6048     0.0000    -0.0000    -0.0000 </r>
      <r>    38.8007   -12.0273   -12.8574   -13.5825     0.0000    -0.0000    -0.0000 </r>
      <r>    38.8212   -12.0077   -12.8400   -13.5603     0.0000    -0.0000    -0.0000 </r>
      <r>    38.8416   -11.9882   -12.8228   -13.5381     0.0000    -0.0000    -0.0000 </r>
      <r>    38.8621   -11.9687   -12.8055   -13.5160     0.0000    -0.0000    -0.0000 </r>
      <r>    38.8826   -11.9492   -12.7883   -13.4939     0.0000    -0.0000    -0.0000 </r>
      <r>    38.9030   -11.9299   -12.7712   -13.4719     0.0000    -0.0000    -0.0000 </r>
      <r>    38.9235   -11.9105   -12.7540   -13.4500     0.0000    -0.0000    -0.0000 </r>
      <r>    38.9439   -11.8912   -12.7369   -13.4281     0.0000    -0.0000    -0.0000 </r>
      <r>    38.9644   -11.8720   -12.7199   -13.4063     0.0000    -0.0000    -0.0000 </r>
      <r>    38.9849   -11.8528   -12.7029   -13.3846     0.0000    -0.0000    -0.0000 </r>
      <r>    39.0053   -11.8337   -12.6859   -13.3629     0.0000    -0.0000    -0.0000 </r>
      <r>    39.0258   -11.8146   -12.6689   -13.3412     0.0000    -0.0000    -0.0000 </r>
      <r>    39.0463   -11.7956   -12.6520   -13.3197     0.0000    -0.0000    -0.0000 </r>
      <r>    39.0667   -11.7767   -12.6352   -13.2981     0.0000    -0.0000    -0.0000 </r>
      <r>    39.0872   -11.7577   -12.6183   -13.2767     0.0000    -0.0000    -0.0000 </r>
      <r>    39.1077   -11.7389   -12.6015   -13.2553     0.0000    -0.0000    -0.0000 </r>
      <r>    39.1281   -11.7201   -12.5848   -13.2339     0.0000    -0.0000    -0.0000 </r>
      <r>    39.1486   -11.7013   -12.5680   -13.2127     0.0000    -0.0000    -0.0000 </r>
      <r>    39.1691   -11.6826   -12.5514   -13.1914     0.0000    -0.0000    -0.0000 </r>
      <r>    39.1895   -11.6639   -12.5347   -13.1703     0.0000    -0.0000    -0.0000 </r>
      <r>    39.2100   -11.6453   -12.5181   -13.1491     0.0000    -0.0000    -0.0000 </r>
      <r>    39.2305   -11.6268   -12.5015   -13.1281     0.0000    -0.0000    -0.0000 </r>
      <r>    39.2509   -11.6082   -12.4849   -13.1071     0.0000    -0.0000    -0.0000 </r>
      <r>    39.2714   -11.5898   -12.4684   -13.0861     0.0000    -0.0000    -0.0000 </r>
      <r>    39.2918   -11.5714   -12.4519   -13.0653     0.0000    -0.0000    -0.0000 </r>
      <r>    39.3123   -11.5530   -12.4355   -13.0444     0.0000    -0.0000    -0.0000 </r>
      <r>    39.3328   -11.5347   -12.4191   -13.0237     0.0000    -0.0000    -0.0000 </r>
      <r>    39.3532   -11.5164   -12.4027   -13.0029     0.0000    -0.0000    -0.0000 </r>
      <r>    39.3737   -11.4982   -12.3864   -12.9823     0.0000    -0.0000    -0.0000 </r>
      <r>    39.3942   -11.4800   -12.3701   -12.9617     0.0000    -0.0000    -0.0000 </r>
      <r>    39.4146   -11.4619   -12.3538   -12.9411     0.0000    -0.0000    -0.0000 </r>
      <r>    39.4351   -11.4439   -12.3376   -12.9206     0.0000    -0.0000    -0.0000 </r>
      <r>    39.4556   -11.4258   -12.3214   -12.9002     0.0000    -0.0000    -0.0000 </r>
      <r>    39.4760   -11.4079   -12.3052   -12.8798     0.0000    -0.0000    -0.0000 </r>
      <r>    39.4965   -11.3899   -12.2890   -12.8594     0.0000    -0.0000    -0.0000 </r>
      <r>    39.5170   -11.3721   -12.2729   -12.8392     0.0000    -0.0000    -0.0000 </r>
      <r>    39.5374   -11.3542   -12.2569   -12.8189     0.0000    -0.0000    -0.0000 </r>
      <r>    39.5579   -11.3364   -12.2408   -12.7988     0.0000    -0.0000    -0.0000 </r>
      <r>    39.5783   -11.3187   -12.2248   -12.7786     0.0000    -0.0000    -0.0000 </r>
      <r>    39.5988   -11.3010   -12.2089   -12.7586     0.0000    -0.0000    -0.0000 </r>
      <r>    39.6193   -11.2834   -12.1929   -12.7385     0.0000    -0.0000    -0.0000 </r>
      <r>    39.6397   -11.2658   -12.1770   -12.7186     0.0000    -0.0000    -0.0000 </r>
      <r>    39.6602   -11.2482   -12.1612   -12.6987     0.0000    -0.0000    -0.0000 </r>
      <r>    39.6807   -11.2307   -12.1453   -12.6788     0.0000    -0.0000    -0.0000 </r>
      <r>    39.7011   -11.2132   -12.1295   -12.6590     0.0000    -0.0000    -0.0000 </r>
      <r>    39.7216   -11.1958   -12.1138   -12.6393     0.0000    -0.0000    -0.0000 </r>
      <r>    39.7421   -11.1784   -12.0980   -12.6196     0.0000    -0.0000    -0.0000 </r>
      <r>    39.7625   -11.1611   -12.0823   -12.5999     0.0000    -0.0000    -0.0000 </r>
      <r>    39.7830   -11.1438   -12.0667   -12.5803     0.0000    -0.0000    -0.0000 </r>
      <r>    39.8035   -11.1266   -12.0510   -12.5608     0.0000    -0.0000    -0.0000 </r>
      <r>    39.8239   -11.1094   -12.0354   -12.5413     0.0000    -0.0000    -0.0000 </r>
      <r>    39.8444   -11.0923   -12.0199   -12.5218     0.0000    -0.0000    -0.0000 </r>
      <r>    39.8648   -11.0752   -12.0043   -12.5024     0.0000    -0.0000    -0.0000 </r>
      <r>    39.8853   -11.0581   -11.9888   -12.4831     0.0000    -0.0000    -0.0000 </r>
      <r>    39.9058   -11.0411   -11.9733   -12.4638     0.0000    -0.0000    -0.0000 </r>
      <r>    39.9262   -11.0241   -11.9579   -12.4445     0.0000    -0.0000    -0.0000 </r>
      <r>    39.9467   -11.0072   -11.9425   -12.4253     0.0000    -0.0000    -0.0000 </r>
      <r>    39.9672   -10.9903   -11.9271   -12.4062     0.0000    -0.0000    -0.0000 </r>
      <r>    39.9876   -10.9735   -11.9118   -12.3871     0.0000    -0.0000    -0.0000 </r>
      <r>    40.0081   -10.9567   -11.8964   -12.3680     0.0000    -0.0000    -0.0000 </r>
      <r>    40.0286   -10.9399   -11.8812   -12.3490     0.0000    -0.0000    -0.0000 </r>
      <r>    40.0490   -10.9232   -11.8659   -12.3301     0.0000    -0.0000    -0.0000 </r>
      <r>    40.0695   -10.9066   -11.8507   -12.3112     0.0000    -0.0000    -0.0000 </r>
      <r>    40.0900   -10.8899   -11.8355   -12.2923     0.0000    -0.0000    -0.0000 </r>
      <r>    40.1104   -10.8734   -11.8203   -12.2735     0.0000    -0.0000    -0.0000 </r>
      <r>    40.1309   -10.8568   -11.8052   -12.2548     0.0000    -0.0000    -0.0000 </r>
      <r>    40.1514   -10.8403   -11.7901   -12.2361     0.0000    -0.0000    -0.0000 </r>
      <r>    40.1718   -10.8239   -11.7750   -12.2174     0.0000    -0.0000    -0.0000 </r>
      <r>    40.1923   -10.8075   -11.7600   -12.1988     0.0000    -0.0000    -0.0000 </r>
      <r>    40.2127   -10.7911   -11.7450   -12.1802     0.0000    -0.0000    -0.0000 </r>
      <r>    40.2332   -10.7748   -11.7300   -12.1617     0.0000    -0.0000    -0.0000 </r>
      <r>    40.2537   -10.7585   -11.7151   -12.1432     0.0000    -0.0000    -0.0000 </r>
      <r>    40.2741   -10.7422   -11.7002   -12.1248     0.0000    -0.0000    -0.0000 </r>
      <r>    40.2946   -10.7260   -11.6853   -12.1064     0.0000    -0.0000    -0.0000 </r>
      <r>    40.3151   -10.7099   -11.6704   -12.0881     0.0000    -0.0000    -0.0000 </r>
      <r>    40.3355   -10.6937   -11.6556   -12.0698     0.0000    -0.0000    -0.0000 </r>
      <r>    40.3560   -10.6776   -11.6408   -12.0516     0.0000    -0.0000    -0.0000 </r>
      <r>    40.3765   -10.6616   -11.6261   -12.0334     0.0000    -0.0000    -0.0000 </r>
      <r>    40.3969   -10.6456   -11.6113   -12.0152     0.0000    -0.0000    -0.0000 </r>
      <r>    40.4174   -10.6296   -11.5966   -11.9971     0.0000    -0.0000    -0.0000 </r>
      <r>    40.4379   -10.6137   -11.5819   -11.9791     0.0000    -0.0000    -0.0000 </r>
      <r>    40.4583   -10.5978   -11.5673   -11.9610     0.0000    -0.0000    -0.0000 </r>
      <r>    40.4788   -10.5820   -11.5527   -11.9431     0.0000    -0.0000    -0.0000 </r>
      <r>    40.4992   -10.5662   -11.5381   -11.9252     0.0000    -0.0000    -0.0000 </r>
      <r>    40.5197   -10.5504   -11.5235   -11.9073     0.0000    -0.0000    -0.0000 </r>
      <r>    40.5402   -10.5347   -11.5090   -11.8895     0.0000    -0.0000    -0.0000 </r>
      <r>    40.5606   -10.5190   -11.4945   -11.8717     0.0000    -0.0000    -0.0000 </r>
      <r>    40.5811   -10.5034   -11.4801   -11.8539     0.0000    -0.0000    -0.0000 </r>
      <r>    40.6016   -10.4878   -11.4656   -11.8362     0.0000    -0.0000    -0.0000 </r>
      <r>    40.6220   -10.4722   -11.4512   -11.8186     0.0000    -0.0000    -0.0000 </r>
      <r>    40.6425   -10.4567   -11.4368   -11.8010     0.0000    -0.0000    -0.0000 </r>
      <r>    40.6630   -10.4412   -11.4225   -11.7834     0.0000    -0.0000    -0.0000 </r>
      <r>    40.6834   -10.4257   -11.4082   -11.7659     0.0000    -0.0000    -0.0000 </r>
      <r>    40.7039   -10.4103   -11.3939   -11.7484     0.0000    -0.0000    -0.0000 </r>
      <r>    40.7244   -10.3949   -11.3796   -11.7310     0.0000    -0.0000    -0.0000 </r>
      <r>    40.7448   -10.3796   -11.3654   -11.7136     0.0000    -0.0000    -0.0000 </r>
      <r>    40.7653   -10.3643   -11.3512   -11.6962     0.0000    -0.0000    -0.0000 </r>
      <r>    40.7858   -10.3490   -11.3370   -11.6789     0.0000    -0.0000    -0.0000 </r>
      <r>    40.8062   -10.3338   -11.3228   -11.6616     0.0000    -0.0000    -0.0000 </r>
      <r>    40.8267   -10.3186   -11.3087   -11.6444     0.0000    -0.0000    -0.0000 </r>
      <r>    40.8471   -10.3035   -11.2946   -11.6272     0.0000    -0.0000    -0.0000 </r>
      <r>    40.8676   -10.2883   -11.2805   -11.6101     0.0000    -0.0000    -0.0000 </r>
      <r>    40.8881   -10.2733   -11.2665   -11.5930     0.0000    -0.0000    -0.0000 </r>
      <r>    40.9085   -10.2582   -11.2525   -11.5760     0.0000    -0.0000    -0.0000 </r>
     </set>
    </array>
   </real>
  </dielectricfunction>
  <kpoints>
   <generation param="Gamma">
    <v type="int" name="divisions">       8        9        3 </v>
    <v name="usershift">      0.00000000       0.00000000       0.00000000 </v>
    <v name="genvec1">      0.12500000       0.00000000       0.00000000 </v>
    <v name="genvec2">      0.00000000       0.11111111       0.00000000 </v>
    <v name="genvec3">      0.00000000       0.00000000       0.33333333 </v>
    <v name="shift">      0.00000000       0.00000000       0.00000000 </v>
   </generation>
   <varray name="kpointlist" >
    <v>       0.00000000       0.00000000       0.00000000 </v>
    <v>       0.12500000       0.00000000       0.00000000 </v>
    <v>       0.25000000       0.00000000       0.00000000 </v>
    <v>       0.37500000       0.00000000       0.00000000 </v>
    <v>       0.50000000       0.00000000       0.00000000 </v>
    <v>       0.00000000       0.11111111       0.00000000 </v>
    <v>       0.12500000       0.11111111       0.00000000 </v>
    <v>       0.25000000       0.11111111       0.00000000 </v>
    <v>       0.37500000       0.11111111       0.00000000 </v>
    <v>       0.50000000       0.11111111       0.00000000 </v>
    <v>       0.00000000       0.22222222       0.00000000 </v>
    <v>       0.12500000       0.22222222       0.00000000 </v>
    <v>       0.25000000       0.22222222       0.00000000 </v>
    <v>       0.37500000       0.22222222       0.00000000 </v>
    <v>       0.50000000       0.22222222       0.00000000 </v>
    <v>       0.00000000       0.33333333       0.00000000 </v>
    <v>       0.12500000       0.33333333       0.00000000 </v>
    <v>       0.25000000       0.33333333       0.00000000 </v>
    <v>       0.37500000       0.33333333       0.00000000 </v>
    <v>       0.50000000       0.33333333       0.00000000 </v>
    <v>       0.00000000       0.44444444       0.00000000 </v>
    <v>       0.12500000       0.44444444       0.00000000 </v>
    <v>       0.25000000       0.44444444       0.00000000 </v>
    <v>       0.37500000       0.44444444       0.00000000 </v>
    <v>       0.50000000       0.44444444       0.00000000 </v>
    <v>       0.00000000       0.00000000       0.33333333 </v>
    <v>       0.12500000       0.00000000       0.33333333 </v>
    <v>       0.25000000       0.00000000       0.33333333 </v>
    <v>       0.37500000       0.00000000       0.33333333 </v>
    <v>       0.50000000       0.00000000       0.33333333 </v>
    <v>       0.00000000       0.11111111       0.33333333 </v>
    <v>       0.12500000       0.11111111       0.33333333 </v>
    <v>       0.25000000       0.11111111       0.33333333 </v>
    <v>       0.37500000       0.11111111       0.33333333 </v>
    <v>       0.50000000       0.11111111       0.33333333 </v>
    <v>       0.00000000       0.22222222       0.33333333 </v>
    <v>       0.12500000       0.22222222       0.33333333 </v>
    <v>       0.25000000       0.22222222       0.33333333 </v>
    <v>       0.37500000       0.22222222       0.33333333 </v>
    <v>       0.50000000       0.22222222       0.33333333 </v>
    <v>       0.00000000       0.33333333       0.33333333 </v>
    <v>       0.12500000       0.33333333       0.33333333 </v>
    <v>       0.25000000       0.33333333       0.33333333 </v>
    <v>       0.37500000       0.33333333       0.33333333 </v>
    <v>       0.50000000       0.33333333       0.33333333 </v>
    <v>       0.00000000       0.44444444       0.33333333 </v>
    <v>       0.12500000       0.44444444       0.33333333 </v>
    <v>       0.25000000       0.44444444       0.33333333 </v>
    <v>       0.37500000       0.44444444       0.33333333 </v>
    <v>       0.50000000       0.44444444       0.33333333 </v>
   </varray>
   <varray name="weights" >
    <v>       0.00462963 </v>
    <v>       0.00925926 </v>
    <v>       0.00925926 </v>
    <v>       0.00925926 </v>
    <v>       0.00462963 </v>
    <v>       0.00925926 </v>
    <v>       0.01851852 </v>
    <v>       0.01851852 </v>
    <v>       0.01851852 </v>
    <v>       0.00925926 </v>
    <v>       0.00925926 </v>
    <v>       0.01851852 </v>
    <v>       0.01851852 </v>
    <v>       0.01851852 </v>
    <v>       0.00925926 </v>
    <v>       0.00925926 </v>
    <v>       0.01851852 </v>
    <v>       0.01851852 </v>
    <v>       0.01851852 </v>
    <v>       0.00925926 </v>
    <v>       0.00925926 </v>
    <v>       0.01851852 </v>
    <v>       0.01851852 </v>
    <v>       0.01851852 </v>
    <v>       0.00925926 </v>
    <v>       0.00925926 </v>
    <v>       0.01851852 </v>
    <v>       0.01851852 </v>
    <v>       0.01851852 </v>
    <v>       0.00925926 </v>
    <v>       0.01851852 </v>
    <v>       0.03703704 </v>
    <v>       0.03703704 </v>
    <v>       0.03703704 </v>
    <v>       0.01851852 </v>
    <v>       0.01851852 </v>
    <v>       0.03703704 </v>
    <v>       0.03703704 </v>
    <v>       0.03703704 </v>
    <v>       0.01851852 </v>
    <v>       0.01851852 </v>
    <v>       0.03703704 </v>
    <v>       0.03703704 </v>
    <v>       0.03703704 </v>
    <v>       0.01851852 </v>
    <v>       0.01851852 </v>
    <v>       0.03703704 </v>
    <v>       0.03703704 </v>
    <v>       0.03703704 </v>
    <v>       0.01851852 </v>
   </varray>
  </kpoints>
  <time name="totalsc">   27.28   16.35</time>
  <eigenvalues>
   <array>
    <dimension dim="1">band</dimension>
    <dimension dim="2">kpoint</dimension>
    <dimension dim="3">spin</dimension>
    <field>eigene</field>
    <field>occ</field>
    <set>
     <set comment="spin 1">
      <set comment="kpoint 1">
       <r>  -15.4187    1.0000 </r>
       <r>  -15.4000    1.0000 </r>
       <r>  -15.3985    1.0000 </r>
       <r>  -15.3924    1.0000 </r>
       <r>  -15.3920    1.0000 </r>
       <r>  -15.3907    1.0000 </r>
       <r>  -15.3847    1.0000 </r>
       <r>  -15.3827    1.0000 </r>
       <r>  -15.3820    1.0000 </r>
       <r>  -15.3804    1.0000 </r>
       <r>  -15.3763    1.0000 </r>
       <r>  -15.3740    1.0000 </r>
       <r>  -15.3641    1.0000 </r>
       <r>  -15.3594    1.0000 </r>
       <r>  -15.3456    1.0000 </r>
       <r>  -15.3364    1.0000 </r>
       <r>  -15.3333    1.0000 </r>
       <r>  -15.3251    1.0000 </r>
       <r>  -15.3150    1.0000 </r>
       <r>  -15.3034    1.0000 </r>
       <r>   -8.1787    1.0000 </r>
       <r>   -7.7667    1.0000 </r>
       <r>   -7.1027    1.0000 </r>
       <r>   -6.4989    1.0000 </r>
       <r>   -1.4588    1.0000 </r>
       <r>   -0.2111    1.0000 </r>
       <r>    0.0282    1.0000 </r>
       <r>    0.8540    1.0000 </r>
       <r>    0.9793    1.0000 </r>
       <r>    2.3067    1.0000 </r>
       <r>    2.3255    1.0000 </r>
       <r>    2.4352    1.0000 </r>
       <r>    2.8997    1.0000 </r>
       <r>    2.9064    1.0000 </r>
       <r>    3.4182    1.0000 </r>
       <r>    3.9159    1.0000 </r>
       <r>    4.2237    1.0000 </r>
       <r>    4.5873    1.0000 </r>
       <r>    5.1391    1.0000 </r>
       <r>    5.2925    1.0000 </r>
       <r>    6.3277    0.0000 </r>
       <r>    8.7817    0.0000 </r>
       <r>    8.8866    0.0000 </r>
       <r>    8.9253    0.0000 </r>
       <r>    9.1740    0.0000 </r>
       <r>    9.3599    0.0000 </r>
       <r>   10.0891    0.0000 </r>
       <r>   10.4060    0.0000 </r>
       <r>   10.5162    0.0000 </r>
       <r>   10.7460    0.0000 </r>
       <r>   11.3504    0.0000 </r>
       <r>   11.8020    0.0000 </r>
       <r>   12.0383    0.0000 </r>
       <r>   12.0824    0.0000 </r>
       <r>   12.1484    0.0000 </r>
       <r>   12.6133    0.0000 </r>
       <r>   12.6769    0.0000 </r>
       <r>   13.5924    0.0000 </r>
       <r>   14.3906    0.0000 </r>
       <r>   14.4048    0.0000 </r>
       <r>   14.5444    0.0000 </r>
       <r>   14.6954    0.0000 </r>
       <r>   15.0234    0.0000 </r>
       <r>   15.0384    0.0000 </r>
      </set>
      <set comment="kpoint 2">
       <r>  -15.4175    1.0000 </r>
       <r>  -15.3994    1.0000 </r>
       <r>  -15.3980    1.0000 </r>
       <r>  -15.3934    1.0000 </r>
       <r>  -15.3924    1.0000 </r>
       <r>  -15.3898    1.0000 </r>
       <r>  -15.3855    1.0000 </r>
       <r>  -15.3833    1.0000 </r>
       <r>  -15.3809    1.0000 </r>
       <r>  -15.3804    1.0000 </r>
       <r>  -15.3748    1.0000 </r>
       <r>  -15.3742    1.0000 </r>
       <r>  -15.3630    1.0000 </r>
       <r>  -15.3596    1.0000 </r>
       <r>  -15.3457    1.0000 </r>
       <r>  -15.3362    1.0000 </r>
       <r>  -15.3338    1.0000 </r>
       <r>  -15.3254    1.0000 </r>
       <r>  -15.3147    1.0000 </r>
       <r>  -15.3037    1.0000 </r>
       <r>   -8.1044    1.0000 </r>
       <r>   -7.6993    1.0000 </r>
       <r>   -7.0803    1.0000 </r>
       <r>   -6.5081    1.0000 </r>
       <r>   -1.7445    1.0000 </r>
       <r>   -0.4060    1.0000 </r>
       <r>   -0.2355    1.0000 </r>
       <r>    0.4739    1.0000 </r>
       <r>    0.8609    1.0000 </r>
       <r>    2.3519    1.0000 </r>
       <r>    2.4370    1.0000 </r>
       <r>    2.8549    1.0000 </r>
       <r>    3.0070    1.0000 </r>
       <r>    3.4371    1.0000 </r>
       <r>    3.5020    1.0000 </r>
       <r>    3.9906    1.0000 </r>
       <r>    4.2732    1.0000 </r>
       <r>    4.9210    1.0000 </r>
       <r>    4.9666    1.0000 </r>
       <r>    5.3458    1.0000 </r>
       <r>    6.3430    0.0000 </r>
       <r>    8.1993    0.0000 </r>
       <r>    8.8500    0.0000 </r>
       <r>    8.9901    0.0000 </r>
       <r>    9.0689    0.0000 </r>
       <r>    9.1579    0.0000 </r>
       <r>    9.9605    0.0000 </r>
       <r>   10.2470    0.0000 </r>
       <r>   10.2866    0.0000 </r>
       <r>   10.3937    0.0000 </r>
       <r>   11.2805    0.0000 </r>
       <r>   11.2859    0.0000 </r>
       <r>   11.5602    0.0000 </r>
       <r>   12.0149    0.0000 </r>
       <r>   12.0953    0.0000 </r>
       <r>   12.6136    0.0000 </r>
       <r>   13.0588    0.0000 </r>
       <r>   13.6559    0.0000 </r>
       <r>   13.9912    0.0000 </r>
       <r>   14.5722    0.0000 </r>
       <r>   14.8784    0.0000 </r>
       <r>   15.3465    0.0000 </r>
       <r>   15.3975    0.0000 </r>
       <r>   15.6482    0.0000 </r>
      </set>
      <set comment="kpoint 3">
       <r>  -15.4144    1.0000 </r>
       <r>  -15.3997    1.0000 </r>
       <r>  -15.3963    1.0000 </r>
       <r>  -15.3958    1.0000 </r>
       <r>  -15.3934    1.0000 </r>
       <r>  -15.3880    1.0000 </r>
       <r>  -15.3866    1.0000 </r>
       <r>  -15.3848    1.0000 </r>
       <r>  -15.3809    1.0000 </r>
       <r>  -15.3774    1.0000 </r>
       <r>  -15.3764    1.0000 </r>
       <r>  -15.3696    1.0000 </r>
       <r>  -15.3621    1.0000 </r>
       <r>  -15.3589    1.0000 </r>
       <r>  -15.3457    1.0000 </r>
       <r>  -15.3365    1.0000 </r>
       <r>  -15.3341    1.0000 </r>
       <r>  -15.3262    1.0000 </r>
       <r>  -15.3139    1.0000 </r>
       <r>  -15.3045    1.0000 </r>
       <r>   -7.8945    1.0000 </r>
       <r>   -7.5086    1.0000 </r>
       <r>   -7.0467    1.0000 </r>
       <r>   -6.5574    1.0000 </r>
       <r>   -2.2694    1.0000 </r>
       <r>   -1.1128    1.0000 </r>
       <r>   -0.8053    1.0000 </r>
       <r>    0.0307    1.0000 </r>
       <r>    0.8759    1.0000 </r>
       <r>    2.6439    1.0000 </r>
       <r>    2.7567    1.0000 </r>
       <r>    3.2921    1.0000 </r>
       <r>    3.4789    1.0000 </r>
       <r>    3.7094    1.0000 </r>
       <r>    3.8893    1.0000 </r>
       <r>    4.3703    1.0000 </r>
       <r>    4.6261    1.0000 </r>
       <r>    4.7593    1.0000 </r>
       <r>    5.2825    1.0000 </r>
       <r>    5.5826    1.0000 </r>
       <r>    6.6716    0.0000 </r>
       <r>    7.1805    0.0000 </r>
       <r>    7.9167    0.0000 </r>
       <r>    8.1017    0.0000 </r>
       <r>    8.8616    0.0000 </r>
       <r>    8.9445    0.0000 </r>
       <r>    9.3324    0.0000 </r>
       <r>    9.4404    0.0000 </r>
       <r>   10.3254    0.0000 </r>
       <r>   10.5837    0.0000 </r>
       <r>   10.5932    0.0000 </r>
       <r>   11.1500    0.0000 </r>
       <r>   11.2408    0.0000 </r>
       <r>   12.2763    0.0000 </r>
       <r>   12.6803    0.0000 </r>
       <r>   12.6827    0.0000 </r>
       <r>   13.3206    0.0000 </r>
       <r>   13.5401    0.0000 </r>
       <r>   14.1352    0.0000 </r>
       <r>   14.7060    0.0000 </r>
       <r>   15.1882    0.0000 </r>
       <r>   15.5427    0.0000 </r>
       <r>   15.9275    0.0000 </r>
       <r>   16.2951    0.0000 </r>
      </set>
      <set comment="kpoint 4">
       <r>  -15.4105    1.0000 </r>
       <r>  -15.4011    1.0000 </r>
       <r>  -15.3990    1.0000 </r>
       <r>  -15.3952    1.0000 </r>
       <r>  -15.3937    1.0000 </r>
       <r>  -15.3874    1.0000 </r>
       <r>  -15.3867    1.0000 </r>
       <r>  -15.3852    1.0000 </r>
       <r>  -15.3822    1.0000 </r>
       <r>  -15.3777    1.0000 </r>
       <r>  -15.3725    1.0000 </r>
       <r>  -15.3656    1.0000 </r>
       <r>  -15.3628    1.0000 </r>
       <r>  -15.3573    1.0000 </r>
       <r>  -15.3446    1.0000 </r>
       <r>  -15.3377    1.0000 </r>
       <r>  -15.3333    1.0000 </r>
       <r>  -15.3268    1.0000 </r>
       <r>  -15.3130    1.0000 </r>
       <r>  -15.3054    1.0000 </r>
       <r>   -7.5935    1.0000 </r>
       <r>   -7.2316    1.0000 </r>
       <r>   -7.0919    1.0000 </r>
       <r>   -6.6931    1.0000 </r>
       <r>   -2.5944    1.0000 </r>
       <r>   -1.9557    1.0000 </r>
       <r>   -1.0560    1.0000 </r>
       <r>   -0.5668    1.0000 </r>
       <r>    1.3263    1.0000 </r>
       <r>    2.5381    1.0000 </r>
       <r>    3.2271    1.0000 </r>
       <r>    3.7028    1.0000 </r>
       <r>    3.8673    1.0000 </r>
       <r>    4.0804    1.0000 </r>
       <r>    4.1806    1.0000 </r>
       <r>    4.3613    1.0000 </r>
       <r>    4.6950    1.0000 </r>
       <r>    5.1663    1.0000 </r>
       <r>    5.6667    1.0000 </r>
       <r>    5.8721    1.0000 </r>
       <r>    6.6680    0.0000 </r>
       <r>    7.0752    0.0000 </r>
       <r>    7.2425    0.0000 </r>
       <r>    7.3249    0.0000 </r>
       <r>    7.9207    0.0000 </r>
       <r>    8.0167    0.0000 </r>
       <r>    8.6654    0.0000 </r>
       <r>    8.8944    0.0000 </r>
       <r>    9.3219    0.0000 </r>
       <r>    9.6074    0.0000 </r>
       <r>   11.4649    0.0000 </r>
       <r>   11.7605    0.0000 </r>
       <r>   12.4086    0.0000 </r>
       <r>   12.6957    0.0000 </r>
       <r>   13.1030    0.0000 </r>
       <r>   13.5992    0.0000 </r>
       <r>   13.6439    0.0000 </r>
       <r>   14.1564    0.0000 </r>
       <r>   14.2928    0.0000 </r>
       <r>   14.6455    0.0000 </r>
       <r>   14.7475    0.0000 </r>
       <r>   15.7181    0.0000 </r>
       <r>   16.5451    0.0000 </r>
       <r>   16.6315    0.0000 </r>
      </set>
      <set comment="kpoint 5">
       <r>  -15.4082    1.0000 </r>
       <r>  -15.4023    1.0000 </r>
       <r>  -15.4001    1.0000 </r>
       <r>  -15.3961    1.0000 </r>
       <r>  -15.3929    1.0000 </r>
       <r>  -15.3880    1.0000 </r>
       <r>  -15.3864    1.0000 </r>
       <r>  -15.3847    1.0000 </r>
       <r>  -15.3832    1.0000 </r>
       <r>  -15.3782    1.0000 </r>
       <r>  -15.3698    1.0000 </r>
       <r>  -15.3651    1.0000 </r>
       <r>  -15.3626    1.0000 </r>
       <r>  -15.3569    1.0000 </r>
       <r>  -15.3437    1.0000 </r>
       <r>  -15.3385    1.0000 </r>
       <r>  -15.3328    1.0000 </r>
       <r>  -15.3270    1.0000 </r>
       <r>  -15.3126    1.0000 </r>
       <r>  -15.3058    1.0000 </r>
       <r>   -7.2905    1.0000 </r>
       <r>   -7.2868    1.0000 </r>
       <r>   -6.9380    1.0000 </r>
       <r>   -6.9289    1.0000 </r>
       <r>   -2.4946    1.0000 </r>
       <r>   -2.4911    1.0000 </r>
       <r>   -0.9778    1.0000 </r>
       <r>   -0.9725    1.0000 </r>
       <r>    1.9459    1.0000 </r>
       <r>    1.9507    1.0000 </r>
       <r>    3.6922    1.0000 </r>
       <r>    3.6943    1.0000 </r>
       <r>    4.1108    1.0000 </r>
       <r>    4.1189    1.0000 </r>
       <r>    4.4337    1.0000 </r>
       <r>    4.4452    1.0000 </r>
       <r>    5.0150    1.0000 </r>
       <r>    5.0270    1.0000 </r>
       <r>    5.6331    1.0000 </r>
       <r>    5.6414    1.0000 </r>
       <r>    7.0689    0.0000 </r>
       <r>    7.0715    0.0000 </r>
       <r>    7.2456    0.0000 </r>
       <r>    7.2510    0.0000 </r>
       <r>    7.5498    0.0000 </r>
       <r>    7.5562    0.0000 </r>
       <r>    8.3554    0.0000 </r>
       <r>    8.3662    0.0000 </r>
       <r>    8.9604    0.0000 </r>
       <r>    8.9670    0.0000 </r>
       <r>   11.9070    0.0000 </r>
       <r>   11.9236    0.0000 </r>
       <r>   13.1058    0.0000 </r>
       <r>   13.1188    0.0000 </r>
       <r>   13.7854    0.0000 </r>
       <r>   13.7874    0.0000 </r>
       <r>   13.8879    0.0000 </r>
       <r>   13.9062    0.0000 </r>
       <r>   15.0968    0.0000 </r>
       <r>   15.0991    0.0000 </r>
       <r>   15.6091    0.0000 </r>
       <r>   15.6212    0.0000 </r>
       <r>   16.0087    0.0000 </r>
       <r>   16.0100    0.0000 </r>
      </set>
      <set comment="kpoint 6">
       <r>  -15.4150    1.0000 </r>
       <r>  -15.3983    1.0000 </r>
       <r>  -15.3959    1.0000 </r>
       <r>  -15.3941    1.0000 </r>
       <r>  -15.3929    1.0000 </r>
       <r>  -15.3893    1.0000 </r>
       <r>  -15.3881    1.0000 </r>
       <r>  -15.3854    1.0000 </r>
       <r>  -15.3817    1.0000 </r>
       <r>  -15.3789    1.0000 </r>
       <r>  -15.3766    1.0000 </r>
       <r>  -15.3736    1.0000 </r>
       <r>  -15.3621    1.0000 </r>
       <r>  -15.3595    1.0000 </r>
       <r>  -15.3441    1.0000 </r>
       <r>  -15.3370    1.0000 </r>
       <r>  -15.3323    1.0000 </r>
       <r>  -15.3263    1.0000 </r>
       <r>  -15.3156    1.0000 </r>
       <r>  -15.3049    1.0000 </r>
       <r>   -8.1068    1.0000 </r>
       <r>   -7.7058    1.0000 </r>
       <r>   -7.0644    1.0000 </r>
       <r>   -6.4971    1.0000 </r>
       <r>   -1.5733    1.0000 </r>
       <r>   -0.4628    1.0000 </r>
       <r>    0.0226    1.0000 </r>
       <r>    0.4250    1.0000 </r>
       <r>    0.8890    1.0000 </r>
       <r>    2.2243    1.0000 </r>
       <r>    2.5142    1.0000 </r>
       <r>    2.6275    1.0000 </r>
       <r>    2.8921    1.0000 </r>
       <r>    2.9793    1.0000 </r>
       <r>    3.6224    1.0000 </r>
       <r>    3.9522    1.0000 </r>
       <r>    4.2368    1.0000 </r>
       <r>    4.8302    1.0000 </r>
       <r>    5.1575    1.0000 </r>
       <r>    5.2315    1.0000 </r>
       <r>    6.4436    0.0000 </r>
       <r>    8.3149    0.0000 </r>
       <r>    8.8365    0.0000 </r>
       <r>    9.0678    0.0000 </r>
       <r>    9.1852    0.0000 </r>
       <r>    9.3046    0.0000 </r>
       <r>    9.7712    0.0000 </r>
       <r>   10.1640    0.0000 </r>
       <r>   10.2514    0.0000 </r>
       <r>   10.6588    0.0000 </r>
       <r>   11.0910    0.0000 </r>
       <r>   11.3936    0.0000 </r>
       <r>   11.7709    0.0000 </r>
       <r>   11.7799    0.0000 </r>
       <r>   12.2759    0.0000 </r>
       <r>   12.3673    0.0000 </r>
       <r>   12.6061    0.0000 </r>
       <r>   13.9272    0.0000 </r>
       <r>   14.1336    0.0000 </r>
       <r>   14.4951    0.0000 </r>
       <r>   15.1131    0.0000 </r>
       <r>   15.2036    0.0000 </r>
       <r>   15.2556    0.0000 </r>
       <r>   15.4100    0.0000 </r>
      </set>
      <set comment="kpoint 7">
       <r>  -15.4141    1.0000 </r>
       <r>  -15.3976    1.0000 </r>
       <r>  -15.3958    1.0000 </r>
       <r>  -15.3950    1.0000 </r>
       <r>  -15.3929    1.0000 </r>
       <r>  -15.3892    1.0000 </r>
       <r>  -15.3880    1.0000 </r>
       <r>  -15.3860    1.0000 </r>
       <r>  -15.3822    1.0000 </r>
       <r>  -15.3791    1.0000 </r>
       <r>  -15.3758    1.0000 </r>
       <r>  -15.3721    1.0000 </r>
       <r>  -15.3616    1.0000 </r>
       <r>  -15.3591    1.0000 </r>
       <r>  -15.3442    1.0000 </r>
       <r>  -15.3367    1.0000 </r>
       <r>  -15.3329    1.0000 </r>
       <r>  -15.3266    1.0000 </r>
       <r>  -15.3153    1.0000 </r>
       <r>  -15.3052    1.0000 </r>
       <r>   -8.0334    1.0000 </r>
       <r>   -7.6396    1.0000 </r>
       <r>   -7.0419    1.0000 </r>
       <r>   -6.5042    1.0000 </r>
       <r>   -1.7913    1.0000 </r>
       <r>   -0.5546    1.0000 </r>
       <r>   -0.2727    1.0000 </r>
       <r>    0.2859    1.0000 </r>
       <r>    0.8064    1.0000 </r>
       <r>    2.0033    1.0000 </r>
       <r>    2.1686    1.0000 </r>
       <r>    3.1756    1.0000 </r>
       <r>    3.2162    1.0000 </r>
       <r>    3.3462    1.0000 </r>
       <r>    3.4112    1.0000 </r>
       <r>    4.0448    1.0000 </r>
       <r>    4.5043    1.0000 </r>
       <r>    4.9968    1.0000 </r>
       <r>    5.2322    1.0000 </r>
       <r>    5.3131    1.0000 </r>
       <r>    6.4734    0.0000 </r>
       <r>    7.8067    0.0000 </r>
       <r>    8.4184    0.0000 </r>
       <r>    8.7375    0.0000 </r>
       <r>    8.9935    0.0000 </r>
       <r>    9.2958    0.0000 </r>
       <r>    9.5988    0.0000 </r>
       <r>    9.9700    0.0000 </r>
       <r>   10.2628    0.0000 </r>
       <r>   10.8794    0.0000 </r>
       <r>   10.9893    0.0000 </r>
       <r>   11.3375    0.0000 </r>
       <r>   11.5785    0.0000 </r>
       <r>   12.1088    0.0000 </r>
       <r>   12.3356    0.0000 </r>
       <r>   12.7025    0.0000 </r>
       <r>   12.9401    0.0000 </r>
       <r>   13.9642    0.0000 </r>
       <r>   14.1974    0.0000 </r>
       <r>   14.5150    0.0000 </r>
       <r>   14.8168    0.0000 </r>
       <r>   15.0193    0.0000 </r>
       <r>   15.2455    0.0000 </r>
       <r>   15.5513    0.0000 </r>
      </set>
      <set comment="kpoint 8">
       <r>  -15.4116    1.0000 </r>
       <r>  -15.3990    1.0000 </r>
       <r>  -15.3963    1.0000 </r>
       <r>  -15.3943    1.0000 </r>
       <r>  -15.3935    1.0000 </r>
       <r>  -15.3906    1.0000 </r>
       <r>  -15.3872    1.0000 </r>
       <r>  -15.3859    1.0000 </r>
       <r>  -15.3835    1.0000 </r>
       <r>  -15.3796    1.0000 </r>
       <r>  -15.3736    1.0000 </r>
       <r>  -15.3679    1.0000 </r>
       <r>  -15.3615    1.0000 </r>
       <r>  -15.3574    1.0000 </r>
       <r>  -15.3442    1.0000 </r>
       <r>  -15.3362    1.0000 </r>
       <r>  -15.3339    1.0000 </r>
       <r>  -15.3271    1.0000 </r>
       <r>  -15.3146    1.0000 </r>
       <r>  -15.3057    1.0000 </r>
       <r>   -7.8266    1.0000 </r>
       <r>   -7.4527    1.0000 </r>
       <r>   -7.0076    1.0000 </r>
       <r>   -6.5466    1.0000 </r>
       <r>   -2.2266    1.0000 </r>
       <r>   -1.0819    1.0000 </r>
       <r>   -0.8034    1.0000 </r>
       <r>   -0.0593    1.0000 </r>
       <r>    0.9544    1.0000 </r>
       <r>    1.9954    1.0000 </r>
       <r>    2.1604    1.0000 </r>
       <r>    3.1999    1.0000 </r>
       <r>    3.5696    1.0000 </r>
       <r>    3.6328    1.0000 </r>
       <r>    4.0154    1.0000 </r>
       <r>    4.0749    1.0000 </r>
       <r>    4.8339    1.0000 </r>
       <r>    5.1062    1.0000 </r>
       <r>    5.3418    1.0000 </r>
       <r>    5.5409    1.0000 </r>
       <r>    6.7877    0.0000 </r>
       <r>    7.2795    0.0000 </r>
       <r>    7.5192    0.0000 </r>
       <r>    7.6851    0.0000 </r>
       <r>    8.8690    0.0000 </r>
       <r>    8.9555    0.0000 </r>
       <r>    9.2958    0.0000 </r>
       <r>    9.8450    0.0000 </r>
       <r>   10.3684    0.0000 </r>
       <r>   10.5847    0.0000 </r>
       <r>   10.9485    0.0000 </r>
       <r>   11.4111    0.0000 </r>
       <r>   11.7748    0.0000 </r>
       <r>   11.9610    0.0000 </r>
       <r>   12.7669    0.0000 </r>
       <r>   13.0567    0.0000 </r>
       <r>   13.5392    0.0000 </r>
       <r>   13.9853    0.0000 </r>
       <r>   14.0155    0.0000 </r>
       <r>   14.4056    0.0000 </r>
       <r>   14.8033    0.0000 </r>
       <r>   15.5596    0.0000 </r>
       <r>   15.7442    0.0000 </r>
       <r>   16.2223    0.0000 </r>
      </set>
      <set comment="kpoint 9">
       <r>  -15.4084    1.0000 </r>
       <r>  -15.4021    1.0000 </r>
       <r>  -15.3971    1.0000 </r>
       <r>  -15.3956    1.0000 </r>
       <r>  -15.3931    1.0000 </r>
       <r>  -15.3915    1.0000 </r>
       <r>  -15.3875    1.0000 </r>
       <r>  -15.3859    1.0000 </r>
       <r>  -15.3833    1.0000 </r>
       <r>  -15.3802    1.0000 </r>
       <r>  -15.3703    1.0000 </r>
       <r>  -15.3643    1.0000 </r>
       <r>  -15.3617    1.0000 </r>
       <r>  -15.3558    1.0000 </r>
       <r>  -15.3432    1.0000 </r>
       <r>  -15.3367    1.0000 </r>
       <r>  -15.3337    1.0000 </r>
       <r>  -15.3276    1.0000 </r>
       <r>  -15.3139    1.0000 </r>
       <r>  -15.3064    1.0000 </r>
       <r>   -7.5320    1.0000 </r>
       <r>   -7.1833    1.0000 </r>
       <r>   -7.0487    1.0000 </r>
       <r>   -6.6706    1.0000 </r>
       <r>   -2.5078    1.0000 </r>
       <r>   -1.8798    1.0000 </r>
       <r>   -0.9917    1.0000 </r>
       <r>   -0.5505    1.0000 </r>
       <r>    1.3933    1.0000 </r>
       <r>    2.2226    1.0000 </r>
       <r>    2.4296    1.0000 </r>
       <r>    3.2960    1.0000 </r>
       <r>    3.3837    1.0000 </r>
       <r>    3.6419    1.0000 </r>
       <r>    4.1220    1.0000 </r>
       <r>    4.4471    1.0000 </r>
       <r>    5.0056    1.0000 </r>
       <r>    5.1271    1.0000 </r>
       <r>    5.4268    1.0000 </r>
       <r>    5.5060    1.0000 </r>
       <r>    6.9287    0.0000 </r>
       <r>    7.0904    0.0000 </r>
       <r>    7.1769    0.0000 </r>
       <r>    7.4870    0.0000 </r>
       <r>    8.3584    0.0000 </r>
       <r>    8.4799    0.0000 </r>
       <r>    8.7816    0.0000 </r>
       <r>    9.4862    0.0000 </r>
       <r>    9.9383    0.0000 </r>
       <r>   10.2580    0.0000 </r>
       <r>   11.3687    0.0000 </r>
       <r>   11.6328    0.0000 </r>
       <r>   11.9666    0.0000 </r>
       <r>   12.7385    0.0000 </r>
       <r>   12.8832    0.0000 </r>
       <r>   13.2041    0.0000 </r>
       <r>   14.0489    0.0000 </r>
       <r>   14.3528    0.0000 </r>
       <r>   14.3927    0.0000 </r>
       <r>   14.8422    0.0000 </r>
       <r>   15.3273    0.0000 </r>
       <r>   15.6885    0.0000 </r>
       <r>   16.7810    0.0000 </r>
       <r>   16.8890    0.0000 </r>
      </set>
      <set comment="kpoint 10">
       <r>  -15.4060    1.0000 </r>
       <r>  -15.4045    1.0000 </r>
       <r>  -15.3975    1.0000 </r>
       <r>  -15.3967    1.0000 </r>
       <r>  -15.3932    1.0000 </r>
       <r>  -15.3915    1.0000 </r>
       <r>  -15.3877    1.0000 </r>
       <r>  -15.3864    1.0000 </r>
       <r>  -15.3828    1.0000 </r>
       <r>  -15.3804    1.0000 </r>
       <r>  -15.3683    1.0000 </r>
       <r>  -15.3640    1.0000 </r>
       <r>  -15.3610    1.0000 </r>
       <r>  -15.3553    1.0000 </r>
       <r>  -15.3423    1.0000 </r>
       <r>  -15.3373    1.0000 </r>
       <r>  -15.3334    1.0000 </r>
       <r>  -15.3277    1.0000 </r>
       <r>  -15.3135    1.0000 </r>
       <r>  -15.3068    1.0000 </r>
       <r>   -7.2385    1.0000 </r>
       <r>   -7.2346    1.0000 </r>
       <r>   -6.9014    1.0000 </r>
       <r>   -6.8924    1.0000 </r>
       <r>   -2.4009    1.0000 </r>
       <r>   -2.3975    1.0000 </r>
       <r>   -0.9148    1.0000 </r>
       <r>   -0.9096    1.0000 </r>
       <r>    1.9409    1.0000 </r>
       <r>    1.9461    1.0000 </r>
       <r>    2.9879    1.0000 </r>
       <r>    2.9898    1.0000 </r>
       <r>    3.4108    1.0000 </r>
       <r>    3.4139    1.0000 </r>
       <r>    4.2840    1.0000 </r>
       <r>    4.2912    1.0000 </r>
       <r>    5.2321    1.0000 </r>
       <r>    5.2385    1.0000 </r>
       <r>    5.3933    1.0000 </r>
       <r>    5.4039    1.0000 </r>
       <r>    6.8763    0.0000 </r>
       <r>    6.8764    0.0000 </r>
       <r>    7.3054    0.0000 </r>
       <r>    7.3084    0.0000 </r>
       <r>    8.5213    0.0000 </r>
       <r>    8.5251    0.0000 </r>
       <r>    8.8567    0.0000 </r>
       <r>    8.8603    0.0000 </r>
       <r>    9.6809    0.0000 </r>
       <r>    9.6844    0.0000 </r>
       <r>   11.7514    0.0000 </r>
       <r>   11.7679    0.0000 </r>
       <r>   12.2174    0.0000 </r>
       <r>   12.2227    0.0000 </r>
       <r>   13.7358    0.0000 </r>
       <r>   13.7555    0.0000 </r>
       <r>   14.5041    0.0000 </r>
       <r>   14.5129    0.0000 </r>
       <r>   15.4166    0.0000 </r>
       <r>   15.4195    0.0000 </r>
       <r>   15.7071    0.0000 </r>
       <r>   15.7134    0.0000 </r>
       <r>   16.2088    0.0000 </r>
       <r>   16.2114    0.0000 </r>
      </set>
      <set comment="kpoint 11">
       <r>  -15.4054    1.0000 </r>
       <r>  -15.3991    1.0000 </r>
       <r>  -15.3951    1.0000 </r>
       <r>  -15.3946    1.0000 </r>
       <r>  -15.3925    1.0000 </r>
       <r>  -15.3913    1.0000 </r>
       <r>  -15.3882    1.0000 </r>
       <r>  -15.3864    1.0000 </r>
       <r>  -15.3835    1.0000 </r>
       <r>  -15.3813    1.0000 </r>
       <r>  -15.3753    1.0000 </r>
       <r>  -15.3689    1.0000 </r>
       <r>  -15.3606    1.0000 </r>
       <r>  -15.3576    1.0000 </r>
       <r>  -15.3401    1.0000 </r>
       <r>  -15.3394    1.0000 </r>
       <r>  -15.3315    1.0000 </r>
       <r>  -15.3282    1.0000 </r>
       <r>  -15.3169    1.0000 </r>
       <r>  -15.3083    1.0000 </r>
       <r>   -7.8990    1.0000 </r>
       <r>   -7.5347    1.0000 </r>
       <r>   -6.9698    1.0000 </r>
       <r>   -6.5164    1.0000 </r>
       <r>   -1.8598    1.0000 </r>
       <r>   -0.9754    1.0000 </r>
       <r>   -0.4356    1.0000 </r>
       <r>   -0.1946    1.0000 </r>
       <r>    0.8872    1.0000 </r>
       <r>    2.4048    1.0000 </r>
       <r>    2.7465    1.0000 </r>
       <r>    2.9172    1.0000 </r>
       <r>    2.9732    1.0000 </r>
       <r>    3.2034    1.0000 </r>
       <r>    3.9367    1.0000 </r>
       <r>    4.0817    1.0000 </r>
       <r>    4.3091    1.0000 </r>
       <r>    5.0401    1.0000 </r>
       <r>    5.1778    1.0000 </r>
       <r>    5.4428    1.0000 </r>
       <r>    6.7180    0.0000 </r>
       <r>    7.0623    0.0000 </r>
       <r>    8.3974    0.0000 </r>
       <r>    8.5177    0.0000 </r>
       <r>    8.6085    0.0000 </r>
       <r>    9.1729    0.0000 </r>
       <r>    9.2872    0.0000 </r>
       <r>    9.7559    0.0000 </r>
       <r>   10.4359    0.0000 </r>
       <r>   10.6120    0.0000 </r>
       <r>   10.7033    0.0000 </r>
       <r>   10.8795    0.0000 </r>
       <r>   11.4664    0.0000 </r>
       <r>   11.5035    0.0000 </r>
       <r>   12.1473    0.0000 </r>
       <r>   12.6696    0.0000 </r>
       <r>   13.1490    0.0000 </r>
       <r>   13.4849    0.0000 </r>
       <r>   14.7087    0.0000 </r>
       <r>   14.7799    0.0000 </r>
       <r>   15.3750    0.0000 </r>
       <r>   15.3883    0.0000 </r>
       <r>   15.5715    0.0000 </r>
       <r>   16.1338    0.0000 </r>
      </set>
      <set comment="kpoint 12">
       <r>  -15.4062    1.0000 </r>
       <r>  -15.3994    1.0000 </r>
       <r>  -15.3959    1.0000 </r>
       <r>  -15.3940    1.0000 </r>
       <r>  -15.3931    1.0000 </r>
       <r>  -15.3912    1.0000 </r>
       <r>  -15.3884    1.0000 </r>
       <r>  -15.3859    1.0000 </r>
       <r>  -15.3839    1.0000 </r>
       <r>  -15.3818    1.0000 </r>
       <r>  -15.3741    1.0000 </r>
       <r>  -15.3674    1.0000 </r>
       <r>  -15.3610    1.0000 </r>
       <r>  -15.3564    1.0000 </r>
       <r>  -15.3404    1.0000 </r>
       <r>  -15.3389    1.0000 </r>
       <r>  -15.3317    1.0000 </r>
       <r>  -15.3286    1.0000 </r>
       <r>  -15.3167    1.0000 </r>
       <r>  -15.3084    1.0000 </r>
       <r>   -7.8288    1.0000 </r>
       <r>   -7.4722    1.0000 </r>
       <r>   -6.9471    1.0000 </r>
       <r>   -6.5163    1.0000 </r>
       <r>   -1.9338    1.0000 </r>
       <r>   -0.9316    1.0000 </r>
       <r>   -0.5387    1.0000 </r>
       <r>   -0.2856    1.0000 </r>
       <r>    0.9521    1.0000 </r>
       <r>    1.7307    1.0000 </r>
       <r>    2.0536    1.0000 </r>
       <r>    2.9288    1.0000 </r>
       <r>    3.3676    1.0000 </r>
       <r>    3.6130    1.0000 </r>
       <r>    3.6991    1.0000 </r>
       <r>    4.0777    1.0000 </r>
       <r>    4.7721    1.0000 </r>
       <r>    5.0758    1.0000 </r>
       <r>    5.2289    1.0000 </r>
       <r>    5.4613    1.0000 </r>
       <r>    6.7585    0.0000 </r>
       <r>    7.1367    0.0000 </r>
       <r>    7.6729    0.0000 </r>
       <r>    7.8074    0.0000 </r>
       <r>    8.9384    0.0000 </r>
       <r>    9.0352    0.0000 </r>
       <r>    9.6441    0.0000 </r>
       <r>    9.9060    0.0000 </r>
       <r>   10.4809    0.0000 </r>
       <r>   10.5667    0.0000 </r>
       <r>   10.7352    0.0000 </r>
       <r>   11.4070    0.0000 </r>
       <r>   11.4351    0.0000 </r>
       <r>   12.4300    0.0000 </r>
       <r>   12.4576    0.0000 </r>
       <r>   12.9278    0.0000 </r>
       <r>   13.3407    0.0000 </r>
       <r>   13.8734    0.0000 </r>
       <r>   13.9781    0.0000 </r>
       <r>   14.3628    0.0000 </r>
       <r>   14.7711    0.0000 </r>
       <r>   15.5233    0.0000 </r>
       <r>   15.7036    0.0000 </r>
       <r>   15.9616    0.0000 </r>
      </set>
      <set comment="kpoint 13">
       <r>  -15.4082    1.0000 </r>
       <r>  -15.4013    1.0000 </r>
       <r>  -15.3979    1.0000 </r>
       <r>  -15.3949    1.0000 </r>
       <r>  -15.3926    1.0000 </r>
       <r>  -15.3911    1.0000 </r>
       <r>  -15.3890    1.0000 </r>
       <r>  -15.3869    1.0000 </r>
       <r>  -15.3829    1.0000 </r>
       <r>  -15.3816    1.0000 </r>
       <r>  -15.3715    1.0000 </r>
       <r>  -15.3639    1.0000 </r>
       <r>  -15.3610    1.0000 </r>
       <r>  -15.3541    1.0000 </r>
       <r>  -15.3403    1.0000 </r>
       <r>  -15.3380    1.0000 </r>
       <r>  -15.3320    1.0000 </r>
       <r>  -15.3293    1.0000 </r>
       <r>  -15.3162    1.0000 </r>
       <r>  -15.3086    1.0000 </r>
       <r>   -7.6330    1.0000 </r>
       <r>   -7.2980    1.0000 </r>
       <r>   -6.9094    1.0000 </r>
       <r>   -6.5361    1.0000 </r>
       <r>   -2.1220    1.0000 </r>
       <r>   -1.0371    1.0000 </r>
       <r>   -0.8607    1.0000 </r>
       <r>   -0.3802    1.0000 </r>
       <r>    1.1880    1.0000 </r>
       <r>    1.2993    1.0000 </r>
       <r>    1.5616    1.0000 </r>
       <r>    2.7023    1.0000 </r>
       <r>    2.8160    1.0000 </r>
       <r>    3.7896    1.0000 </r>
       <r>    3.9142    1.0000 </r>
       <r>    4.2914    1.0000 </r>
       <r>    4.6925    1.0000 </r>
       <r>    4.9417    1.0000 </r>
       <r>    5.0511    1.0000 </r>
       <r>    5.3112    1.0000 </r>
       <r>    6.7357    0.0000 </r>
       <r>    7.1912    0.0000 </r>
       <r>    7.8407    0.0000 </r>
       <r>    8.2837    0.0000 </r>
       <r>    8.5180    0.0000 </r>
       <r>    8.9664    0.0000 </r>
       <r>    9.3107    0.0000 </r>
       <r>   10.3343    0.0000 </r>
       <r>   10.8380    0.0000 </r>
       <r>   10.9546    0.0000 </r>
       <r>   11.0166    0.0000 </r>
       <r>   11.4361    0.0000 </r>
       <r>   11.6873    0.0000 </r>
       <r>   12.7353    0.0000 </r>
       <r>   12.9875    0.0000 </r>
       <r>   13.2420    0.0000 </r>
       <r>   13.8116    0.0000 </r>
       <r>   13.9058    0.0000 </r>
       <r>   14.1826    0.0000 </r>
       <r>   14.7115    0.0000 </r>
       <r>   15.1737    0.0000 </r>
       <r>   15.3699    0.0000 </r>
       <r>   16.0563    0.0000 </r>
       <r>   16.1543    0.0000 </r>
      </set>
      <set comment="kpoint 14">
       <r>  -15.4102    1.0000 </r>
       <r>  -15.4050    1.0000 </r>
       <r>  -15.3996    1.0000 </r>
       <r>  -15.3953    1.0000 </r>
       <r>  -15.3932    1.0000 </r>
       <r>  -15.3917    1.0000 </r>
       <r>  -15.3888    1.0000 </r>
       <r>  -15.3879    1.0000 </r>
       <r>  -15.3824    1.0000 </r>
       <r>  -15.3795    1.0000 </r>
       <r>  -15.3687    1.0000 </r>
       <r>  -15.3623    1.0000 </r>
       <r>  -15.3592    1.0000 </r>
       <r>  -15.3523    1.0000 </r>
       <r>  -15.3394    1.0000 </r>
       <r>  -15.3373    1.0000 </r>
       <r>  -15.3323    1.0000 </r>
       <r>  -15.3296    1.0000 </r>
       <r>  -15.3157    1.0000 </r>
       <r>  -15.3088    1.0000 </r>
       <r>   -7.3596    1.0000 </r>
       <r>   -7.0532    1.0000 </r>
       <r>   -6.9360    1.0000 </r>
       <r>   -6.6225    1.0000 </r>
       <r>   -2.2585    1.0000 </r>
       <r>   -1.6700    1.0000 </r>
       <r>   -0.8369    1.0000 </r>
       <r>   -0.5585    1.0000 </r>
       <r>    1.3662    1.0000 </r>
       <r>    1.5567    1.0000 </r>
       <r>    1.5883    1.0000 </r>
       <r>    2.5149    1.0000 </r>
       <r>    2.6314    1.0000 </r>
       <r>    3.2997    1.0000 </r>
       <r>    3.4362    1.0000 </r>
       <r>    4.0760    1.0000 </r>
       <r>    4.3399    1.0000 </r>
       <r>    4.8185    1.0000 </r>
       <r>    4.8280    1.0000 </r>
       <r>    5.3083    1.0000 </r>
       <r>    6.5284    0.0000 </r>
       <r>    7.7948    0.0000 </r>
       <r>    7.9316    0.0000 </r>
       <r>    8.8426    0.0000 </r>
       <r>    9.0037    0.0000 </r>
       <r>    9.3121    0.0000 </r>
       <r>    9.5362    0.0000 </r>
       <r>   10.4983    0.0000 </r>
       <r>   10.6292    0.0000 </r>
       <r>   11.0127    0.0000 </r>
       <r>   11.1074    0.0000 </r>
       <r>   11.5430    0.0000 </r>
       <r>   11.5938    0.0000 </r>
       <r>   11.8937    0.0000 </r>
       <r>   12.9397    0.0000 </r>
       <r>   13.7392    0.0000 </r>
       <r>   14.0181    0.0000 </r>
       <r>   14.5281    0.0000 </r>
       <r>   15.0455    0.0000 </r>
       <r>   15.6984    0.0000 </r>
       <r>   15.8533    0.0000 </r>
       <r>   16.2544    0.0000 </r>
       <r>   16.4080    0.0000 </r>
       <r>   16.8668    0.0000 </r>
      </set>
      <set comment="kpoint 15">
       <r>  -15.4109    1.0000 </r>
       <r>  -15.4069    1.0000 </r>
       <r>  -15.4005    1.0000 </r>
       <r>  -15.3956    1.0000 </r>
       <r>  -15.3935    1.0000 </r>
       <r>  -15.3915    1.0000 </r>
       <r>  -15.3890    1.0000 </r>
       <r>  -15.3884    1.0000 </r>
       <r>  -15.3820    1.0000 </r>
       <r>  -15.3786    1.0000 </r>
       <r>  -15.3672    1.0000 </r>
       <r>  -15.3625    1.0000 </r>
       <r>  -15.3579    1.0000 </r>
       <r>  -15.3517    1.0000 </r>
       <r>  -15.3386    1.0000 </r>
       <r>  -15.3371    1.0000 </r>
       <r>  -15.3325    1.0000 </r>
       <r>  -15.3296    1.0000 </r>
       <r>  -15.3154    1.0000 </r>
       <r>  -15.3089    1.0000 </r>
       <r>   -7.0971    1.0000 </r>
       <r>   -7.0928    1.0000 </r>
       <r>   -6.8090    1.0000 </r>
       <r>   -6.8001    1.0000 </r>
       <r>   -2.1270    1.0000 </r>
       <r>   -2.1239    1.0000 </r>
       <r>   -0.7585    1.0000 </r>
       <r>   -0.7534    1.0000 </r>
       <r>    1.6971    1.0000 </r>
       <r>    1.7020    1.0000 </r>
       <r>    1.9773    1.0000 </r>
       <r>    1.9816    1.0000 </r>
       <r>    2.7630    1.0000 </r>
       <r>    2.7666    1.0000 </r>
       <r>    3.4999    1.0000 </r>
       <r>    3.5014    1.0000 </r>
       <r>    4.5072    1.0000 </r>
       <r>    4.5161    1.0000 </r>
       <r>    5.0054    1.0000 </r>
       <r>    5.0110    1.0000 </r>
       <r>    7.0637    0.0000 </r>
       <r>    7.0728    0.0000 </r>
       <r>    8.6215    0.0000 </r>
       <r>    8.6220    0.0000 </r>
       <r>    9.6272    0.0000 </r>
       <r>    9.6280    0.0000 </r>
       <r>   10.1813    0.0000 </r>
       <r>   10.1883    0.0000 </r>
       <r>   10.5572    0.0000 </r>
       <r>   10.5583    0.0000 </r>
       <r>   11.2340    0.0000 </r>
       <r>   11.2427    0.0000 </r>
       <r>   11.6261    0.0000 </r>
       <r>   11.6340    0.0000 </r>
       <r>   13.2091    0.0000 </r>
       <r>   13.2249    0.0000 </r>
       <r>   15.2685    0.0000 </r>
       <r>   15.2759    0.0000 </r>
       <r>   15.7357    0.0000 </r>
       <r>   15.7369    0.0000 </r>
       <r>   16.0873    0.0000 </r>
       <r>   16.0932    0.0000 </r>
       <r>   17.0432    0.0000 </r>
       <r>   17.0487    0.0000 </r>
      </set>
      <set comment="kpoint 16">
       <r>  -15.4036    1.0000 </r>
       <r>  -15.3997    1.0000 </r>
       <r>  -15.3963    1.0000 </r>
       <r>  -15.3943    1.0000 </r>
       <r>  -15.3919    1.0000 </r>
       <r>  -15.3915    1.0000 </r>
       <r>  -15.3891    1.0000 </r>
       <r>  -15.3847    1.0000 </r>
       <r>  -15.3838    1.0000 </r>
       <r>  -15.3778    1.0000 </r>
       <r>  -15.3730    1.0000 </r>
       <r>  -15.3631    1.0000 </r>
       <r>  -15.3626    1.0000 </r>
       <r>  -15.3531    1.0000 </r>
       <r>  -15.3440    1.0000 </r>
       <r>  -15.3374    1.0000 </r>
       <r>  -15.3341    1.0000 </r>
       <r>  -15.3245    1.0000 </r>
       <r>  -15.3188    1.0000 </r>
       <r>  -15.3119    1.0000 </r>
       <r>   -7.5819    1.0000 </r>
       <r>   -7.2911    1.0000 </r>
       <r>   -6.8824    1.0000 </r>
       <r>   -6.6199    1.0000 </r>
       <r>   -2.1463    1.0000 </r>
       <r>   -1.3778    1.0000 </r>
       <r>   -1.2862    1.0000 </r>
       <r>   -0.7042    1.0000 </r>
       <r>    1.2280    1.0000 </r>
       <r>    2.7100    1.0000 </r>
       <r>    2.9614    1.0000 </r>
       <r>    3.1457    1.0000 </r>
       <r>    3.2433    1.0000 </r>
       <r>    3.4976    1.0000 </r>
       <r>    4.1059    1.0000 </r>
       <r>    4.2218    1.0000 </r>
       <r>    4.5841    1.0000 </r>
       <r>    4.9714    1.0000 </r>
       <r>    5.1166    1.0000 </r>
       <r>    5.7481    1.0000 </r>
       <r>    6.3167    0.0000 </r>
       <r>    7.0840    0.0000 </r>
       <r>    7.5313    0.0000 </r>
       <r>    7.6165    0.0000 </r>
       <r>    7.8377    0.0000 </r>
       <r>    8.3567    0.0000 </r>
       <r>    8.4229    0.0000 </r>
       <r>    9.2775    0.0000 </r>
       <r>    9.6862    0.0000 </r>
       <r>    9.8958    0.0000 </r>
       <r>   10.7403    0.0000 </r>
       <r>   11.1105    0.0000 </r>
       <r>   12.1150    0.0000 </r>
       <r>   12.6855    0.0000 </r>
       <r>   12.8308    0.0000 </r>
       <r>   13.1274    0.0000 </r>
       <r>   14.0032    0.0000 </r>
       <r>   14.1051    0.0000 </r>
       <r>   14.1545    0.0000 </r>
       <r>   14.6566    0.0000 </r>
       <r>   15.3694    0.0000 </r>
       <r>   15.4859    0.0000 </r>
       <r>   15.8760    0.0000 </r>
       <r>   16.4904    0.0000 </r>
      </set>
      <set comment="kpoint 17">
       <r>  -15.4064    1.0000 </r>
       <r>  -15.4019    1.0000 </r>
       <r>  -15.3979    1.0000 </r>
       <r>  -15.3948    1.0000 </r>
       <r>  -15.3924    1.0000 </r>
       <r>  -15.3900    1.0000 </r>
       <r>  -15.3884    1.0000 </r>
       <r>  -15.3845    1.0000 </r>
       <r>  -15.3827    1.0000 </r>
       <r>  -15.3779    1.0000 </r>
       <r>  -15.3724    1.0000 </r>
       <r>  -15.3635    1.0000 </r>
       <r>  -15.3610    1.0000 </r>
       <r>  -15.3523    1.0000 </r>
       <r>  -15.3434    1.0000 </r>
       <r>  -15.3370    1.0000 </r>
       <r>  -15.3342    1.0000 </r>
       <r>  -15.3251    1.0000 </r>
       <r>  -15.3185    1.0000 </r>
       <r>  -15.3118    1.0000 </r>
       <r>   -7.5186    1.0000 </r>
       <r>   -7.2359    1.0000 </r>
       <r>   -6.8575    1.0000 </r>
       <r>   -6.6058    1.0000 </r>
       <r>   -2.1032    1.0000 </r>
       <r>   -1.2850    1.0000 </r>
       <r>   -1.2257    1.0000 </r>
       <r>   -0.7410    1.0000 </r>
       <r>    1.3157    1.0000 </r>
       <r>    1.8224    1.0000 </r>
       <r>    2.2130    1.0000 </r>
       <r>    2.9647    1.0000 </r>
       <r>    3.4361    1.0000 </r>
       <r>    3.4956    1.0000 </r>
       <r>    4.0420    1.0000 </r>
       <r>    4.0631    1.0000 </r>
       <r>    4.6539    1.0000 </r>
       <r>    5.0346    1.0000 </r>
       <r>    5.1280    1.0000 </r>
       <r>    5.2307    1.0000 </r>
       <r>    6.8987    0.0000 </r>
       <r>    6.9956    0.0000 </r>
       <r>    7.0771    0.0000 </r>
       <r>    7.4297    0.0000 </r>
       <r>    8.4784    0.0000 </r>
       <r>    8.8419    0.0000 </r>
       <r>    9.0777    0.0000 </r>
       <r>    9.4112    0.0000 </r>
       <r>   10.1387    0.0000 </r>
       <r>   10.5843    0.0000 </r>
       <r>   10.8548    0.0000 </r>
       <r>   10.9950    0.0000 </r>
       <r>   11.7075    0.0000 </r>
       <r>   12.9093    0.0000 </r>
       <r>   13.0045    0.0000 </r>
       <r>   13.1746    0.0000 </r>
       <r>   13.8132    0.0000 </r>
       <r>   14.1457    0.0000 </r>
       <r>   14.2800    0.0000 </r>
       <r>   14.7276    0.0000 </r>
       <r>   15.3073    0.0000 </r>
       <r>   16.0217    0.0000 </r>
       <r>   16.4386    0.0000 </r>
       <r>   16.5728    0.0000 </r>
      </set>
      <set comment="kpoint 18">
       <r>  -15.4118    1.0000 </r>
       <r>  -15.4073    1.0000 </r>
       <r>  -15.4014    1.0000 </r>
       <r>  -15.3979    1.0000 </r>
       <r>  -15.3926    1.0000 </r>
       <r>  -15.3885    1.0000 </r>
       <r>  -15.3866    1.0000 </r>
       <r>  -15.3832    1.0000 </r>
       <r>  -15.3803    1.0000 </r>
       <r>  -15.3782    1.0000 </r>
       <r>  -15.3708    1.0000 </r>
       <r>  -15.3632    1.0000 </r>
       <r>  -15.3580    1.0000 </r>
       <r>  -15.3505    1.0000 </r>
       <r>  -15.3420    1.0000 </r>
       <r>  -15.3358    1.0000 </r>
       <r>  -15.3342    1.0000 </r>
       <r>  -15.3262    1.0000 </r>
       <r>  -15.3180    1.0000 </r>
       <r>  -15.3116    1.0000 </r>
       <r>   -7.3454    1.0000 </r>
       <r>   -7.0859    1.0000 </r>
       <r>   -6.8085    1.0000 </r>
       <r>   -6.5835    1.0000 </r>
       <r>   -2.0029    1.0000 </r>
       <r>   -1.1529    1.0000 </r>
       <r>   -1.0334    1.0000 </r>
       <r>   -0.8184    1.0000 </r>
       <r>    1.0326    1.0000 </r>
       <r>    1.4443    1.0000 </r>
       <r>    1.5448    1.0000 </r>
       <r>    2.2904    1.0000 </r>
       <r>    2.5736    1.0000 </r>
       <r>    3.4077    1.0000 </r>
       <r>    3.4984    1.0000 </r>
       <r>    3.9454    1.0000 </r>
       <r>    4.2844    1.0000 </r>
       <r>    4.3735    1.0000 </r>
       <r>    4.7343    1.0000 </r>
       <r>    5.2764    1.0000 </r>
       <r>    6.4027    0.0000 </r>
       <r>    7.8269    0.0000 </r>
       <r>    8.2101    0.0000 </r>
       <r>    8.5360    0.0000 </r>
       <r>    8.8380    0.0000 </r>
       <r>    9.2983    0.0000 </r>
       <r>    9.7988    0.0000 </r>
       <r>   10.2525    0.0000 </r>
       <r>   10.6165    0.0000 </r>
       <r>   10.7548    0.0000 </r>
       <r>   11.3955    0.0000 </r>
       <r>   11.5178    0.0000 </r>
       <r>   11.7530    0.0000 </r>
       <r>   11.8063    0.0000 </r>
       <r>   13.2792    0.0000 </r>
       <r>   14.0092    0.0000 </r>
       <r>   14.0812    0.0000 </r>
       <r>   14.1965    0.0000 </r>
       <r>   14.9139    0.0000 </r>
       <r>   15.2624    0.0000 </r>
       <r>   15.9047    0.0000 </r>
       <r>   15.9381    0.0000 </r>
       <r>   16.1488    0.0000 </r>
       <r>   16.7119    0.0000 </r>
      </set>
      <set comment="kpoint 19">
       <r>  -15.4163    1.0000 </r>
       <r>  -15.4127    1.0000 </r>
       <r>  -15.4052    1.0000 </r>
       <r>  -15.4016    1.0000 </r>
       <r>  -15.3925    1.0000 </r>
       <r>  -15.3881    1.0000 </r>
       <r>  -15.3853    1.0000 </r>
       <r>  -15.3816    1.0000 </r>
       <r>  -15.3795    1.0000 </r>
       <r>  -15.3771    1.0000 </r>
       <r>  -15.3690    1.0000 </r>
       <r>  -15.3630    1.0000 </r>
       <r>  -15.3550    1.0000 </r>
       <r>  -15.3487    1.0000 </r>
       <r>  -15.3404    1.0000 </r>
       <r>  -15.3345    1.0000 </r>
       <r>  -15.3336    1.0000 </r>
       <r>  -15.3270    1.0000 </r>
       <r>  -15.3175    1.0000 </r>
       <r>  -15.3114    1.0000 </r>
       <r>   -7.1142    1.0000 </r>
       <r>   -6.8868    1.0000 </r>
       <r>   -6.8037    1.0000 </r>
       <r>   -6.6026    1.0000 </r>
       <r>   -1.8868    1.0000 </r>
       <r>   -1.3917    1.0000 </r>
       <r>   -0.7457    1.0000 </r>
       <r>   -0.7145    1.0000 </r>
       <r>    0.7331    1.0000 </r>
       <r>    1.1363    1.0000 </r>
       <r>    1.5536    1.0000 </r>
       <r>    1.8502    1.0000 </r>
       <r>    2.1877    1.0000 </r>
       <r>    2.6779    1.0000 </r>
       <r>    2.9350    1.0000 </r>
       <r>    3.4762    1.0000 </r>
       <r>    3.6045    1.0000 </r>
       <r>    4.1084    1.0000 </r>
       <r>    4.6513    1.0000 </r>
       <r>    4.7957    1.0000 </r>
       <r>    6.8373    0.0000 </r>
       <r>    8.4336    0.0000 </r>
       <r>    8.9489    0.0000 </r>
       <r>    9.1897    0.0000 </r>
       <r>    9.9151    0.0000 </r>
       <r>    9.9241    0.0000 </r>
       <r>   10.3626    0.0000 </r>
       <r>   10.6801    0.0000 </r>
       <r>   10.7326    0.0000 </r>
       <r>   10.9577    0.0000 </r>
       <r>   11.5069    0.0000 </r>
       <r>   11.6365    0.0000 </r>
       <r>   11.8411    0.0000 </r>
       <r>   12.1846    0.0000 </r>
       <r>   12.7348    0.0000 </r>
       <r>   13.4338    0.0000 </r>
       <r>   15.1692    0.0000 </r>
       <r>   15.3292    0.0000 </r>
       <r>   15.7516    0.0000 </r>
       <r>   15.8244    0.0000 </r>
       <r>   16.0733    0.0000 </r>
       <r>   16.5617    0.0000 </r>
       <r>   16.8603    0.0000 </r>
       <r>   17.1857    0.0000 </r>
      </set>
      <set comment="kpoint 20">
       <r>  -15.4180    1.0000 </r>
       <r>  -15.4150    1.0000 </r>
       <r>  -15.4067    1.0000 </r>
       <r>  -15.4031    1.0000 </r>
       <r>  -15.3923    1.0000 </r>
       <r>  -15.3881    1.0000 </r>
       <r>  -15.3850    1.0000 </r>
       <r>  -15.3810    1.0000 </r>
       <r>  -15.3796    1.0000 </r>
       <r>  -15.3763    1.0000 </r>
       <r>  -15.3682    1.0000 </r>
       <r>  -15.3631    1.0000 </r>
       <r>  -15.3538    1.0000 </r>
       <r>  -15.3478    1.0000 </r>
       <r>  -15.3397    1.0000 </r>
       <r>  -15.3340    1.0000 </r>
       <r>  -15.3331    1.0000 </r>
       <r>  -15.3272    1.0000 </r>
       <r>  -15.3174    1.0000 </r>
       <r>  -15.3113    1.0000 </r>
       <r>   -6.9105    1.0000 </r>
       <r>   -6.9053    1.0000 </r>
       <r>   -6.7104    1.0000 </r>
       <r>   -6.7021    1.0000 </r>
       <r>   -1.7014    1.0000 </r>
       <r>   -1.6989    1.0000 </r>
       <r>   -0.6388    1.0000 </r>
       <r>   -0.6345    1.0000 </r>
       <r>    0.9941    1.0000 </r>
       <r>    0.9945    1.0000 </r>
       <r>    1.4215    1.0000 </r>
       <r>    1.4246    1.0000 </r>
       <r>    2.2810    1.0000 </r>
       <r>    2.2854    1.0000 </r>
       <r>    2.9885    1.0000 </r>
       <r>    2.9953    1.0000 </r>
       <r>    3.6455    1.0000 </r>
       <r>    3.6558    1.0000 </r>
       <r>    4.6309    1.0000 </r>
       <r>    4.6340    1.0000 </r>
       <r>    7.5976    0.0000 </r>
       <r>    7.6114    0.0000 </r>
       <r>    9.5109    0.0000 </r>
       <r>    9.5203    0.0000 </r>
       <r>   10.3820    0.0000 </r>
       <r>   10.3892    0.0000 </r>
       <r>   10.7499    0.0000 </r>
       <r>   10.7665    0.0000 </r>
       <r>   10.8786    0.0000 </r>
       <r>   10.8837    0.0000 </r>
       <r>   11.6939    0.0000 </r>
       <r>   11.7010    0.0000 </r>
       <r>   11.9865    0.0000 </r>
       <r>   11.9913    0.0000 </r>
       <r>   12.7727    0.0000 </r>
       <r>   12.7807    0.0000 </r>
       <r>   15.8759    0.0000 </r>
       <r>   15.8795    0.0000 </r>
       <r>   16.4503    0.0000 </r>
       <r>   16.4517    0.0000 </r>
       <r>   16.6456    0.0000 </r>
       <r>   16.6461    0.0000 </r>
       <r>   17.2985    0.0000 </r>
       <r>   17.3022    0.0000 </r>
      </set>
      <set comment="kpoint 21">
       <r>  -15.4057    1.0000 </r>
       <r>  -15.4040    1.0000 </r>
       <r>  -15.3978    1.0000 </r>
       <r>  -15.3951    1.0000 </r>
       <r>  -15.3914    1.0000 </r>
       <r>  -15.3908    1.0000 </r>
       <r>  -15.3849    1.0000 </r>
       <r>  -15.3837    1.0000 </r>
       <r>  -15.3803    1.0000 </r>
       <r>  -15.3733    1.0000 </r>
       <r>  -15.3721    1.0000 </r>
       <r>  -15.3673    1.0000 </r>
       <r>  -15.3561    1.0000 </r>
       <r>  -15.3499    1.0000 </r>
       <r>  -15.3485    1.0000 </r>
       <r>  -15.3432    1.0000 </r>
       <r>  -15.3280    1.0000 </r>
       <r>  -15.3224    1.0000 </r>
       <r>  -15.3199    1.0000 </r>
       <r>  -15.3153    1.0000 </r>
       <r>   -7.2078    1.0000 </r>
       <r>   -7.0459    1.0000 </r>
       <r>   -6.8924    1.0000 </r>
       <r>   -6.8586    1.0000 </r>
       <r>   -2.2115    1.0000 </r>
       <r>   -1.9188    1.0000 </r>
       <r>   -1.4606    1.0000 </r>
       <r>   -1.1985    1.0000 </r>
       <r>    1.7710    1.0000 </r>
       <r>    2.3724    1.0000 </r>
       <r>    3.3419    1.0000 </r>
       <r>    3.5553    1.0000 </r>
       <r>    3.6806    1.0000 </r>
       <r>    3.7551    1.0000 </r>
       <r>    3.8210    1.0000 </r>
       <r>    4.3433    1.0000 </r>
       <r>    4.9198    1.0000 </r>
       <r>    4.9409    1.0000 </r>
       <r>    5.0295    1.0000 </r>
       <r>    5.1684    1.0000 </r>
       <r>    6.8074    0.0000 </r>
       <r>    6.9004    0.0000 </r>
       <r>    7.0129    0.0000 </r>
       <r>    7.3740    0.0000 </r>
       <r>    7.4332    0.0000 </r>
       <r>    7.6444    0.0000 </r>
       <r>    8.1872    0.0000 </r>
       <r>    8.5782    0.0000 </r>
       <r>    8.9522    0.0000 </r>
       <r>    9.1348    0.0000 </r>
       <r>   10.9575    0.0000 </r>
       <r>   11.1279    0.0000 </r>
       <r>   12.7615    0.0000 </r>
       <r>   12.9529    0.0000 </r>
       <r>   13.3688    0.0000 </r>
       <r>   13.5815    0.0000 </r>
       <r>   14.4748    0.0000 </r>
       <r>   14.9039    0.0000 </r>
       <r>   15.1371    0.0000 </r>
       <r>   15.6614    0.0000 </r>
       <r>   15.7432    0.0000 </r>
       <r>   16.2582    0.0000 </r>
       <r>   16.5654    0.0000 </r>
       <r>   16.7166    0.0000 </r>
      </set>
      <set comment="kpoint 22">
       <r>  -15.4084    1.0000 </r>
       <r>  -15.4066    1.0000 </r>
       <r>  -15.3997    1.0000 </r>
       <r>  -15.3971    1.0000 </r>
       <r>  -15.3912    1.0000 </r>
       <r>  -15.3898    1.0000 </r>
       <r>  -15.3845    1.0000 </r>
       <r>  -15.3829    1.0000 </r>
       <r>  -15.3792    1.0000 </r>
       <r>  -15.3731    1.0000 </r>
       <r>  -15.3717    1.0000 </r>
       <r>  -15.3670    1.0000 </r>
       <r>  -15.3553    1.0000 </r>
       <r>  -15.3502    1.0000 </r>
       <r>  -15.3466    1.0000 </r>
       <r>  -15.3423    1.0000 </r>
       <r>  -15.3282    1.0000 </r>
       <r>  -15.3231    1.0000 </r>
       <r>  -15.3194    1.0000 </r>
       <r>  -15.3152    1.0000 </r>
       <r>   -7.1569    1.0000 </r>
       <r>   -7.0019    1.0000 </r>
       <r>   -6.8603    1.0000 </r>
       <r>   -6.8254    1.0000 </r>
       <r>   -2.1154    1.0000 </r>
       <r>   -1.8198    1.0000 </r>
       <r>   -1.3755    1.0000 </r>
       <r>   -1.1547    1.0000 </r>
       <r>    1.8100    1.0000 </r>
       <r>    2.1407    1.0000 </r>
       <r>    2.3883    1.0000 </r>
       <r>    2.9436    1.0000 </r>
       <r>    3.2135    1.0000 </r>
       <r>    3.2523    1.0000 </r>
       <r>    4.2331    1.0000 </r>
       <r>    4.3182    1.0000 </r>
       <r>    4.3341    1.0000 </r>
       <r>    4.5787    1.0000 </r>
       <r>    5.1668    1.0000 </r>
       <r>    5.2212    1.0000 </r>
       <r>    6.6295    0.0000 </r>
       <r>    6.6319    0.0000 </r>
       <r>    7.2952    0.0000 </r>
       <r>    7.5847    0.0000 </r>
       <r>    8.3997    0.0000 </r>
       <r>    8.5260    0.0000 </r>
       <r>    8.8420    0.0000 </r>
       <r>    9.2874    0.0000 </r>
       <r>    9.4097    0.0000 </r>
       <r>   10.0479    0.0000 </r>
       <r>   10.7825    0.0000 </r>
       <r>   10.8979    0.0000 </r>
       <r>   11.8426    0.0000 </r>
       <r>   12.1936    0.0000 </r>
       <r>   14.0421    0.0000 </r>
       <r>   14.4225    0.0000 </r>
       <r>   14.6835    0.0000 </r>
       <r>   14.9273    0.0000 </r>
       <r>   15.1792    0.0000 </r>
       <r>   15.3325    0.0000 </r>
       <r>   15.7974    0.0000 </r>
       <r>   16.2197    0.0000 </r>
       <r>   16.4843    0.0000 </r>
       <r>   16.5402    0.0000 </r>
      </set>
      <set comment="kpoint 23">
       <r>  -15.4145    1.0000 </r>
       <r>  -15.4126    1.0000 </r>
       <r>  -15.4044    1.0000 </r>
       <r>  -15.4017    1.0000 </r>
       <r>  -15.3907    1.0000 </r>
       <r>  -15.3885    1.0000 </r>
       <r>  -15.3832    1.0000 </r>
       <r>  -15.3812    1.0000 </r>
       <r>  -15.3773    1.0000 </r>
       <r>  -15.3726    1.0000 </r>
       <r>  -15.3710    1.0000 </r>
       <r>  -15.3662    1.0000 </r>
       <r>  -15.3532    1.0000 </r>
       <r>  -15.3494    1.0000 </r>
       <r>  -15.3435    1.0000 </r>
       <r>  -15.3399    1.0000 </r>
       <r>  -15.3284    1.0000 </r>
       <r>  -15.3241    1.0000 </r>
       <r>  -15.3187    1.0000 </r>
       <r>  -15.3149    1.0000 </r>
       <r>   -7.0229    1.0000 </r>
       <r>   -6.8878    1.0000 </r>
       <r>   -6.7852    1.0000 </r>
       <r>   -6.7458    1.0000 </r>
       <r>   -1.8451    1.0000 </r>
       <r>   -1.5424    1.0000 </r>
       <r>   -1.1435    1.0000 </r>
       <r>   -1.0582    1.0000 </r>
       <r>    1.2362    1.0000 </r>
       <r>    1.7301    1.0000 </r>
       <r>    1.7411    1.0000 </r>
       <r>    1.9882    1.0000 </r>
       <r>    2.4637    1.0000 </r>
       <r>    2.9322    1.0000 </r>
       <r>    3.3359    1.0000 </r>
       <r>    3.5583    1.0000 </r>
       <r>    3.6030    1.0000 </r>
       <r>    4.0731    1.0000 </r>
       <r>    4.8246    1.0000 </r>
       <r>    4.9995    1.0000 </r>
       <r>    6.7478    0.0000 </r>
       <r>    7.4617    0.0000 </r>
       <r>    8.5771    0.0000 </r>
       <r>    8.9179    0.0000 </r>
       <r>    9.4944    0.0000 </r>
       <r>    9.6014    0.0000 </r>
       <r>   10.0158    0.0000 </r>
       <r>   10.2279    0.0000 </r>
       <r>   10.3364    0.0000 </r>
       <r>   10.6092    0.0000 </r>
       <r>   10.7862    0.0000 </r>
       <r>   11.4275    0.0000 </r>
       <r>   11.4834    0.0000 </r>
       <r>   11.5531    0.0000 </r>
       <r>   13.3704    0.0000 </r>
       <r>   13.6427    0.0000 </r>
       <r>   15.2092    0.0000 </r>
       <r>   15.4339    0.0000 </r>
       <r>   15.6483    0.0000 </r>
       <r>   16.2878    0.0000 </r>
       <r>   16.3954    0.0000 </r>
       <r>   16.6810    0.0000 </r>
       <r>   16.9509    0.0000 </r>
       <r>   17.1713    0.0000 </r>
      </set>
      <set comment="kpoint 24">
       <r>  -15.4201    1.0000 </r>
       <r>  -15.4185    1.0000 </r>
       <r>  -15.4090    1.0000 </r>
       <r>  -15.4063    1.0000 </r>
       <r>  -15.3904    1.0000 </r>
       <r>  -15.3881    1.0000 </r>
       <r>  -15.3817    1.0000 </r>
       <r>  -15.3798    1.0000 </r>
       <r>  -15.3760    1.0000 </r>
       <r>  -15.3721    1.0000 </r>
       <r>  -15.3705    1.0000 </r>
       <r>  -15.3655    1.0000 </r>
       <r>  -15.3508    1.0000 </r>
       <r>  -15.3477    1.0000 </r>
       <r>  -15.3410    1.0000 </r>
       <r>  -15.3375    1.0000 </r>
       <r>  -15.3282    1.0000 </r>
       <r>  -15.3246    1.0000 </r>
       <r>  -15.3181    1.0000 </r>
       <r>  -15.3146    1.0000 </r>
       <r>   -6.8605    1.0000 </r>
       <r>   -6.7553    1.0000 </r>
       <r>   -6.7250    1.0000 </r>
       <r>   -6.6738    1.0000 </r>
       <r>   -1.4802    1.0000 </r>
       <r>   -1.2110    1.0000 </r>
       <r>   -0.9536    1.0000 </r>
       <r>   -0.8606    1.0000 </r>
       <r>    0.6176    1.0000 </r>
       <r>    1.0072    1.0000 </r>
       <r>    1.2588    1.0000 </r>
       <r>    1.5518    1.0000 </r>
       <r>    2.0461    1.0000 </r>
       <r>    2.2169    1.0000 </r>
       <r>    2.7142    1.0000 </r>
       <r>    3.1515    1.0000 </r>
       <r>    3.3018    1.0000 </r>
       <r>    3.4358    1.0000 </r>
       <r>    4.5102    1.0000 </r>
       <r>    4.5590    1.0000 </r>
       <r>    7.5143    0.0000 </r>
       <r>    8.2739    0.0000 </r>
       <r>    9.0610    0.0000 </r>
       <r>    9.3874    0.0000 </r>
       <r>   10.2533    0.0000 </r>
       <r>   10.3080    0.0000 </r>
       <r>   10.4263    0.0000 </r>
       <r>   10.8181    0.0000 </r>
       <r>   10.8259    0.0000 </r>
       <r>   11.3293    0.0000 </r>
       <r>   11.7964    0.0000 </r>
       <r>   11.9239    0.0000 </r>
       <r>   12.0648    0.0000 </r>
       <r>   12.4264    0.0000 </r>
       <r>   12.7977    0.0000 </r>
       <r>   13.0773    0.0000 </r>
       <r>   15.5907    0.0000 </r>
       <r>   15.7575    0.0000 </r>
       <r>   16.6798    0.0000 </r>
       <r>   16.7561    0.0000 </r>
       <r>   16.9868    0.0000 </r>
       <r>   17.1397    0.0000 </r>
       <r>   17.5947    0.0000 </r>
       <r>   17.6355    0.0000 </r>
      </set>
      <set comment="kpoint 25">
       <r>  -15.4223    1.0000 </r>
       <r>  -15.4209    1.0000 </r>
       <r>  -15.4109    1.0000 </r>
       <r>  -15.4082    1.0000 </r>
       <r>  -15.3904    1.0000 </r>
       <r>  -15.3881    1.0000 </r>
       <r>  -15.3810    1.0000 </r>
       <r>  -15.3794    1.0000 </r>
       <r>  -15.3755    1.0000 </r>
       <r>  -15.3719    1.0000 </r>
       <r>  -15.3703    1.0000 </r>
       <r>  -15.3653    1.0000 </r>
       <r>  -15.3497    1.0000 </r>
       <r>  -15.3468    1.0000 </r>
       <r>  -15.3400    1.0000 </r>
       <r>  -15.3365    1.0000 </r>
       <r>  -15.3280    1.0000 </r>
       <r>  -15.3247    1.0000 </r>
       <r>  -15.3179    1.0000 </r>
       <r>  -15.3145    1.0000 </r>
       <r>   -6.7478    1.0000 </r>
       <r>   -6.7414    1.0000 </r>
       <r>   -6.6739    1.0000 </r>
       <r>   -6.6666    1.0000 </r>
       <r>   -1.2075    1.0000 </r>
       <r>   -1.2067    1.0000 </r>
       <r>   -0.7632    1.0000 </r>
       <r>   -0.7615    1.0000 </r>
       <r>    0.5452    1.0000 </r>
       <r>    0.5472    1.0000 </r>
       <r>    1.1592    1.0000 </r>
       <r>    1.1620    1.0000 </r>
       <r>    1.9147    1.0000 </r>
       <r>    1.9158    1.0000 </r>
       <r>    2.6462    1.0000 </r>
       <r>    2.6509    1.0000 </r>
       <r>    3.3484    1.0000 </r>
       <r>    3.3526    1.0000 </r>
       <r>    4.3814    1.0000 </r>
       <r>    4.3826    1.0000 </r>
       <r>    8.2142    0.0000 </r>
       <r>    8.2288    0.0000 </r>
       <r>    9.0812    0.0000 </r>
       <r>    9.0949    0.0000 </r>
       <r>   10.3517    0.0000 </r>
       <r>   10.3606    0.0000 </r>
       <r>   10.7897    0.0000 </r>
       <r>   10.8070    0.0000 </r>
       <r>   11.7012    0.0000 </r>
       <r>   11.7039    0.0000 </r>
       <r>   12.3533    0.0000 </r>
       <r>   12.3558    0.0000 </r>
       <r>   12.6705    0.0000 </r>
       <r>   12.6739    0.0000 </r>
       <r>   12.8489    0.0000 </r>
       <r>   12.8599    0.0000 </r>
       <r>   15.9933    0.0000 </r>
       <r>   15.9985    0.0000 </r>
       <r>   16.6950    0.0000 </r>
       <r>   16.6978    0.0000 </r>
       <r>   16.9484    0.0000 </r>
       <r>   16.9490    0.0000 </r>
       <r>   17.7977    0.0000 </r>
       <r>   17.8006    0.0000 </r>
      </set>
      <set comment="kpoint 26">
       <r>  -15.4155    1.0000 </r>
       <r>  -15.4052    1.0000 </r>
       <r>  -15.3988    1.0000 </r>
       <r>  -15.3921    1.0000 </r>
       <r>  -15.3915    1.0000 </r>
       <r>  -15.3910    1.0000 </r>
       <r>  -15.3856    1.0000 </r>
       <r>  -15.3826    1.0000 </r>
       <r>  -15.3810    1.0000 </r>
       <r>  -15.3785    1.0000 </r>
       <r>  -15.3758    1.0000 </r>
       <r>  -15.3743    1.0000 </r>
       <r>  -15.3638    1.0000 </r>
       <r>  -15.3610    1.0000 </r>
       <r>  -15.3442    1.0000 </r>
       <r>  -15.3384    1.0000 </r>
       <r>  -15.3317    1.0000 </r>
       <r>  -15.3257    1.0000 </r>
       <r>  -15.3131    1.0000 </r>
       <r>  -15.3049    1.0000 </r>
       <r>   -8.1064    1.0000 </r>
       <r>   -7.9158    1.0000 </r>
       <r>   -6.9065    1.0000 </r>
       <r>   -6.6200    1.0000 </r>
       <r>   -1.3172    1.0000 </r>
       <r>   -0.8724    1.0000 </r>
       <r>    0.7175    1.0000 </r>
       <r>    0.8357    1.0000 </r>
       <r>    1.2165    1.0000 </r>
       <r>    2.0470    1.0000 </r>
       <r>    2.4185    1.0000 </r>
       <r>    2.5387    1.0000 </r>
       <r>    2.6732    1.0000 </r>
       <r>    3.0358    1.0000 </r>
       <r>    3.6851    1.0000 </r>
       <r>    3.7054    1.0000 </r>
       <r>    3.7192    1.0000 </r>
       <r>    4.0724    1.0000 </r>
       <r>    5.2390    1.0000 </r>
       <r>    5.3107    1.0000 </r>
       <r>    7.6367    0.0000 </r>
       <r>    8.4645    0.0000 </r>
       <r>    8.5522    0.0000 </r>
       <r>    9.0515    0.0000 </r>
       <r>    9.4956    0.0000 </r>
       <r>    9.6434    0.0000 </r>
       <r>    9.8994    0.0000 </r>
       <r>   10.1155    0.0000 </r>
       <r>   10.6483    0.0000 </r>
       <r>   10.8272    0.0000 </r>
       <r>   11.3378    0.0000 </r>
       <r>   11.3772    0.0000 </r>
       <r>   11.6246    0.0000 </r>
       <r>   11.8782    0.0000 </r>
       <r>   12.2039    0.0000 </r>
       <r>   12.4633    0.0000 </r>
       <r>   13.0201    0.0000 </r>
       <r>   13.4099    0.0000 </r>
       <r>   13.9269    0.0000 </r>
       <r>   14.3313    0.0000 </r>
       <r>   14.5195    0.0000 </r>
       <r>   14.5363    0.0000 </r>
       <r>   14.8541    0.0000 </r>
       <r>   14.8620    0.0000 </r>
      </set>
      <set comment="kpoint 27">
       <r>  -15.4146    1.0000 </r>
       <r>  -15.4046    1.0000 </r>
       <r>  -15.3977    1.0000 </r>
       <r>  -15.3934    1.0000 </r>
       <r>  -15.3911    1.0000 </r>
       <r>  -15.3905    1.0000 </r>
       <r>  -15.3865    1.0000 </r>
       <r>  -15.3832    1.0000 </r>
       <r>  -15.3813    1.0000 </r>
       <r>  -15.3776    1.0000 </r>
       <r>  -15.3747    1.0000 </r>
       <r>  -15.3740    1.0000 </r>
       <r>  -15.3632    1.0000 </r>
       <r>  -15.3608    1.0000 </r>
       <r>  -15.3441    1.0000 </r>
       <r>  -15.3386    1.0000 </r>
       <r>  -15.3319    1.0000 </r>
       <r>  -15.3260    1.0000 </r>
       <r>  -15.3131    1.0000 </r>
       <r>  -15.3050    1.0000 </r>
       <r>   -8.0336    1.0000 </r>
       <r>   -7.8466    1.0000 </r>
       <r>   -6.8917    1.0000 </r>
       <r>   -6.6210    1.0000 </r>
       <r>   -1.5837    1.0000 </r>
       <r>   -1.0985    1.0000 </r>
       <r>    0.2707    1.0000 </r>
       <r>    0.4996    1.0000 </r>
       <r>    1.2685    1.0000 </r>
       <r>    2.2030    1.0000 </r>
       <r>    2.5284    1.0000 </r>
       <r>    2.7786    1.0000 </r>
       <r>    2.8237    1.0000 </r>
       <r>    3.2228    1.0000 </r>
       <r>    3.7791    1.0000 </r>
       <r>    3.8846    1.0000 </r>
       <r>    4.1302    1.0000 </r>
       <r>    4.2458    1.0000 </r>
       <r>    5.1293    1.0000 </r>
       <r>    5.3119    1.0000 </r>
       <r>    7.5916    0.0000 </r>
       <r>    8.3072    0.0000 </r>
       <r>    8.7470    0.0000 </r>
       <r>    8.9991    0.0000 </r>
       <r>    9.0072    0.0000 </r>
       <r>    9.3221    0.0000 </r>
       <r>    9.4327    0.0000 </r>
       <r>    9.9341    0.0000 </r>
       <r>   10.4726    0.0000 </r>
       <r>   10.8565    0.0000 </r>
       <r>   10.9939    0.0000 </r>
       <r>   11.2841    0.0000 </r>
       <r>   11.3761    0.0000 </r>
       <r>   11.5300    0.0000 </r>
       <r>   12.1322    0.0000 </r>
       <r>   12.6644    0.0000 </r>
       <r>   12.9738    0.0000 </r>
       <r>   13.4819    0.0000 </r>
       <r>   13.9342    0.0000 </r>
       <r>   14.1428    0.0000 </r>
       <r>   15.0367    0.0000 </r>
       <r>   15.2475    0.0000 </r>
       <r>   15.4224    0.0000 </r>
       <r>   15.5273    0.0000 </r>
      </set>
      <set comment="kpoint 28">
       <r>  -15.4122    1.0000 </r>
       <r>  -15.4033    1.0000 </r>
       <r>  -15.3960    1.0000 </r>
       <r>  -15.3957    1.0000 </r>
       <r>  -15.3916    1.0000 </r>
       <r>  -15.3888    1.0000 </r>
       <r>  -15.3883    1.0000 </r>
       <r>  -15.3851    1.0000 </r>
       <r>  -15.3813    1.0000 </r>
       <r>  -15.3757    1.0000 </r>
       <r>  -15.3745    1.0000 </r>
       <r>  -15.3702    1.0000 </r>
       <r>  -15.3626    1.0000 </r>
       <r>  -15.3596    1.0000 </r>
       <r>  -15.3440    1.0000 </r>
       <r>  -15.3386    1.0000 </r>
       <r>  -15.3326    1.0000 </r>
       <r>  -15.3266    1.0000 </r>
       <r>  -15.3129    1.0000 </r>
       <r>  -15.3053    1.0000 </r>
       <r>   -7.8287    1.0000 </r>
       <r>   -7.6529    1.0000 </r>
       <r>   -6.8766    1.0000 </r>
       <r>   -6.6489    1.0000 </r>
       <r>   -2.0946    1.0000 </r>
       <r>   -1.6080    1.0000 </r>
       <r>   -0.4964    1.0000 </r>
       <r>   -0.1420    1.0000 </r>
       <r>    1.4569    1.0000 </r>
       <r>    2.4957    1.0000 </r>
       <r>    2.8424    1.0000 </r>
       <r>    3.0769    1.0000 </r>
       <r>    3.3146    1.0000 </r>
       <r>    3.6314    1.0000 </r>
       <r>    3.9553    1.0000 </r>
       <r>    4.2530    1.0000 </r>
       <r>    4.5035    1.0000 </r>
       <r>    4.7524    1.0000 </r>
       <r>    5.0956    1.0000 </r>
       <r>    5.3964    1.0000 </r>
       <r>    7.4657    0.0000 </r>
       <r>    7.7971    0.0000 </r>
       <r>    8.0773    0.0000 </r>
       <r>    8.3034    0.0000 </r>
       <r>    8.5165    0.0000 </r>
       <r>    8.6411    0.0000 </r>
       <r>    9.1195    0.0000 </r>
       <r>    9.8417    0.0000 </r>
       <r>    9.8675    0.0000 </r>
       <r>   10.3674    0.0000 </r>
       <r>   10.6846    0.0000 </r>
       <r>   10.8307    0.0000 </r>
       <r>   11.4160    0.0000 </r>
       <r>   11.6858    0.0000 </r>
       <r>   12.6024    0.0000 </r>
       <r>   13.1179    0.0000 </r>
       <r>   13.2990    0.0000 </r>
       <r>   13.8940    0.0000 </r>
       <r>   14.1983    0.0000 </r>
       <r>   14.2160    0.0000 </r>
       <r>   15.2426    0.0000 </r>
       <r>   15.6531    0.0000 </r>
       <r>   16.4105    0.0000 </r>
       <r>   16.5514    0.0000 </r>
      </set>
      <set comment="kpoint 29">
       <r>  -15.4094    1.0000 </r>
       <r>  -15.4021    1.0000 </r>
       <r>  -15.3985    1.0000 </r>
       <r>  -15.3942    1.0000 </r>
       <r>  -15.3931    1.0000 </r>
       <r>  -15.3905    1.0000 </r>
       <r>  -15.3871    1.0000 </r>
       <r>  -15.3870    1.0000 </r>
       <r>  -15.3811    1.0000 </r>
       <r>  -15.3765    1.0000 </r>
       <r>  -15.3709    1.0000 </r>
       <r>  -15.3661    1.0000 </r>
       <r>  -15.3631    1.0000 </r>
       <r>  -15.3580    1.0000 </r>
       <r>  -15.3434    1.0000 </r>
       <r>  -15.3382    1.0000 </r>
       <r>  -15.3332    1.0000 </r>
       <r>  -15.3271    1.0000 </r>
       <r>  -15.3127    1.0000 </r>
       <r>  -15.3057    1.0000 </r>
       <r>   -7.5392    1.0000 </r>
       <r>   -7.3890    1.0000 </r>
       <r>   -6.9262    1.0000 </r>
       <r>   -6.7571    1.0000 </r>
       <r>   -2.4435    1.0000 </r>
       <r>   -2.1112    1.0000 </r>
       <r>   -1.0357    1.0000 </r>
       <r>   -0.7657    1.0000 </r>
       <r>    1.8774    1.0000 </r>
       <r>    2.8107    1.0000 </r>
       <r>    3.2766    1.0000 </r>
       <r>    3.2993    1.0000 </r>
       <r>    3.4970    1.0000 </r>
       <r>    3.9502    1.0000 </r>
       <r>    4.0752    1.0000 </r>
       <r>    4.2823    1.0000 </r>
       <r>    4.8149    1.0000 </r>
       <r>    4.9802    1.0000 </r>
       <r>    5.6223    1.0000 </r>
       <r>    5.8252    1.0000 </r>
       <r>    6.8870    0.0000 </r>
       <r>    7.3021    0.0000 </r>
       <r>    7.3912    0.0000 </r>
       <r>    7.7267    0.0000 </r>
       <r>    7.7706    0.0000 </r>
       <r>    8.1485    0.0000 </r>
       <r>    8.6060    0.0000 </r>
       <r>    9.0606    0.0000 </r>
       <r>    9.4157    0.0000 </r>
       <r>    9.4566    0.0000 </r>
       <r>   10.9291    0.0000 </r>
       <r>   11.1961    0.0000 </r>
       <r>   12.5597    0.0000 </r>
       <r>   12.7967    0.0000 </r>
       <r>   13.1971    0.0000 </r>
       <r>   13.5639    0.0000 </r>
       <r>   13.8635    0.0000 </r>
       <r>   14.3200    0.0000 </r>
       <r>   14.5750    0.0000 </r>
       <r>   14.5879    0.0000 </r>
       <r>   15.3819    0.0000 </r>
       <r>   15.5686    0.0000 </r>
       <r>   15.5829    0.0000 </r>
       <r>   16.3864    0.0000 </r>
      </set>
      <set comment="kpoint 30">
       <r>  -15.4080    1.0000 </r>
       <r>  -15.4019    1.0000 </r>
       <r>  -15.3993    1.0000 </r>
       <r>  -15.3944    1.0000 </r>
       <r>  -15.3935    1.0000 </r>
       <r>  -15.3904    1.0000 </r>
       <r>  -15.3884    1.0000 </r>
       <r>  -15.3869    1.0000 </r>
       <r>  -15.3806    1.0000 </r>
       <r>  -15.3770    1.0000 </r>
       <r>  -15.3691    1.0000 </r>
       <r>  -15.3645    1.0000 </r>
       <r>  -15.3631    1.0000 </r>
       <r>  -15.3576    1.0000 </r>
       <r>  -15.3433    1.0000 </r>
       <r>  -15.3375    1.0000 </r>
       <r>  -15.3337    1.0000 </r>
       <r>  -15.3271    1.0000 </r>
       <r>  -15.3126    1.0000 </r>
       <r>  -15.3058    1.0000 </r>
       <r>   -7.2881    1.0000 </r>
       <r>   -7.2843    1.0000 </r>
       <r>   -6.9417    1.0000 </r>
       <r>   -6.9326    1.0000 </r>
       <r>   -2.4386    1.0000 </r>
       <r>   -2.4356    1.0000 </r>
       <r>   -1.1226    1.0000 </r>
       <r>   -1.1168    1.0000 </r>
       <r>    2.4423    1.0000 </r>
       <r>    2.4463    1.0000 </r>
       <r>    3.5811    1.0000 </r>
       <r>    3.5873    1.0000 </r>
       <r>    3.7023    1.0000 </r>
       <r>    3.7044    1.0000 </r>
       <r>    4.0950    1.0000 </r>
       <r>    4.1031    1.0000 </r>
       <r>    5.3336    1.0000 </r>
       <r>    5.3419    1.0000 </r>
       <r>    5.7060    1.0000 </r>
       <r>    5.7166    1.0000 </r>
       <r>    6.9217    0.0000 </r>
       <r>    6.9268    0.0000 </r>
       <r>    7.2915    0.0000 </r>
       <r>    7.2962    0.0000 </r>
       <r>    7.5950    0.0000 </r>
       <r>    7.6021    0.0000 </r>
       <r>    8.8649    0.0000 </r>
       <r>    8.8714    0.0000 </r>
       <r>    8.8809    0.0000 </r>
       <r>    8.8880    0.0000 </r>
       <r>   11.2045    0.0000 </r>
       <r>   11.2184    0.0000 </r>
       <r>   13.4892    0.0000 </r>
       <r>   13.5021    0.0000 </r>
       <r>   14.1130    0.0000 </r>
       <r>   14.1247    0.0000 </r>
       <r>   14.2070    0.0000 </r>
       <r>   14.2105    0.0000 </r>
       <r>   14.5154    0.0000 </r>
       <r>   14.5203    0.0000 </r>
       <r>   15.7715    0.0000 </r>
       <r>   15.7756    0.0000 </r>
       <r>   15.7931    0.0000 </r>
       <r>   15.7971    0.0000 </r>
      </set>
      <set comment="kpoint 31">
       <r>  -15.4121    1.0000 </r>
       <r>  -15.4026    1.0000 </r>
       <r>  -15.3974    1.0000 </r>
       <r>  -15.3935    1.0000 </r>
       <r>  -15.3921    1.0000 </r>
       <r>  -15.3899    1.0000 </r>
       <r>  -15.3876    1.0000 </r>
       <r>  -15.3844    1.0000 </r>
       <r>  -15.3830    1.0000 </r>
       <r>  -15.3772    1.0000 </r>
       <r>  -15.3759    1.0000 </r>
       <r>  -15.3739    1.0000 </r>
       <r>  -15.3621    1.0000 </r>
       <r>  -15.3604    1.0000 </r>
       <r>  -15.3427    1.0000 </r>
       <r>  -15.3381    1.0000 </r>
       <r>  -15.3317    1.0000 </r>
       <r>  -15.3267    1.0000 </r>
       <r>  -15.3141    1.0000 </r>
       <r>  -15.3062    1.0000 </r>
       <r>   -8.0362    1.0000 </r>
       <r>   -7.8505    1.0000 </r>
       <r>   -6.8783    1.0000 </r>
       <r>   -6.6095    1.0000 </r>
       <r>   -1.4346    1.0000 </r>
       <r>   -1.0038    1.0000 </r>
       <r>    0.4395    1.0000 </r>
       <r>    0.4524    1.0000 </r>
       <r>    1.2332    1.0000 </r>
       <r>    2.1103    1.0000 </r>
       <r>    2.3355    1.0000 </r>
       <r>    2.6569    1.0000 </r>
       <r>    2.8560    1.0000 </r>
       <r>    3.1460    1.0000 </r>
       <r>    3.6661    1.0000 </r>
       <r>    3.7664    1.0000 </r>
       <r>    4.0647    1.0000 </r>
       <r>    4.1099    1.0000 </r>
       <r>    5.2670    1.0000 </r>
       <r>    5.3039    1.0000 </r>
       <r>    7.7313    0.0000 </r>
       <r>    8.4420    0.0000 </r>
       <r>    8.6729    0.0000 </r>
       <r>    8.9353    0.0000 </r>
       <r>    9.0903    0.0000 </r>
       <r>    9.4154    0.0000 </r>
       <r>    9.4263    0.0000 </r>
       <r>    9.9580    0.0000 </r>
       <r>   10.5510    0.0000 </r>
       <r>   11.0291    0.0000 </r>
       <r>   11.0340    0.0000 </r>
       <r>   11.3066    0.0000 </r>
       <r>   11.4972    0.0000 </r>
       <r>   11.6220    0.0000 </r>
       <r>   11.8282    0.0000 </r>
       <r>   12.2276    0.0000 </r>
       <r>   12.5769    0.0000 </r>
       <r>   13.5791    0.0000 </r>
       <r>   13.8643    0.0000 </r>
       <r>   14.3783    0.0000 </r>
       <r>   15.2752    0.0000 </r>
       <r>   15.2935    0.0000 </r>
       <r>   15.3388    0.0000 </r>
       <r>   15.4496    0.0000 </r>
      </set>
      <set comment="kpoint 32">
       <r>  -15.4114    1.0000 </r>
       <r>  -15.4022    1.0000 </r>
       <r>  -15.3964    1.0000 </r>
       <r>  -15.3948    1.0000 </r>
       <r>  -15.3918    1.0000 </r>
       <r>  -15.3891    1.0000 </r>
       <r>  -15.3885    1.0000 </r>
       <r>  -15.3847    1.0000 </r>
       <r>  -15.3836    1.0000 </r>
       <r>  -15.3777    1.0000 </r>
       <r>  -15.3748    1.0000 </r>
       <r>  -15.3722    1.0000 </r>
       <r>  -15.3621    1.0000 </r>
       <r>  -15.3599    1.0000 </r>
       <r>  -15.3427    1.0000 </r>
       <r>  -15.3381    1.0000 </r>
       <r>  -15.3321    1.0000 </r>
       <r>  -15.3271    1.0000 </r>
       <r>  -15.3139    1.0000 </r>
       <r>  -15.3062    1.0000 </r>
       <r>   -7.9644    1.0000 </r>
       <r>   -7.7823    1.0000 </r>
       <r>   -6.8633    1.0000 </r>
       <r>   -6.6091    1.0000 </r>
       <r>   -1.6329    1.0000 </r>
       <r>   -1.1595    1.0000 </r>
       <r>    0.1001    1.0000 </r>
       <r>    0.2672    1.0000 </r>
       <r>    1.3007    1.0000 </r>
       <r>    2.0329    1.0000 </r>
       <r>    2.2499    1.0000 </r>
       <r>    2.5785    1.0000 </r>
       <r>    3.0810    1.0000 </r>
       <r>    3.4285    1.0000 </r>
       <r>    3.5899    1.0000 </r>
       <r>    3.7447    1.0000 </r>
       <r>    4.4913    1.0000 </r>
       <r>    4.7388    1.0000 </r>
       <r>    5.1647    1.0000 </r>
       <r>    5.3262    1.0000 </r>
       <r>    7.6560    0.0000 </r>
       <r>    7.9210    0.0000 </r>
       <r>    8.3075    0.0000 </r>
       <r>    8.7513    0.0000 </r>
       <r>    8.9137    0.0000 </r>
       <r>    9.1983    0.0000 </r>
       <r>    9.6471    0.0000 </r>
       <r>    9.9745    0.0000 </r>
       <r>   10.3077    0.0000 </r>
       <r>   10.4881    0.0000 </r>
       <r>   10.8838    0.0000 </r>
       <r>   10.9910    0.0000 </r>
       <r>   11.7586    0.0000 </r>
       <r>   12.0175    0.0000 </r>
       <r>   12.1326    0.0000 </r>
       <r>   12.5170    0.0000 </r>
       <r>   12.9710    0.0000 </r>
       <r>   13.7372    0.0000 </r>
       <r>   14.0804    0.0000 </r>
       <r>   14.6207    0.0000 </r>
       <r>   14.8183    0.0000 </r>
       <r>   15.2091    0.0000 </r>
       <r>   15.5395    0.0000 </r>
       <r>   15.7698    0.0000 </r>
      </set>
      <set comment="kpoint 33">
       <r>  -15.4096    1.0000 </r>
       <r>  -15.4015    1.0000 </r>
       <r>  -15.3982    1.0000 </r>
       <r>  -15.3940    1.0000 </r>
       <r>  -15.3921    1.0000 </r>
       <r>  -15.3910    1.0000 </r>
       <r>  -15.3876    1.0000 </r>
       <r>  -15.3859    1.0000 </r>
       <r>  -15.3834    1.0000 </r>
       <r>  -15.3785    1.0000 </r>
       <r>  -15.3724    1.0000 </r>
       <r>  -15.3685    1.0000 </r>
       <r>  -15.3621    1.0000 </r>
       <r>  -15.3581    1.0000 </r>
       <r>  -15.3426    1.0000 </r>
       <r>  -15.3378    1.0000 </r>
       <r>  -15.3330    1.0000 </r>
       <r>  -15.3277    1.0000 </r>
       <r>  -15.3136    1.0000 </r>
       <r>  -15.3064    1.0000 </r>
       <r>   -7.7627    1.0000 </r>
       <r>   -7.5921    1.0000 </r>
       <r>   -6.8464    1.0000 </r>
       <r>   -6.6321    1.0000 </r>
       <r>   -2.0524    1.0000 </r>
       <r>   -1.5700    1.0000 </r>
       <r>   -0.5152    1.0000 </r>
       <r>   -0.2079    1.0000 </r>
       <r>    1.5046    1.0000 </r>
       <r>    2.0483    1.0000 </r>
       <r>    2.2702    1.0000 </r>
       <r>    2.9119    1.0000 </r>
       <r>    3.0856    1.0000 </r>
       <r>    3.4480    1.0000 </r>
       <r>    4.0471    1.0000 </r>
       <r>    4.2109    1.0000 </r>
       <r>    4.9391    1.0000 </r>
       <r>    5.0656    1.0000 </r>
       <r>    5.1751    1.0000 </r>
       <r>    5.3815    1.0000 </r>
       <r>    7.2685    0.0000 </r>
       <r>    7.4321    0.0000 </r>
       <r>    7.8559    0.0000 </r>
       <r>    8.0382    0.0000 </r>
       <r>    8.6657    0.0000 </r>
       <r>    9.0129    0.0000 </r>
       <r>    9.3480    0.0000 </r>
       <r>    9.5130    0.0000 </r>
       <r>   10.1575    0.0000 </r>
       <r>   10.3102    0.0000 </r>
       <r>   10.8511    0.0000 </r>
       <r>   10.9388    0.0000 </r>
       <r>   12.0092    0.0000 </r>
       <r>   12.0969    0.0000 </r>
       <r>   12.8999    0.0000 </r>
       <r>   12.9886    0.0000 </r>
       <r>   13.4092    0.0000 </r>
       <r>   13.8828    0.0000 </r>
       <r>   14.1733    0.0000 </r>
       <r>   14.7415    0.0000 </r>
       <r>   14.9065    0.0000 </r>
       <r>   15.5188    0.0000 </r>
       <r>   15.8886    0.0000 </r>
       <r>   16.2299    0.0000 </r>
      </set>
      <set comment="kpoint 34">
       <r>  -15.4073    1.0000 </r>
       <r>  -15.4017    1.0000 </r>
       <r>  -15.4005    1.0000 </r>
       <r>  -15.3949    1.0000 </r>
       <r>  -15.3922    1.0000 </r>
       <r>  -15.3917    1.0000 </r>
       <r>  -15.3892    1.0000 </r>
       <r>  -15.3843    1.0000 </r>
       <r>  -15.3833    1.0000 </r>
       <r>  -15.3792    1.0000 </r>
       <r>  -15.3698    1.0000 </r>
       <r>  -15.3645    1.0000 </r>
       <r>  -15.3624    1.0000 </r>
       <r>  -15.3563    1.0000 </r>
       <r>  -15.3421    1.0000 </r>
       <r>  -15.3372    1.0000 </r>
       <r>  -15.3338    1.0000 </r>
       <r>  -15.3281    1.0000 </r>
       <r>  -15.3133    1.0000 </r>
       <r>  -15.3065    1.0000 </r>
       <r>   -7.4795    1.0000 </r>
       <r>   -7.3344    1.0000 </r>
       <r>   -6.8910    1.0000 </r>
       <r>   -6.7309    1.0000 </r>
       <r>   -2.3590    1.0000 </r>
       <r>   -2.0324    1.0000 </r>
       <r>   -0.9777    1.0000 </r>
       <r>   -0.7321    1.0000 </r>
       <r>    1.8750    1.0000 </r>
       <r>    2.3410    1.0000 </r>
       <r>    2.6189    1.0000 </r>
       <r>    3.0262    1.0000 </r>
       <r>    3.3313    1.0000 </r>
       <r>    3.4493    1.0000 </r>
       <r>    3.8569    1.0000 </r>
       <r>    4.3311    1.0000 </r>
       <r>    4.9477    1.0000 </r>
       <r>    5.1423    1.0000 </r>
       <r>    5.2892    1.0000 </r>
       <r>    5.3853    1.0000 </r>
       <r>    7.0894    0.0000 </r>
       <r>    7.3448    0.0000 </r>
       <r>    7.5820    0.0000 </r>
       <r>    7.9302    0.0000 </r>
       <r>    8.2288    0.0000 </r>
       <r>    8.6533    0.0000 </r>
       <r>    8.7390    0.0000 </r>
       <r>    9.0351    0.0000 </r>
       <r>   10.0390    0.0000 </r>
       <r>   10.1981    0.0000 </r>
       <r>   10.8181    0.0000 </r>
       <r>   11.0859    0.0000 </r>
       <r>   12.6007    0.0000 </r>
       <r>   12.8852    0.0000 </r>
       <r>   13.1224    0.0000 </r>
       <r>   13.3968    0.0000 </r>
       <r>   13.9311    0.0000 </r>
       <r>   14.2755    0.0000 </r>
       <r>   14.4554    0.0000 </r>
       <r>   14.6408    0.0000 </r>
       <r>   15.3073    0.0000 </r>
       <r>   15.6855    0.0000 </r>
       <r>   15.9423    0.0000 </r>
       <r>   16.6479    0.0000 </r>
      </set>
      <set comment="kpoint 35">
       <r>  -15.4057    1.0000 </r>
       <r>  -15.4036    1.0000 </r>
       <r>  -15.3999    1.0000 </r>
       <r>  -15.3966    1.0000 </r>
       <r>  -15.3926    1.0000 </r>
       <r>  -15.3912    1.0000 </r>
       <r>  -15.3898    1.0000 </r>
       <r>  -15.3838    1.0000 </r>
       <r>  -15.3830    1.0000 </r>
       <r>  -15.3797    1.0000 </r>
       <r>  -15.3685    1.0000 </r>
       <r>  -15.3635    1.0000 </r>
       <r>  -15.3618    1.0000 </r>
       <r>  -15.3557    1.0000 </r>
       <r>  -15.3419    1.0000 </r>
       <r>  -15.3364    1.0000 </r>
       <r>  -15.3344    1.0000 </r>
       <r>  -15.3282    1.0000 </r>
       <r>  -15.3132    1.0000 </r>
       <r>  -15.3066    1.0000 </r>
       <r>   -7.2362    1.0000 </r>
       <r>   -7.2323    1.0000 </r>
       <r>   -6.9049    1.0000 </r>
       <r>   -6.8959    1.0000 </r>
       <r>   -2.3477    1.0000 </r>
       <r>   -2.3447    1.0000 </r>
       <r>   -1.0512    1.0000 </r>
       <r>   -1.0455    1.0000 </r>
       <r>    2.3415    1.0000 </r>
       <r>    2.3454    1.0000 </r>
       <r>    2.9736    1.0000 </r>
       <r>    2.9763    1.0000 </r>
       <r>    3.3168    1.0000 </r>
       <r>    3.3249    1.0000 </r>
       <r>    3.9591    1.0000 </r>
       <r>    3.9654    1.0000 </r>
       <r>    5.0206    1.0000 </r>
       <r>    5.0264    1.0000 </r>
       <r>    5.3689    1.0000 </r>
       <r>    5.3805    1.0000 </r>
       <r>    7.2378    0.0000 </r>
       <r>    7.2407    0.0000 </r>
       <r>    7.6476    0.0000 </r>
       <r>    7.6521    0.0000 </r>
       <r>    8.2386    0.0000 </r>
       <r>    8.2485    0.0000 </r>
       <r>    8.9058    0.0000 </r>
       <r>    8.9069    0.0000 </r>
       <r>    9.7828    0.0000 </r>
       <r>    9.7870    0.0000 </r>
       <r>   11.0563    0.0000 </r>
       <r>   11.0690    0.0000 </r>
       <r>   12.8153    0.0000 </r>
       <r>   12.8199    0.0000 </r>
       <r>   13.9250    0.0000 </r>
       <r>   13.9326    0.0000 </r>
       <r>   14.3070    0.0000 </r>
       <r>   14.3113    0.0000 </r>
       <r>   15.2125    0.0000 </r>
       <r>   15.2170    0.0000 </r>
       <r>   15.7459    0.0000 </r>
       <r>   15.7491    0.0000 </r>
       <r>   15.9283    0.0000 </r>
       <r>   15.9361    0.0000 </r>
      </set>
      <set comment="kpoint 36">
       <r>  -15.4039    1.0000 </r>
       <r>  -15.4007    1.0000 </r>
       <r>  -15.3949    1.0000 </r>
       <r>  -15.3943    1.0000 </r>
       <r>  -15.3920    1.0000 </r>
       <r>  -15.3900    1.0000 </r>
       <r>  -15.3888    1.0000 </r>
       <r>  -15.3869    1.0000 </r>
       <r>  -15.3858    1.0000 </r>
       <r>  -15.3816    1.0000 </r>
       <r>  -15.3728    1.0000 </r>
       <r>  -15.3700    1.0000 </r>
       <r>  -15.3604    1.0000 </r>
       <r>  -15.3580    1.0000 </r>
       <r>  -15.3396    1.0000 </r>
       <r>  -15.3388    1.0000 </r>
       <r>  -15.3317    1.0000 </r>
       <r>  -15.3286    1.0000 </r>
       <r>  -15.3162    1.0000 </r>
       <r>  -15.3089    1.0000 </r>
       <r>   -7.8341    1.0000 </r>
       <r>   -7.6647    1.0000 </r>
       <r>   -6.8165    1.0000 </r>
       <r>   -6.6026    1.0000 </r>
       <r>   -1.7277    1.0000 </r>
       <r>   -1.3384    1.0000 </r>
       <r>   -0.3431    1.0000 </r>
       <r>   -0.1744    1.0000 </r>
       <r>    1.3738    1.0000 </r>
       <r>    2.3076    1.0000 </r>
       <r>    2.5028    1.0000 </r>
       <r>    2.7784    1.0000 </r>
       <r>    3.1946    1.0000 </r>
       <r>    3.3845    1.0000 </r>
       <r>    3.8058    1.0000 </r>
       <r>    3.9067    1.0000 </r>
       <r>    4.2024    1.0000 </r>
       <r>    4.5032    1.0000 </r>
       <r>    5.2576    1.0000 </r>
       <r>    5.4010    1.0000 </r>
       <r>    7.3186    0.0000 </r>
       <r>    8.0077    0.0000 </r>
       <r>    8.0445    0.0000 </r>
       <r>    8.4884    0.0000 </r>
       <r>    8.6450    0.0000 </r>
       <r>    9.1859    0.0000 </r>
       <r>    9.2783    0.0000 </r>
       <r>    9.8873    0.0000 </r>
       <r>   10.0607    0.0000 </r>
       <r>   10.4657    0.0000 </r>
       <r>   10.6096    0.0000 </r>
       <r>   10.6478    0.0000 </r>
       <r>   11.2831    0.0000 </r>
       <r>   11.4485    0.0000 </r>
       <r>   12.3690    0.0000 </r>
       <r>   12.3805    0.0000 </r>
       <r>   12.9029    0.0000 </r>
       <r>   13.4685    0.0000 </r>
       <r>   14.5370    0.0000 </r>
       <r>   14.7489    0.0000 </r>
       <r>   15.8031    0.0000 </r>
       <r>   15.9428    0.0000 </r>
       <r>   16.0167    0.0000 </r>
       <r>   16.4099    0.0000 </r>
      </set>
      <set comment="kpoint 37">
       <r>  -15.4044    1.0000 </r>
       <r>  -15.4016    1.0000 </r>
       <r>  -15.3967    1.0000 </r>
       <r>  -15.3935    1.0000 </r>
       <r>  -15.3917    1.0000 </r>
       <r>  -15.3899    1.0000 </r>
       <r>  -15.3884    1.0000 </r>
       <r>  -15.3876    1.0000 </r>
       <r>  -15.3855    1.0000 </r>
       <r>  -15.3817    1.0000 </r>
       <r>  -15.3720    1.0000 </r>
       <r>  -15.3683    1.0000 </r>
       <r>  -15.3609    1.0000 </r>
       <r>  -15.3569    1.0000 </r>
       <r>  -15.3398    1.0000 </r>
       <r>  -15.3384    1.0000 </r>
       <r>  -15.3321    1.0000 </r>
       <r>  -15.3290    1.0000 </r>
       <r>  -15.3160    1.0000 </r>
       <r>  -15.3089    1.0000 </r>
       <r>   -7.7655    1.0000 </r>
       <r>   -7.6000    1.0000 </r>
       <r>   -6.7999    1.0000 </r>
       <r>   -6.5971    1.0000 </r>
       <r>   -1.7833    1.0000 </r>
       <r>   -1.3531    1.0000 </r>
       <r>   -0.4074    1.0000 </r>
       <r>   -0.2830    1.0000 </r>
       <r>    1.4328    1.0000 </r>
       <r>    1.8172    1.0000 </r>
       <r>    2.1413    1.0000 </r>
       <r>    2.6460    1.0000 </r>
       <r>    3.0047    1.0000 </r>
       <r>    3.3783    1.0000 </r>
       <r>    3.9228    1.0000 </r>
       <r>    4.0144    1.0000 </r>
       <r>    4.7238    1.0000 </r>
       <r>    4.8832    1.0000 </r>
       <r>    5.2689    1.0000 </r>
       <r>    5.3790    1.0000 </r>
       <r>    7.1255    0.0000 </r>
       <r>    7.3833    0.0000 </r>
       <r>    8.0481    0.0000 </r>
       <r>    8.2613    0.0000 </r>
       <r>    8.7444    0.0000 </r>
       <r>    9.0464    0.0000 </r>
       <r>    9.4600    0.0000 </r>
       <r>    9.6410    0.0000 </r>
       <r>   10.0636    0.0000 </r>
       <r>   10.4260    0.0000 </r>
       <r>   10.7010    0.0000 </r>
       <r>   10.9872    0.0000 </r>
       <r>   11.8422    0.0000 </r>
       <r>   12.2731    0.0000 </r>
       <r>   12.7017    0.0000 </r>
       <r>   12.7201    0.0000 </r>
       <r>   13.1191    0.0000 </r>
       <r>   13.7715    0.0000 </r>
       <r>   14.3581    0.0000 </r>
       <r>   14.6426    0.0000 </r>
       <r>   15.1770    0.0000 </r>
       <r>   15.5745    0.0000 </r>
       <r>   15.7749    0.0000 </r>
       <r>   16.0042    0.0000 </r>
      </set>
      <set comment="kpoint 38">
       <r>  -15.4066    1.0000 </r>
       <r>  -15.4029    1.0000 </r>
       <r>  -15.3998    1.0000 </r>
       <r>  -15.3949    1.0000 </r>
       <r>  -15.3916    1.0000 </r>
       <r>  -15.3903    1.0000 </r>
       <r>  -15.3878    1.0000 </r>
       <r>  -15.3870    1.0000 </r>
       <r>  -15.3838    1.0000 </r>
       <r>  -15.3814    1.0000 </r>
       <r>  -15.3705    1.0000 </r>
       <r>  -15.3652    1.0000 </r>
       <r>  -15.3608    1.0000 </r>
       <r>  -15.3546    1.0000 </r>
       <r>  -15.3396    1.0000 </r>
       <r>  -15.3380    1.0000 </r>
       <r>  -15.3326    1.0000 </r>
       <r>  -15.3297    1.0000 </r>
       <r>  -15.3155    1.0000 </r>
       <r>  -15.3088    1.0000 </r>
       <r>   -7.5749    1.0000 </r>
       <r>   -7.4214    1.0000 </r>
       <r>   -6.7760    1.0000 </r>
       <r>   -6.6032    1.0000 </r>
       <r>   -1.9519    1.0000 </r>
       <r>   -1.4912    1.0000 </r>
       <r>   -0.6430    1.0000 </r>
       <r>   -0.4635    1.0000 </r>
       <r>    1.3787    1.0000 </r>
       <r>    1.5007    1.0000 </r>
       <r>    1.9152    1.0000 </r>
       <r>    2.5334    1.0000 </r>
       <r>    2.5764    1.0000 </r>
       <r>    3.2023    1.0000 </r>
       <r>    4.1302    1.0000 </r>
       <r>    4.3896    1.0000 </r>
       <r>    4.4632    1.0000 </r>
       <r>    4.6174    1.0000 </r>
       <r>    5.2659    1.0000 </r>
       <r>    5.4129    1.0000 </r>
       <r>    7.2700    0.0000 </r>
       <r>    7.6569    0.0000 </r>
       <r>    7.7543    0.0000 </r>
       <r>    8.1866    0.0000 </r>
       <r>    8.4682    0.0000 </r>
       <r>    8.9079    0.0000 </r>
       <r>    9.3350    0.0000 </r>
       <r>    9.9102    0.0000 </r>
       <r>   10.4199    0.0000 </r>
       <r>   10.7862    0.0000 </r>
       <r>   11.0456    0.0000 </r>
       <r>   11.1733    0.0000 </r>
       <r>   12.2117    0.0000 </r>
       <r>   13.0026    0.0000 </r>
       <r>   13.3265    0.0000 </r>
       <r>   13.4067    0.0000 </r>
       <r>   13.6577    0.0000 </r>
       <r>   13.9371    0.0000 </r>
       <r>   14.2077    0.0000 </r>
       <r>   14.6623    0.0000 </r>
       <r>   14.8647    0.0000 </r>
       <r>   15.2712    0.0000 </r>
       <r>   15.9773    0.0000 </r>
       <r>   16.1047    0.0000 </r>
      </set>
      <set comment="kpoint 39">
       <r>  -15.4091    1.0000 </r>
       <r>  -15.4046    1.0000 </r>
       <r>  -15.4025    1.0000 </r>
       <r>  -15.3985    1.0000 </r>
       <r>  -15.3916    1.0000 </r>
       <r>  -15.3892    1.0000 </r>
       <r>  -15.3872    1.0000 </r>
       <r>  -15.3866    1.0000 </r>
       <r>  -15.3830    1.0000 </r>
       <r>  -15.3800    1.0000 </r>
       <r>  -15.3690    1.0000 </r>
       <r>  -15.3633    1.0000 </r>
       <r>  -15.3591    1.0000 </r>
       <r>  -15.3522    1.0000 </r>
       <r>  -15.3389    1.0000 </r>
       <r>  -15.3376    1.0000 </r>
       <r>  -15.3328    1.0000 </r>
       <r>  -15.3301    1.0000 </r>
       <r>  -15.3150    1.0000 </r>
       <r>  -15.3086    1.0000 </r>
       <r>   -7.3128    1.0000 </r>
       <r>   -7.1844    1.0000 </r>
       <r>   -6.8035    1.0000 </r>
       <r>   -6.6714    1.0000 </r>
       <r>   -2.1174    1.0000 </r>
       <r>   -1.8118    1.0000 </r>
       <r>   -0.8453    1.0000 </r>
       <r>   -0.6841    1.0000 </r>
       <r>    1.4146    1.0000 </r>
       <r>    1.5571    1.0000 </r>
       <r>    2.1614    1.0000 </r>
       <r>    2.3136    1.0000 </r>
       <r>    2.5562    1.0000 </r>
       <r>    3.2697    1.0000 </r>
       <r>    3.7031    1.0000 </r>
       <r>    3.8803    1.0000 </r>
       <r>    4.1364    1.0000 </r>
       <r>    4.2127    1.0000 </r>
       <r>    4.9703    1.0000 </r>
       <r>    5.2001    1.0000 </r>
       <r>    7.4408    0.0000 </r>
       <r>    7.9995    0.0000 </r>
       <r>    8.2086    0.0000 </r>
       <r>    8.3789    0.0000 </r>
       <r>    8.9798    0.0000 </r>
       <r>    9.2156    0.0000 </r>
       <r>    9.4229    0.0000 </r>
       <r>    9.9299    0.0000 </r>
       <r>   10.4574    0.0000 </r>
       <r>   10.7875    0.0000 </r>
       <r>   11.1515    0.0000 </r>
       <r>   11.2909    0.0000 </r>
       <r>   12.1970    0.0000 </r>
       <r>   12.6535    0.0000 </r>
       <r>   13.2289    0.0000 </r>
       <r>   13.8151    0.0000 </r>
       <r>   14.0025    0.0000 </r>
       <r>   14.3810    0.0000 </r>
       <r>   14.9413    0.0000 </r>
       <r>   15.1257    0.0000 </r>
       <r>   15.4625    0.0000 </r>
       <r>   15.6010    0.0000 </r>
       <r>   16.5776    0.0000 </r>
       <r>   17.0031    0.0000 </r>
      </set>
      <set comment="kpoint 40">
       <r>  -15.4103    1.0000 </r>
       <r>  -15.4056    1.0000 </r>
       <r>  -15.4027    1.0000 </r>
       <r>  -15.4007    1.0000 </r>
       <r>  -15.3918    1.0000 </r>
       <r>  -15.3881    1.0000 </r>
       <r>  -15.3874    1.0000 </r>
       <r>  -15.3866    1.0000 </r>
       <r>  -15.3829    1.0000 </r>
       <r>  -15.3792    1.0000 </r>
       <r>  -15.3684    1.0000 </r>
       <r>  -15.3631    1.0000 </r>
       <r>  -15.3578    1.0000 </r>
       <r>  -15.3514    1.0000 </r>
       <r>  -15.3384    1.0000 </r>
       <r>  -15.3376    1.0000 </r>
       <r>  -15.3328    1.0000 </r>
       <r>  -15.3302    1.0000 </r>
       <r>  -15.3148    1.0000 </r>
       <r>  -15.3086    1.0000 </r>
       <r>   -7.0951    1.0000 </r>
       <r>   -7.0908    1.0000 </r>
       <r>   -6.8118    1.0000 </r>
       <r>   -6.8029    1.0000 </r>
       <r>   -2.0831    1.0000 </r>
       <r>   -2.0802    1.0000 </r>
       <r>   -0.8653    1.0000 </r>
       <r>   -0.8598    1.0000 </r>
       <r>    1.7753    1.0000 </r>
       <r>    1.7783    1.0000 </r>
       <r>    2.0047    1.0000 </r>
       <r>    2.0069    1.0000 </r>
       <r>    2.9379    1.0000 </r>
       <r>    2.9457    1.0000 </r>
       <r>    3.6540    1.0000 </r>
       <r>    3.6586    1.0000 </r>
       <r>    4.0276    1.0000 </r>
       <r>    4.0292    1.0000 </r>
       <r>    4.8113    1.0000 </r>
       <r>    4.8216    1.0000 </r>
       <r>    7.7728    0.0000 </r>
       <r>    7.7820    0.0000 </r>
       <r>    8.7640    0.0000 </r>
       <r>    8.7676    0.0000 </r>
       <r>    9.0238    0.0000 </r>
       <r>    9.0281    0.0000 </r>
       <r>    9.8962    0.0000 </r>
       <r>    9.9057    0.0000 </r>
       <r>   10.6443    0.0000 </r>
       <r>   10.6486    0.0000 </r>
       <r>   10.9726    0.0000 </r>
       <r>   10.9787    0.0000 </r>
       <r>   12.2888    0.0000 </r>
       <r>   12.2931    0.0000 </r>
       <r>   13.4950    0.0000 </r>
       <r>   13.4988    0.0000 </r>
       <r>   14.6853    0.0000 </r>
       <r>   14.6876    0.0000 </r>
       <r>   15.8811    0.0000 </r>
       <r>   15.8843    0.0000 </r>
       <r>   16.0225    0.0000 </r>
       <r>   16.0259    0.0000 </r>
       <r>   16.6265    0.0000 </r>
       <r>   16.6307    0.0000 </r>
      </set>
      <set comment="kpoint 41">
       <r>  -15.4038    1.0000 </r>
       <r>  -15.3997    1.0000 </r>
       <r>  -15.3980    1.0000 </r>
       <r>  -15.3932    1.0000 </r>
       <r>  -15.3915    1.0000 </r>
       <r>  -15.3906    1.0000 </r>
       <r>  -15.3877    1.0000 </r>
       <r>  -15.3847    1.0000 </r>
       <r>  -15.3839    1.0000 </r>
       <r>  -15.3812    1.0000 </r>
       <r>  -15.3707    1.0000 </r>
       <r>  -15.3666    1.0000 </r>
       <r>  -15.3592    1.0000 </r>
       <r>  -15.3539    1.0000 </r>
       <r>  -15.3441    1.0000 </r>
       <r>  -15.3379    1.0000 </r>
       <r>  -15.3326    1.0000 </r>
       <r>  -15.3254    1.0000 </r>
       <r>  -15.3187    1.0000 </r>
       <r>  -15.3120    1.0000 </r>
       <r>   -7.5284    1.0000 </r>
       <r>   -7.3921    1.0000 </r>
       <r>   -6.7873    1.0000 </r>
       <r>   -6.6652    1.0000 </r>
       <r>   -2.0121    1.0000 </r>
       <r>   -1.6497    1.0000 </r>
       <r>   -1.1473    1.0000 </r>
       <r>   -0.8512    1.0000 </r>
       <r>    1.7213    1.0000 </r>
       <r>    2.6673    1.0000 </r>
       <r>    2.8478    1.0000 </r>
       <r>    3.0831    1.0000 </r>
       <r>    3.2915    1.0000 </r>
       <r>    3.7186    1.0000 </r>
       <r>    3.9679    1.0000 </r>
       <r>    4.0270    1.0000 </r>
       <r>    4.3144    1.0000 </r>
       <r>    4.5079    1.0000 </r>
       <r>    5.3033    1.0000 </r>
       <r>    5.6041    1.0000 </r>
       <r>    6.6043    0.0000 </r>
       <r>    7.1262    0.0000 </r>
       <r>    7.8338    0.0000 </r>
       <r>    7.8678    0.0000 </r>
       <r>    8.3351    0.0000 </r>
       <r>    8.5506    0.0000 </r>
       <r>    8.5600    0.0000 </r>
       <r>    9.1018    0.0000 </r>
       <r>    9.3361    0.0000 </r>
       <r>    9.9510    0.0000 </r>
       <r>   10.0669    0.0000 </r>
       <r>   10.4934    0.0000 </r>
       <r>   12.4122    0.0000 </r>
       <r>   12.7533    0.0000 </r>
       <r>   12.7565    0.0000 </r>
       <r>   13.4034    0.0000 </r>
       <r>   13.7985    0.0000 </r>
       <r>   14.1151    0.0000 </r>
       <r>   14.4954    0.0000 </r>
       <r>   15.0999    0.0000 </r>
       <r>   15.1856    0.0000 </r>
       <r>   15.4117    0.0000 </r>
       <r>   16.3695    0.0000 </r>
       <r>   16.4826    0.0000 </r>
      </set>
      <set comment="kpoint 42">
       <r>  -15.4058    1.0000 </r>
       <r>  -15.4015    1.0000 </r>
       <r>  -15.4005    1.0000 </r>
       <r>  -15.3942    1.0000 </r>
       <r>  -15.3918    1.0000 </r>
       <r>  -15.3897    1.0000 </r>
       <r>  -15.3866    1.0000 </r>
       <r>  -15.3848    1.0000 </r>
       <r>  -15.3825    1.0000 </r>
       <r>  -15.3808    1.0000 </r>
       <r>  -15.3704    1.0000 </r>
       <r>  -15.3655    1.0000 </r>
       <r>  -15.3592    1.0000 </r>
       <r>  -15.3529    1.0000 </r>
       <r>  -15.3435    1.0000 </r>
       <r>  -15.3376    1.0000 </r>
       <r>  -15.3329    1.0000 </r>
       <r>  -15.3256    1.0000 </r>
       <r>  -15.3186    1.0000 </r>
       <r>  -15.3119    1.0000 </r>
       <r>   -7.4668    1.0000 </r>
       <r>   -7.3345    1.0000 </r>
       <r>   -6.7658    1.0000 </r>
       <r>   -6.6490    1.0000 </r>
       <r>   -1.9589    1.0000 </r>
       <r>   -1.5785    1.0000 </r>
       <r>   -1.1001    1.0000 </r>
       <r>   -0.8548    1.0000 </r>
       <r>    1.7086    1.0000 </r>
       <r>    1.9081    1.0000 </r>
       <r>    2.3661    1.0000 </r>
       <r>    2.8204    1.0000 </r>
       <r>    3.1558    1.0000 </r>
       <r>    3.4074    1.0000 </r>
       <r>    3.8724    1.0000 </r>
       <r>    4.2268    1.0000 </r>
       <r>    4.6003    1.0000 </r>
       <r>    4.6548    1.0000 </r>
       <r>    5.0636    1.0000 </r>
       <r>    5.1892    1.0000 </r>
       <r>    7.1378    0.0000 </r>
       <r>    7.2141    0.0000 </r>
       <r>    7.5614    0.0000 </r>
       <r>    7.7734    0.0000 </r>
       <r>    8.5193    0.0000 </r>
       <r>    8.8027    0.0000 </r>
       <r>    8.9379    0.0000 </r>
       <r>    9.3735    0.0000 </r>
       <r>    9.7533    0.0000 </r>
       <r>   10.2114    0.0000 </r>
       <r>   10.5429    0.0000 </r>
       <r>   10.7576    0.0000 </r>
       <r>   12.2634    0.0000 </r>
       <r>   12.8863    0.0000 </r>
       <r>   13.1868    0.0000 </r>
       <r>   13.5439    0.0000 </r>
       <r>   13.8640    0.0000 </r>
       <r>   13.8986    0.0000 </r>
       <r>   14.2870    0.0000 </r>
       <r>   14.9449    0.0000 </r>
       <r>   15.3006    0.0000 </r>
       <r>   15.4466    0.0000 </r>
       <r>   16.5017    0.0000 </r>
       <r>   16.6842    0.0000 </r>
      </set>
      <set comment="kpoint 43">
       <r>  -15.4107    1.0000 </r>
       <r>  -15.4060    1.0000 </r>
       <r>  -15.4044    1.0000 </r>
       <r>  -15.3985    1.0000 </r>
       <r>  -15.3924    1.0000 </r>
       <r>  -15.3877    1.0000 </r>
       <r>  -15.3857    1.0000 </r>
       <r>  -15.3836    1.0000 </r>
       <r>  -15.3802    1.0000 </r>
       <r>  -15.3789    1.0000 </r>
       <r>  -15.3699    1.0000 </r>
       <r>  -15.3645    1.0000 </r>
       <r>  -15.3571    1.0000 </r>
       <r>  -15.3505    1.0000 </r>
       <r>  -15.3424    1.0000 </r>
       <r>  -15.3367    1.0000 </r>
       <r>  -15.3331    1.0000 </r>
       <r>  -15.3261    1.0000 </r>
       <r>  -15.3181    1.0000 </r>
       <r>  -15.3116    1.0000 </r>
       <r>   -7.2989    1.0000 </r>
       <r>   -7.1788    1.0000 </r>
       <r>   -6.7239    1.0000 </r>
       <r>   -6.6210    1.0000 </r>
       <r>   -1.8452    1.0000 </r>
       <r>   -1.4455    1.0000 </r>
       <r>   -0.9779    1.0000 </r>
       <r>   -0.8587    1.0000 </r>
       <r>    1.1556    1.0000 </r>
       <r>    1.3640    1.0000 </r>
       <r>    2.1141    1.0000 </r>
       <r>    2.2388    1.0000 </r>
       <r>    2.4275    1.0000 </r>
       <r>    3.1015    1.0000 </r>
       <r>    3.6069    1.0000 </r>
       <r>    3.8491    1.0000 </r>
       <r>    3.9714    1.0000 </r>
       <r>    4.2969    1.0000 </r>
       <r>    4.7970    1.0000 </r>
       <r>    5.2145    1.0000 </r>
       <r>    7.3071    0.0000 </r>
       <r>    7.8795    0.0000 </r>
       <r>    8.2308    0.0000 </r>
       <r>    8.4220    0.0000 </r>
       <r>    8.7700    0.0000 </r>
       <r>    8.9562    0.0000 </r>
       <r>    9.7483    0.0000 </r>
       <r>   10.0078    0.0000 </r>
       <r>   10.1871    0.0000 </r>
       <r>   10.4844    0.0000 </r>
       <r>   11.4426    0.0000 </r>
       <r>   11.6688    0.0000 </r>
       <r>   12.1613    0.0000 </r>
       <r>   12.6566    0.0000 </r>
       <r>   13.3313    0.0000 </r>
       <r>   13.9502    0.0000 </r>
       <r>   14.1917    0.0000 </r>
       <r>   14.3003    0.0000 </r>
       <r>   14.6401    0.0000 </r>
       <r>   14.8899    0.0000 </r>
       <r>   15.4109    0.0000 </r>
       <r>   16.0036    0.0000 </r>
       <r>   16.1371    0.0000 </r>
       <r>   16.5229    0.0000 </r>
      </set>
      <set comment="kpoint 44">
       <r>  -15.4152    1.0000 </r>
       <r>  -15.4109    1.0000 </r>
       <r>  -15.4079    1.0000 </r>
       <r>  -15.4031    1.0000 </r>
       <r>  -15.3925    1.0000 </r>
       <r>  -15.3874    1.0000 </r>
       <r>  -15.3848    1.0000 </r>
       <r>  -15.3817    1.0000 </r>
       <r>  -15.3786    1.0000 </r>
       <r>  -15.3772    1.0000 </r>
       <r>  -15.3694    1.0000 </r>
       <r>  -15.3641    1.0000 </r>
       <r>  -15.3542    1.0000 </r>
       <r>  -15.3478    1.0000 </r>
       <r>  -15.3412    1.0000 </r>
       <r>  -15.3355    1.0000 </r>
       <r>  -15.3331    1.0000 </r>
       <r>  -15.3264    1.0000 </r>
       <r>  -15.3175    1.0000 </r>
       <r>  -15.3114    1.0000 </r>
       <r>   -7.0782    1.0000 </r>
       <r>   -6.9816    1.0000 </r>
       <r>   -6.7158    1.0000 </r>
       <r>   -6.6321    1.0000 </r>
       <r>   -1.7635    1.0000 </r>
       <r>   -1.5065    1.0000 </r>
       <r>   -0.7949    1.0000 </r>
       <r>   -0.7644    1.0000 </r>
       <r>    0.8591    1.0000 </r>
       <r>    1.0899    1.0000 </r>
       <r>    1.6619    1.0000 </r>
       <r>    1.8950    1.0000 </r>
       <r>    2.1964    1.0000 </r>
       <r>    2.6196    1.0000 </r>
       <r>    2.8449    1.0000 </r>
       <r>    3.4545    1.0000 </r>
       <r>    3.7075    1.0000 </r>
       <r>    4.0707    1.0000 </r>
       <r>    4.4457    1.0000 </r>
       <r>    4.7803    1.0000 </r>
       <r>    7.6051    0.0000 </r>
       <r>    8.2513    0.0000 </r>
       <r>    8.8563    0.0000 </r>
       <r>    9.0679    0.0000 </r>
       <r>    9.1498    0.0000 </r>
       <r>    9.5583    0.0000 </r>
       <r>   10.5435    0.0000 </r>
       <r>   10.6312    0.0000 </r>
       <r>   10.7472    0.0000 </r>
       <r>   10.9191    0.0000 </r>
       <r>   11.9267    0.0000 </r>
       <r>   11.9940    0.0000 </r>
       <r>   12.1372    0.0000 </r>
       <r>   12.3544    0.0000 </r>
       <r>   13.1498    0.0000 </r>
       <r>   13.4840    0.0000 </r>
       <r>   14.9819    0.0000 </r>
       <r>   15.3639    0.0000 </r>
       <r>   15.5164    0.0000 </r>
       <r>   15.5348    0.0000 </r>
       <r>   16.0106    0.0000 </r>
       <r>   16.1822    0.0000 </r>
       <r>   16.4166    0.0000 </r>
       <r>   16.7548    0.0000 </r>
      </set>
      <set comment="kpoint 45">
       <r>  -15.4170    1.0000 </r>
       <r>  -15.4131    1.0000 </r>
       <r>  -15.4089    1.0000 </r>
       <r>  -15.4052    1.0000 </r>
       <r>  -15.3923    1.0000 </r>
       <r>  -15.3879    1.0000 </r>
       <r>  -15.3841    1.0000 </r>
       <r>  -15.3808    1.0000 </r>
       <r>  -15.3783    1.0000 </r>
       <r>  -15.3767    1.0000 </r>
       <r>  -15.3691    1.0000 </r>
       <r>  -15.3640    1.0000 </r>
       <r>  -15.3530    1.0000 </r>
       <r>  -15.3466    1.0000 </r>
       <r>  -15.3409    1.0000 </r>
       <r>  -15.3349    1.0000 </r>
       <r>  -15.3331    1.0000 </r>
       <r>  -15.3265    1.0000 </r>
       <r>  -15.3173    1.0000 </r>
       <r>  -15.3112    1.0000 </r>
       <r>   -6.9091    1.0000 </r>
       <r>   -6.9038    1.0000 </r>
       <r>   -6.7123    1.0000 </r>
       <r>   -6.7039    1.0000 </r>
       <r>   -1.6759    1.0000 </r>
       <r>   -1.6734    1.0000 </r>
       <r>   -0.6931    1.0000 </r>
       <r>   -0.6887    1.0000 </r>
       <r>    1.0734    1.0000 </r>
       <r>    1.0748    1.0000 </r>
       <r>    1.3524    1.0000 </r>
       <r>    1.3537    1.0000 </r>
       <r>    2.3264    1.0000 </r>
       <r>    2.3308    1.0000 </r>
       <r>    2.9314    1.0000 </r>
       <r>    2.9392    1.0000 </r>
       <r>    3.7727    1.0000 </r>
       <r>    3.7771    1.0000 </r>
       <r>    4.5063    1.0000 </r>
       <r>    4.5088    1.0000 </r>
       <r>    7.8560    0.0000 </r>
       <r>    7.8706    0.0000 </r>
       <r>    9.1468    0.0000 </r>
       <r>    9.1542    0.0000 </r>
       <r>   10.0921    0.0000 </r>
       <r>   10.1056    0.0000 </r>
       <r>   10.3138    0.0000 </r>
       <r>   10.3211    0.0000 </r>
       <r>   11.4677    0.0000 </r>
       <r>   11.4706    0.0000 </r>
       <r>   11.8610    0.0000 </r>
       <r>   11.8635    0.0000 </r>
       <r>   12.2786    0.0000 </r>
       <r>   12.2814    0.0000 </r>
       <r>   13.2040    0.0000 </r>
       <r>   13.2051    0.0000 </r>
       <r>   15.1105    0.0000 </r>
       <r>   15.1174    0.0000 </r>
       <r>   16.3755    0.0000 </r>
       <r>   16.3769    0.0000 </r>
       <r>   16.6343    0.0000 </r>
       <r>   16.6377    0.0000 </r>
       <r>   17.1851    0.0000 </r>
       <r>   17.1894    0.0000 </r>
      </set>
      <set comment="kpoint 46">
       <r>  -15.4053    1.0000 </r>
       <r>  -15.4034    1.0000 </r>
       <r>  -15.3990    1.0000 </r>
       <r>  -15.3963    1.0000 </r>
       <r>  -15.3913    1.0000 </r>
       <r>  -15.3905    1.0000 </r>
       <r>  -15.3849    1.0000 </r>
       <r>  -15.3840    1.0000 </r>
       <r>  -15.3784    1.0000 </r>
       <r>  -15.3745    1.0000 </r>
       <r>  -15.3711    1.0000 </r>
       <r>  -15.3672    1.0000 </r>
       <r>  -15.3555    1.0000 </r>
       <r>  -15.3502    1.0000 </r>
       <r>  -15.3490    1.0000 </r>
       <r>  -15.3435    1.0000 </r>
       <r>  -15.3274    1.0000 </r>
       <r>  -15.3224    1.0000 </r>
       <r>  -15.3204    1.0000 </r>
       <r>  -15.3155    1.0000 </r>
       <r>   -7.1752    1.0000 </r>
       <r>   -7.0976    1.0000 </r>
       <r>   -6.8735    1.0000 </r>
       <r>   -6.8598    1.0000 </r>
       <r>   -2.0624    1.0000 </r>
       <r>   -1.7618    1.0000 </r>
       <r>   -1.6978    1.0000 </r>
       <r>   -1.4067    1.0000 </r>
       <r>    2.2377    1.0000 </r>
       <r>    2.7953    1.0000 </r>
       <r>    3.1686    1.0000 </r>
       <r>    3.4191    1.0000 </r>
       <r>    3.4227    1.0000 </r>
       <r>    3.8384    1.0000 </r>
       <r>    3.8526    1.0000 </r>
       <r>    3.8871    1.0000 </r>
       <r>    4.5581    1.0000 </r>
       <r>    4.7353    1.0000 </r>
       <r>    5.1096    1.0000 </r>
       <r>    5.2320    1.0000 </r>
       <r>    6.8327    0.0000 </r>
       <r>    7.0410    0.0000 </r>
       <r>    7.3329    0.0000 </r>
       <r>    7.5343    0.0000 </r>
       <r>    7.8324    0.0000 </r>
       <r>    8.0243    0.0000 </r>
       <r>    8.0292    0.0000 </r>
       <r>    8.3553    0.0000 </r>
       <r>    8.9661    0.0000 </r>
       <r>    9.3860    0.0000 </r>
       <r>   10.2110    0.0000 </r>
       <r>   10.3809    0.0000 </r>
       <r>   13.2151    0.0000 </r>
       <r>   13.5551    0.0000 </r>
       <r>   13.9508    0.0000 </r>
       <r>   14.0025    0.0000 </r>
       <r>   14.4503    0.0000 </r>
       <r>   14.5301    0.0000 </r>
       <r>   14.7285    0.0000 </r>
       <r>   15.1486    0.0000 </r>
       <r>   15.7855    0.0000 </r>
       <r>   15.8033    0.0000 </r>
       <r>   16.0369    0.0000 </r>
       <r>   16.3282    0.0000 </r>
      </set>
      <set comment="kpoint 47">
       <r>  -15.4076    1.0000 </r>
       <r>  -15.4057    1.0000 </r>
       <r>  -15.4013    1.0000 </r>
       <r>  -15.3982    1.0000 </r>
       <r>  -15.3912    1.0000 </r>
       <r>  -15.3898    1.0000 </r>
       <r>  -15.3845    1.0000 </r>
       <r>  -15.3833    1.0000 </r>
       <r>  -15.3776    1.0000 </r>
       <r>  -15.3742    1.0000 </r>
       <r>  -15.3707    1.0000 </r>
       <r>  -15.3669    1.0000 </r>
       <r>  -15.3547    1.0000 </r>
       <r>  -15.3499    1.0000 </r>
       <r>  -15.3475    1.0000 </r>
       <r>  -15.3429    1.0000 </r>
       <r>  -15.3275    1.0000 </r>
       <r>  -15.3224    1.0000 </r>
       <r>  -15.3204    1.0000 </r>
       <r>  -15.3154    1.0000 </r>
       <r>   -7.1258    1.0000 </r>
       <r>   -7.0515    1.0000 </r>
       <r>   -6.8415    1.0000 </r>
       <r>   -6.8269    1.0000 </r>
       <r>   -1.9674    1.0000 </r>
       <r>   -1.6778    1.0000 </r>
       <r>   -1.6040    1.0000 </r>
       <r>   -1.3448    1.0000 </r>
       <r>    2.1494    1.0000 </r>
       <r>    2.2964    1.0000 </r>
       <r>    2.6084    1.0000 </r>
       <r>    2.8711    1.0000 </r>
       <r>    3.0490    1.0000 </r>
       <r>    3.4584    1.0000 </r>
       <r>    3.6392    1.0000 </r>
       <r>    4.0203    1.0000 </r>
       <r>    4.4350    1.0000 </r>
       <r>    4.7321    1.0000 </r>
       <r>    4.7592    1.0000 </r>
       <r>    5.0293    1.0000 </r>
       <r>    7.1137    0.0000 </r>
       <r>    7.1754    0.0000 </r>
       <r>    7.3404    0.0000 </r>
       <r>    7.6029    0.0000 </r>
       <r>    8.4241    0.0000 </r>
       <r>    8.6953    0.0000 </r>
       <r>    8.8621    0.0000 </r>
       <r>    9.2446    0.0000 </r>
       <r>    9.3254    0.0000 </r>
       <r>    9.9319    0.0000 </r>
       <r>   10.2105    0.0000 </r>
       <r>   10.3020    0.0000 </r>
       <r>   12.4555    0.0000 </r>
       <r>   12.8356    0.0000 </r>
       <r>   13.8604    0.0000 </r>
       <r>   14.2631    0.0000 </r>
       <r>   14.6487    0.0000 </r>
       <r>   14.8517    0.0000 </r>
       <r>   14.9524    0.0000 </r>
       <r>   15.5105    0.0000 </r>
       <r>   15.8952    0.0000 </r>
       <r>   16.0068    0.0000 </r>
       <r>   16.4996    0.0000 </r>
       <r>   16.8048    0.0000 </r>
      </set>
      <set comment="kpoint 48">
       <r>  -15.4131    1.0000 </r>
       <r>  -15.4111    1.0000 </r>
       <r>  -15.4062    1.0000 </r>
       <r>  -15.4031    1.0000 </r>
       <r>  -15.3910    1.0000 </r>
       <r>  -15.3885    1.0000 </r>
       <r>  -15.3840    1.0000 </r>
       <r>  -15.3818    1.0000 </r>
       <r>  -15.3761    1.0000 </r>
       <r>  -15.3729    1.0000 </r>
       <r>  -15.3701    1.0000 </r>
       <r>  -15.3661    1.0000 </r>
       <r>  -15.3524    1.0000 </r>
       <r>  -15.3483    1.0000 </r>
       <r>  -15.3449    1.0000 </r>
       <r>  -15.3410    1.0000 </r>
       <r>  -15.3275    1.0000 </r>
       <r>  -15.3226    1.0000 </r>
       <r>  -15.3200    1.0000 </r>
       <r>  -15.3152    1.0000 </r>
       <r>   -6.9963    1.0000 </r>
       <r>   -6.9321    1.0000 </r>
       <r>   -6.7656    1.0000 </r>
       <r>   -6.7486    1.0000 </r>
       <r>   -1.7063    1.0000 </r>
       <r>   -1.4528    1.0000 </r>
       <r>   -1.3438    1.0000 </r>
       <r>   -1.1841    1.0000 </r>
       <r>    1.3630    1.0000 </r>
       <r>    1.6155    1.0000 </r>
       <r>    1.9206    1.0000 </r>
       <r>    2.1072    1.0000 </r>
       <r>    2.4683    1.0000 </r>
       <r>    2.9437    1.0000 </r>
       <r>    3.1290    1.0000 </r>
       <r>    3.5714    1.0000 </r>
       <r>    3.7544    1.0000 </r>
       <r>    4.1339    1.0000 </r>
       <r>    4.3925    1.0000 </r>
       <r>    4.7870    1.0000 </r>
       <r>    7.5347    0.0000 </r>
       <r>    7.9080    0.0000 </r>
       <r>    8.4588    0.0000 </r>
       <r>    8.7471    0.0000 </r>
       <r>    9.0839    0.0000 </r>
       <r>    9.1941    0.0000 </r>
       <r>    9.6379    0.0000 </r>
       <r>    9.7816    0.0000 </r>
       <r>   10.4062    0.0000 </r>
       <r>   10.6494    0.0000 </r>
       <r>   11.0417    0.0000 </r>
       <r>   11.3987    0.0000 </r>
       <r>   12.0858    0.0000 </r>
       <r>   12.2535    0.0000 </r>
       <r>   13.5164    0.0000 </r>
       <r>   13.6178    0.0000 </r>
       <r>   14.9278    0.0000 </r>
       <r>   15.2643    0.0000 </r>
       <r>   15.4206    0.0000 </r>
       <r>   15.9988    0.0000 </r>
       <r>   16.3541    0.0000 </r>
       <r>   16.5254    0.0000 </r>
       <r>   16.9276    0.0000 </r>
       <r>   17.2119    0.0000 </r>
      </set>
      <set comment="kpoint 49">
       <r>  -15.4184    1.0000 </r>
       <r>  -15.4165    1.0000 </r>
       <r>  -15.4110    1.0000 </r>
       <r>  -15.4081    1.0000 </r>
       <r>  -15.3908    1.0000 </r>
       <r>  -15.3878    1.0000 </r>
       <r>  -15.3839    1.0000 </r>
       <r>  -15.3809    1.0000 </r>
       <r>  -15.3747    1.0000 </r>
       <r>  -15.3714    1.0000 </r>
       <r>  -15.3696    1.0000 </r>
       <r>  -15.3653    1.0000 </r>
       <r>  -15.3498    1.0000 </r>
       <r>  -15.3462    1.0000 </r>
       <r>  -15.3424    1.0000 </r>
       <r>  -15.3388    1.0000 </r>
       <r>  -15.3274    1.0000 </r>
       <r>  -15.3228    1.0000 </r>
       <r>  -15.3196    1.0000 </r>
       <r>  -15.3150    1.0000 </r>
       <r>   -6.8421    1.0000 </r>
       <r>   -6.7951    1.0000 </r>
       <r>   -6.6994    1.0000 </r>
       <r>   -6.6786    1.0000 </r>
       <r>   -1.3869    1.0000 </r>
       <r>   -1.2243    1.0000 </r>
       <r>   -1.0145    1.0000 </r>
       <r>   -0.9455    1.0000 </r>
       <r>    0.7858    1.0000 </r>
       <r>    1.1346    1.0000 </r>
       <r>    1.1952    1.0000 </r>
       <r>    1.6178    1.0000 </r>
       <r>    1.8399    1.0000 </r>
       <r>    2.2170    1.0000 </r>
       <r>    2.3646    1.0000 </r>
       <r>    2.8502    1.0000 </r>
       <r>    3.6680    1.0000 </r>
       <r>    3.9807    1.0000 </r>
       <r>    4.3653    1.0000 </r>
       <r>    4.5325    1.0000 </r>
       <r>    7.8496    0.0000 </r>
       <r>    8.1759    0.0000 </r>
       <r>    8.5987    0.0000 </r>
       <r>    8.8940    0.0000 </r>
       <r>    9.9667    0.0000 </r>
       <r>   10.0325    0.0000 </r>
       <r>   10.4459    0.0000 </r>
       <r>   10.5743    0.0000 </r>
       <r>   11.5604    0.0000 </r>
       <r>   11.8213    0.0000 </r>
       <r>   12.1354    0.0000 </r>
       <r>   12.1554    0.0000 </r>
       <r>   12.2495    0.0000 </r>
       <r>   12.4993    0.0000 </r>
       <r>   13.1614    0.0000 </r>
       <r>   13.2892    0.0000 </r>
       <r>   15.1588    0.0000 </r>
       <r>   15.3637    0.0000 </r>
       <r>   16.1654    0.0000 </r>
       <r>   16.3662    0.0000 </r>
       <r>   16.8146    0.0000 </r>
       <r>   16.9290    0.0000 </r>
       <r>   17.1071    0.0000 </r>
       <r>   17.1565    0.0000 </r>
      </set>
      <set comment="kpoint 50">
       <r>  -15.4205    1.0000 </r>
       <r>  -15.4188    1.0000 </r>
       <r>  -15.4130    1.0000 </r>
       <r>  -15.4102    1.0000 </r>
       <r>  -15.3906    1.0000 </r>
       <r>  -15.3877    1.0000 </r>
       <r>  -15.3839    1.0000 </r>
       <r>  -15.3808    1.0000 </r>
       <r>  -15.3740    1.0000 </r>
       <r>  -15.3704    1.0000 </r>
       <r>  -15.3697    1.0000 </r>
       <r>  -15.3651    1.0000 </r>
       <r>  -15.3487    1.0000 </r>
       <r>  -15.3453    1.0000 </r>
       <r>  -15.3414    1.0000 </r>
       <r>  -15.3377    1.0000 </r>
       <r>  -15.3273    1.0000 </r>
       <r>  -15.3228    1.0000 </r>
       <r>  -15.3194    1.0000 </r>
       <r>  -15.3150    1.0000 </r>
       <r>   -6.7470    1.0000 </r>
       <r>   -6.7404    1.0000 </r>
       <r>   -6.6749    1.0000 </r>
       <r>   -6.6676    1.0000 </r>
       <r>   -1.2037    1.0000 </r>
       <r>   -1.2022    1.0000 </r>
       <r>   -0.7979    1.0000 </r>
       <r>   -0.7966    1.0000 </r>
       <r>    0.7406    1.0000 </r>
       <r>    0.7424    1.0000 </r>
       <r>    1.1626    1.0000 </r>
       <r>    1.1634    1.0000 </r>
       <r>    1.7362    1.0000 </r>
       <r>    1.7384    1.0000 </r>
       <r>    2.2711    1.0000 </r>
       <r>    2.2753    1.0000 </r>
       <r>    3.8711    1.0000 </r>
       <r>    3.8724    1.0000 </r>
       <r>    4.4088    1.0000 </r>
       <r>    4.4097    1.0000 </r>
       <r>    8.0333    0.0000 </r>
       <r>    8.0462    0.0000 </r>
       <r>    8.5816    0.0000 </r>
       <r>    8.5911    0.0000 </r>
       <r>   10.6128    0.0000 </r>
       <r>   10.6280    0.0000 </r>
       <r>   10.7964    0.0000 </r>
       <r>   10.8071    0.0000 </r>
       <r>   12.2051    0.0000 </r>
       <r>   12.2112    0.0000 </r>
       <r>   12.4929    0.0000 </r>
       <r>   12.4990    0.0000 </r>
       <r>   12.6066    0.0000 </r>
       <r>   12.6114    0.0000 </r>
       <r>   13.1778    0.0000 </r>
       <r>   13.1790    0.0000 </r>
       <r>   15.4285    0.0000 </r>
       <r>   15.4345    0.0000 </r>
       <r>   16.3632    0.0000 </r>
       <r>   16.3666    0.0000 </r>
       <r>   16.9455    0.0000 </r>
       <r>   16.9463    0.0000 </r>
       <r>   17.1588    0.0000 </r>
       <r>   17.1629    0.0000 </r>
      </set>
     </set>
    </set>
   </array>
  </eigenvalues>
  <separator name="orbital magnetization" >
   <v name="MAGDIPOLOUT">      0.00000000      0.00000000      0.00000000</v>
  </separator>
  <dos>
   <i name="efermi">      5.97046159 </i>
   <total>
    <array>
     <dimension dim="1">gridpoints</dimension>
     <dimension dim="2">spin</dimension>
     <field>energy</field>
     <field>total</field>
     <field>integrated</field>
     <set>
      <set comment="spin 1">
       <r>   -17.0834     0.0000     0.0000 </r>
       <r>   -16.9616     0.0000     0.0000 </r>
       <r>   -16.8398     0.0000     0.0000 </r>
       <r>   -16.7180     0.0000     0.0000 </r>
       <r>   -16.5962     0.0000     0.0000 </r>
       <r>   -16.4743     0.0000     0.0000 </r>
       <r>   -16.3525     0.0000     0.0000 </r>
       <r>   -16.2307     0.0000     0.0000 </r>
       <r>   -16.1089     0.0000     0.0000 </r>
       <r>   -15.9871     0.0000     0.0000 </r>
       <r>   -15.8653     0.0000     0.0000 </r>
       <r>   -15.7434     0.0000     0.0000 </r>
       <r>   -15.6216     0.0000     0.0000 </r>
       <r>   -15.4998     0.0000     0.0000 </r>
       <r>   -15.3780   147.8888    18.0154 </r>
       <r>   -15.2562    67.3444    40.0000 </r>
       <r>   -15.1344     0.0000    40.0000 </r>
       <r>   -15.0125     0.0000    40.0000 </r>
       <r>   -14.8907     0.0000    40.0000 </r>
       <r>   -14.7689     0.0000    40.0000 </r>
       <r>   -14.6471     0.0000    40.0000 </r>
       <r>   -14.5253     0.0000    40.0000 </r>
       <r>   -14.4034     0.0000    40.0000 </r>
       <r>   -14.2816     0.0000    40.0000 </r>
       <r>   -14.1598     0.0000    40.0000 </r>
       <r>   -14.0380     0.0000    40.0000 </r>
       <r>   -13.9162     0.0000    40.0000 </r>
       <r>   -13.7944     0.0000    40.0000 </r>
       <r>   -13.6725     0.0000    40.0000 </r>
       <r>   -13.5507     0.0000    40.0000 </r>
       <r>   -13.4289     0.0000    40.0000 </r>
       <r>   -13.3071     0.0000    40.0000 </r>
       <r>   -13.1853     0.0000    40.0000 </r>
       <r>   -13.0635     0.0000    40.0000 </r>
       <r>   -12.9416     0.0000    40.0000 </r>
       <r>   -12.8198     0.0000    40.0000 </r>
       <r>   -12.6980     0.0000    40.0000 </r>
       <r>   -12.5762     0.0000    40.0000 </r>
       <r>   -12.4544     0.0000    40.0000 </r>
       <r>   -12.3326     0.0000    40.0000 </r>
       <r>   -12.2107     0.0000    40.0000 </r>
       <r>   -12.0889     0.0000    40.0000 </r>
       <r>   -11.9671     0.0000    40.0000 </r>
       <r>   -11.8453     0.0000    40.0000 </r>
       <r>   -11.7235     0.0000    40.0000 </r>
       <r>   -11.6017     0.0000    40.0000 </r>
       <r>   -11.4798     0.0000    40.0000 </r>
       <r>   -11.3580     0.0000    40.0000 </r>
       <r>   -11.2362     0.0000    40.0000 </r>
       <r>   -11.1144     0.0000    40.0000 </r>
       <r>   -10.9926     0.0000    40.0000 </r>
       <r>   -10.8708     0.0000    40.0000 </r>
       <r>   -10.7489     0.0000    40.0000 </r>
       <r>   -10.6271     0.0000    40.0000 </r>
       <r>   -10.5053     0.0000    40.0000 </r>
       <r>   -10.3835     0.0000    40.0000 </r>
       <r>   -10.2617     0.0000    40.0000 </r>
       <r>   -10.1399     0.0000    40.0000 </r>
       <r>   -10.0180     0.0000    40.0000 </r>
       <r>    -9.8962     0.0000    40.0000 </r>
       <r>    -9.7744     0.0000    40.0000 </r>
       <r>    -9.6526     0.0000    40.0000 </r>
       <r>    -9.5308     0.0000    40.0000 </r>
       <r>    -9.4089     0.0000    40.0000 </r>
       <r>    -9.2871     0.0000    40.0000 </r>
       <r>    -9.1653     0.0000    40.0000 </r>
       <r>    -9.0435     0.0000    40.0000 </r>
       <r>    -8.9217     0.0000    40.0000 </r>
       <r>    -8.7999     0.0000    40.0000 </r>
       <r>    -8.6780     0.0000    40.0000 </r>
       <r>    -8.5562     0.0000    40.0000 </r>
       <r>    -8.4344     0.0000    40.0000 </r>
       <r>    -8.3126     0.0000    40.0000 </r>
       <r>    -8.1908     0.0033    40.0004 </r>
       <r>    -8.0690     0.4561    40.0648 </r>
       <r>    -7.9471     0.6036    40.2495 </r>
       <r>    -7.8253     1.7749    40.4847 </r>
       <r>    -7.7035     2.0376    40.7760 </r>
       <r>    -7.5817     2.4060    41.1264 </r>
       <r>    -7.4599     2.9743    41.5660 </r>
       <r>    -7.3381     1.5416    41.8730 </r>
       <r>    -7.2162     1.9857    42.4086 </r>
       <r>    -7.0944     2.0045    42.8923 </r>
       <r>    -6.9726     3.6382    43.6006 </r>
       <r>    -6.8508     7.4790    44.7259 </r>
       <r>    -6.7290     8.3485    46.1559 </r>
       <r>    -6.6072     7.7224    47.4870 </r>
       <r>    -6.4853     1.8896    47.9987 </r>
       <r>    -6.3635     0.0000    48.0000 </r>
       <r>    -6.2417     0.0000    48.0000 </r>
       <r>    -6.1199     0.0000    48.0000 </r>
       <r>    -5.9981     0.0000    48.0000 </r>
       <r>    -5.8763     0.0000    48.0000 </r>
       <r>    -5.7544     0.0000    48.0000 </r>
       <r>    -5.6326     0.0000    48.0000 </r>
       <r>    -5.5108     0.0000    48.0000 </r>
       <r>    -5.3890     0.0000    48.0000 </r>
       <r>    -5.2672     0.0000    48.0000 </r>
       <r>    -5.1453     0.0000    48.0000 </r>
       <r>    -5.0235     0.0000    48.0000 </r>
       <r>    -4.9017     0.0000    48.0000 </r>
       <r>    -4.7799     0.0000    48.0000 </r>
       <r>    -4.6581     0.0000    48.0000 </r>
       <r>    -4.5363     0.0000    48.0000 </r>
       <r>    -4.4144     0.0000    48.0000 </r>
       <r>    -4.2926     0.0000    48.0000 </r>
       <r>    -4.1708     0.0000    48.0000 </r>
       <r>    -4.0490     0.0000    48.0000 </r>
       <r>    -3.9272     0.0000    48.0000 </r>
       <r>    -3.8054     0.0000    48.0000 </r>
       <r>    -3.6835     0.0000    48.0000 </r>
       <r>    -3.5617     0.0000    48.0000 </r>
       <r>    -3.4399     0.0000    48.0000 </r>
       <r>    -3.3181     0.0000    48.0000 </r>
       <r>    -3.1963     0.0000    48.0000 </r>
       <r>    -3.0745     0.0000    48.0000 </r>
       <r>    -2.9526     0.0000    48.0000 </r>
       <r>    -2.8308     0.0000    48.0000 </r>
       <r>    -2.7090     0.0000    48.0000 </r>
       <r>    -2.5872     0.1288    48.0157 </r>
       <r>    -2.4654     0.4564    48.0741 </r>
       <r>    -2.3436     1.2934    48.3057 </r>
       <r>    -2.2217     0.6963    48.4182 </r>
       <r>    -2.0999     2.2291    48.7160 </r>
       <r>    -1.9781     1.8664    49.0977 </r>
       <r>    -1.8563     1.2223    49.4822 </r>
       <r>    -1.7345     2.6243    49.9493 </r>
       <r>    -1.6127     2.5754    50.4434 </r>
       <r>    -1.4908     1.8487    50.8919 </r>
       <r>    -1.3690     2.5171    51.3714 </r>
       <r>    -1.2472     0.6088    51.7131 </r>
       <r>    -1.1254     3.2659    52.2960 </r>
       <r>    -1.0036     3.0216    52.8218 </r>
       <r>    -0.8818     1.5388    53.2523 </r>
       <r>    -0.7599     3.2586    54.0729 </r>
       <r>    -0.6381     2.2606    54.5624 </r>
       <r>    -0.5163     1.6358    54.8011 </r>
       <r>    -0.3945     1.6502    55.0807 </r>
       <r>    -0.2727     1.3144    55.2805 </r>
       <r>    -0.1508     1.1718    55.4668 </r>
       <r>    -0.0290     0.3040    55.5370 </r>
       <r>     0.0928     0.4717    55.5945 </r>
       <r>     0.2146     0.0000    55.6574 </r>
       <r>     0.3364     1.2162    55.8056 </r>
       <r>     0.4582     0.6983    55.8906 </r>
       <r>     0.5801     0.3040    55.9907 </r>
       <r>     0.7019     0.0021    56.0280 </r>
       <r>     0.8237     0.9166    56.2691 </r>
       <r>     0.9455     0.5406    56.4547 </r>
       <r>     1.0673     1.0159    56.6515 </r>
       <r>     1.1891     2.7229    57.1187 </r>
       <r>     1.3110     2.1466    57.4930 </r>
       <r>     1.4328     4.2395    58.0998 </r>
       <r>     1.5546     2.2459    58.4865 </r>
       <r>     1.6764     1.8124    58.8782 </r>
       <r>     1.7982     2.6001    59.3075 </r>
       <r>     1.9200     3.3752    59.9389 </r>
       <r>     2.0419     2.6137    60.3832 </r>
       <r>     2.1637     3.6865    60.9769 </r>
       <r>     2.2855     4.6717    61.7635 </r>
       <r>     2.4073     3.7547    62.5037 </r>
       <r>     2.5291     2.3272    62.9872 </r>
       <r>     2.6509     4.6424    63.7322 </r>
       <r>     2.7728     1.4515    64.0657 </r>
       <r>     2.8946     4.2272    64.7187 </r>
       <r>     3.0164     4.5673    65.5379 </r>
       <r>     3.1382     3.0577    66.0762 </r>
       <r>     3.2600     2.8999    66.6681 </r>
       <r>     3.3818     3.5319    67.4117 </r>
       <r>     3.5037     5.7269    68.4476 </r>
       <r>     3.6255     4.0145    68.9798 </r>
       <r>     3.7473     4.3105    69.8306 </r>
       <r>     3.8691     3.0978    70.4607 </r>
       <r>     3.9909     4.3656    71.3003 </r>
       <r>     4.1128     5.3440    72.2621 </r>
       <r>     4.2346     2.6664    72.9174 </r>
       <r>     4.3564     4.0507    73.5397 </r>
       <r>     4.4782     2.8979    74.2141 </r>
       <r>     4.6000     2.0406    74.8319 </r>
       <r>     4.7218     1.9809    75.2413 </r>
       <r>     4.8437     4.6776    76.1994 </r>
       <r>     4.9655     2.2260    76.5489 </r>
       <r>     5.0873     3.9741    77.2804 </r>
       <r>     5.2091     4.4213    78.0201 </r>
       <r>     5.3309     5.4758    79.0096 </r>
       <r>     5.4527     4.1265    79.6508 </r>
       <r>     5.5746     0.6273    79.7616 </r>
       <r>     5.6964     0.6216    79.8905 </r>
       <r>     5.8182     0.2006    79.9504 </r>
       <r>     5.9400     0.1520    80.0000 </r>
       <r>     6.0618     0.0000    80.0000 </r>
       <r>     6.1836     0.0000    80.0000 </r>
       <r>     6.3055     0.0086    80.0011 </r>
       <r>     6.4273     0.3055    80.0835 </r>
       <r>     6.5491     0.6076    80.1759 </r>
       <r>     6.6709     1.0825    80.3078 </r>
       <r>     6.7927     1.2990    80.4823 </r>
       <r>     6.9145     1.3975    80.7165 </r>
       <r>     7.0364     0.5335    80.8520 </r>
       <r>     7.1582     3.5008    81.4357 </r>
       <r>     7.2800     2.8308    81.9467 </r>
       <r>     7.4018     2.7135    82.5620 </r>
       <r>     7.5236     1.4877    82.9497 </r>
       <r>     7.6454     3.6545    83.6211 </r>
       <r>     7.7673     1.4835    84.0789 </r>
       <r>     7.8891     4.0521    84.8732 </r>
       <r>     8.0109     1.1262    85.2761 </r>
       <r>     8.1327     0.4600    85.6949 </r>
       <r>     8.2545     5.0116    86.3420 </r>
       <r>     8.3763     2.7946    86.8497 </r>
       <r>     8.4982     4.5365    87.5063 </r>
       <r>     8.6200     2.9954    88.1519 </r>
       <r>     8.7418     2.7733    88.6619 </r>
       <r>     8.8636     3.4729    89.5156 </r>
       <r>     8.9854     6.2633    90.5315 </r>
       <r>     9.1073     5.2577    91.4553 </r>
       <r>     9.2291     3.8680    92.0267 </r>
       <r>     9.3509     5.1065    92.7239 </r>
       <r>     9.4727     3.4798    93.3313 </r>
       <r>     9.5945     1.2027    93.6650 </r>
       <r>     9.7163     2.7363    94.1111 </r>
       <r>     9.8382     1.8158    94.4990 </r>
       <r>     9.9600     5.2310    95.2298 </r>
       <r>    10.0818     3.6732    95.8734 </r>
       <r>    10.2036     2.6711    96.2976 </r>
       <r>    10.3254     4.4214    97.0479 </r>
       <r>    10.4472     4.1104    97.7137 </r>
       <r>    10.5691     2.8315    98.4190 </r>
       <r>    10.6909     4.3843    99.2100 </r>
       <r>    10.8127     5.2073    99.9769 </r>
       <r>    10.9345     3.2891   100.6784 </r>
       <r>    11.0563     4.9770   101.5137 </r>
       <r>    11.1781     1.8282   101.8894 </r>
       <r>    11.3000     1.9574   102.2199 </r>
       <r>    11.4218     2.8040   102.6934 </r>
       <r>    11.5436     2.7720   103.2543 </r>
       <r>    11.6654     1.8660   103.6625 </r>
       <r>    11.7872     2.2755   104.1383 </r>
       <r>    11.9090     2.3331   104.6175 </r>
       <r>    12.0309     2.8790   105.0914 </r>
       <r>    12.1527     4.4660   105.6829 </r>
       <r>    12.2745     4.9908   106.4876 </r>
       <r>    12.3963     1.9823   106.9174 </r>
       <r>    12.5181     2.6205   107.3655 </r>
       <r>    12.6399     2.2267   107.7064 </r>
       <r>    12.7618     3.5517   108.4049 </r>
       <r>    12.8836     2.2998   108.8450 </r>
       <r>    13.0054     3.4506   109.5222 </r>
       <r>    13.1272     2.3949   109.8751 </r>
       <r>    13.2490     4.2066   110.5958 </r>
       <r>    13.3709     2.2288   110.9845 </r>
       <r>    13.4927     1.8558   111.5131 </r>
       <r>    13.6145     2.5470   111.9862 </r>
       <r>    13.7363     1.0644   112.2408 </r>
       <r>    13.8581     2.1532   112.6697 </r>
       <r>    13.9799     4.2861   113.5869 </r>
       <r>    14.1018     1.5846   114.0819 </r>
       <r>    14.2236     4.1996   114.7523 </r>
       <r>    14.3454     3.4094   115.2487 </r>
       <r>    14.4672     1.9669   115.7396 </r>
       <r>    14.5890     2.6713   116.1587 </r>
       <r>    14.7108     4.6844   116.8206 </r>
       <r>    14.8327     1.6851   117.2608 </r>
       <r>    14.9545     4.2544   117.9997 </r>
       <r>    15.0763     1.0645   118.2408 </r>
       <r>    15.1981     3.7176   118.8418 </r>
       <r>    15.3199     5.0669   119.6543 </r>
       <r>    15.4417     5.7164   120.5112 </r>
       <r>    15.5636     4.5907   121.2444 </r>
       <r>    15.6854     1.4739   121.6981 </r>
       <r>    15.8072     4.8037   122.4741 </r>
       <r>    15.9290     3.2456   122.9324 </r>
       <r>    16.0508     5.6843   123.8591 </r>
       <r>    16.1726     2.6946   124.2727 </r>
       <r>    16.2945     1.9948   124.6319 </r>
       <r>    16.4163     4.3922   125.2202 </r>
       <r>    16.5381     3.3112   125.7552 </r>
       <r>    16.6599     2.2473   126.2738 </r>
       <r>    16.7817     1.5333   126.6498 </r>
       <r>    16.9035     0.9065   126.9252 </r>
       <r>    17.0254     2.1287   127.3334 </r>
       <r>    17.1472     0.9443   127.4854 </r>
       <r>    17.2690     0.9121   127.8519 </r>
       <r>    17.3908     0.0000   127.8889 </r>
       <r>    17.5126     0.0000   127.8889 </r>
       <r>    17.6344     0.4382   127.9423 </r>
       <r>    17.7563     0.0000   127.9630 </r>
       <r>    17.8781     0.1520   128.0000 </r>
       <r>    17.9999     0.0000   128.0000 </r>
       <r>    18.1217     0.0000   128.0000 </r>
       <r>    18.2435     0.0000   128.0000 </r>
       <r>    18.3654     0.0000   128.0000 </r>
       <r>    18.4872     0.0000   128.0000 </r>
       <r>    18.6090     0.0000   128.0000 </r>
       <r>    18.7308     0.0000   128.0000 </r>
       <r>    18.8526     0.0000   128.0000 </r>
       <r>    18.9744     0.0000   128.0000 </r>
       <r>    19.0963     0.0000   128.0000 </r>
       <r>    19.2181     0.0000   128.0000 </r>
       <r>    19.3399     0.0000   128.0000 </r>
       <r>    19.4617     0.0000   128.0000 </r>
      </set>
     </set>
    </array>
   </total>
  </dos>
 </calculation>
 <structure name="finalpos" >
  <crystal>
   <varray name="basis" >
    <v>       4.34539863       0.00000000       0.00000000 </v>
    <v>       0.00000000       4.11936655       0.00000000 </v>
    <v>       0.00000000       0.00000000      11.35478920 </v>
   </varray>
   <i name="volume">    203.25401695 </i>
   <varray name="rec_basis" >
    <v>       0.23012848       0.00000000       0.00000000 </v>
    <v>       0.00000000       0.24275577       0.00000000 </v>
    <v>       0.00000000       0.00000000       0.08806857 </v>
   </varray>
  </crystal>
  <varray name="positions" >
   <v>       0.09903631       0.25000000       0.11539711 </v>
   <v>       0.40096369       0.25000000       0.61539711 </v>
   <v>       0.59903631       0.75000000       0.38460289 </v>
   <v>       0.90096369       0.75000000       0.88460289 </v>
   <v>       0.02605052       0.25000000       0.35587398 </v>
   <v>       0.47394948       0.25000000       0.85675466 </v>
   <v>       0.52605052       0.75000000       0.14324534 </v>
   <v>       0.97394948       0.75000000       0.64324534 </v>
  </varray>
 </structure>
</modeling>
