Benzonitrile                            
   1.00000000000000     
    19.3177300000000010    0.0000000000000000    0.0000000000000000
     0.0000000000000000   21.4765799999999984    0.0000000000000000
     0.0000000000000000    0.0000000000000000   15.0000000000000000
   C    H    N 
     7     5     1
Direct
  0.4368318176328906  0.4972543984853676  0.5000000000000000
  0.4370050787989054  0.4323880604544323  0.5000000000000000
  0.5000251480217336  0.5298494541778002  0.5000000000000000
  0.5630047914915642  0.4969214997009096  0.5000000000000000
  0.5624083245651156  0.4320571716009918  0.5000000000000000
  0.4996007455053711  0.3997251064256894  0.5000000000000000
  0.5002415743894655  0.5963801265908338  0.5000000000000000
  0.3882909811385876  0.5230973381059009  0.5000000000000000
  0.6117136534449398  0.5225074093261965  0.5000000000000000
  0.6112451802409261  0.4066195070609427  0.5000000000000000
  0.3880029660004190  0.4072087752614402  0.5000000000000000
  0.4994351198778247  0.3489496843024611  0.5000000000000000
  0.5004177538051081  0.6507976904008460  0.5000000000000000
 
  0.00000000E+00  0.00000000E+00  0.00000000E+00
  0.00000000E+00  0.00000000E+00  0.00000000E+00
  0.00000000E+00  0.00000000E+00  0.00000000E+00
  0.00000000E+00  0.00000000E+00  0.00000000E+00
  0.00000000E+00  0.00000000E+00  0.00000000E+00
  0.00000000E+00  0.00000000E+00  0.00000000E+00
  0.00000000E+00  0.00000000E+00  0.00000000E+00
  0.00000000E+00  0.00000000E+00  0.00000000E+00
  0.00000000E+00  0.00000000E+00  0.00000000E+00
  0.00000000E+00  0.00000000E+00  0.00000000E+00
  0.00000000E+00  0.00000000E+00  0.00000000E+00
  0.00000000E+00  0.00000000E+00  0.00000000E+00
  0.00000000E+00  0.00000000E+00  0.00000000E+00
