Benzaldehyde                            
   1.00000000000000     
    19.3680200000000013    0.0000000000000000    0.0000000000000000
     0.0000000000000000   21.0317599999999985    0.0000000000000000
     0.0000000000000000    0.0000000000000000   15.0000000000000000
   C    H    O 
     7     6     1
Direct
  0.4373342175983059  0.5083491457236069  0.5000000000000000
  0.4362293508160723  0.4422274310733643  0.5000000000000000
  0.5007906281898675  0.5407213476564661  0.5000000000000000
  0.5627975300016218  0.5062425167766975  0.5000000000000000
  0.5616143721567083  0.4399300393861001  0.5000000000000000
  0.4983229322611013  0.4080042242033827  0.5000000000000000
  0.5029250485913890  0.6109948584685475  0.5000000000000000
  0.5561877824811916  0.6317565371027659  0.5000000000000000
  0.3899014204058725  0.5363080792439188  0.5000000000000000
  0.3871003582169715  0.4168905175580620  0.5000000000000000
  0.6118899023165167  0.5318502763104287  0.5000000000000000
  0.4972420174173321  0.3561471692507071  0.5000000000000000
  0.6097552922453002  0.4130538911707291  0.5000000000000000
  0.4521031743628517  0.6456642833858034  0.5000000000000000
 
  0.00000000E+00  0.00000000E+00  0.00000000E+00
  0.00000000E+00  0.00000000E+00  0.00000000E+00
  0.00000000E+00  0.00000000E+00  0.00000000E+00
  0.00000000E+00  0.00000000E+00  0.00000000E+00
  0.00000000E+00  0.00000000E+00  0.00000000E+00
  0.00000000E+00  0.00000000E+00  0.00000000E+00
  0.00000000E+00  0.00000000E+00  0.00000000E+00
  0.00000000E+00  0.00000000E+00  0.00000000E+00
  0.00000000E+00  0.00000000E+00  0.00000000E+00
  0.00000000E+00  0.00000000E+00  0.00000000E+00
  0.00000000E+00  0.00000000E+00  0.00000000E+00
  0.00000000E+00  0.00000000E+00  0.00000000E+00
  0.00000000E+00  0.00000000E+00  0.00000000E+00
  0.00000000E+00  0.00000000E+00  0.00000000E+00
