Phenol                                  
   1.00000000000000     
    19.4696899999999999    0.0000000000000000    0.0000000000000000
     0.0000000000000000   20.6162300000000016    0.0000000000000000
     0.0000000000000000    0.0000000000000000   15.0000000000000000
   C    H    O 
     6     6     1
Direct
  0.4404581354673818  0.5214620083736656  0.5000000000000000
  0.4354717447433993  0.4538968777139598  0.5000000000000000
  0.5051905130854080  0.5510277623994554  0.5000000000000000
  0.5647519468077987  0.5130042010256566  0.5000000000000000
  0.5590454349798215  0.4455875525417947  0.5000000000000000
  0.4946242755581268  0.4155807876705650  0.5000000000000000
  0.3941277131330173  0.5513975988406110  0.5000000000000000
  0.3848337556080804  0.4312690155494855  0.5000000000000000
  0.6146821632292908  0.5369031757314335  0.5000000000000000
  0.4906094376480585  0.3628527161043164  0.5000000000000000
  0.6056095790797348  0.4161633767702304  0.5000000000000000
  0.4683094240257947  0.6377005289812103  0.5000000000000000
  0.5133770958574082  0.6172650674160810  0.5000000000000000
 
  0.00000000E+00  0.00000000E+00  0.00000000E+00
  0.00000000E+00  0.00000000E+00  0.00000000E+00
  0.00000000E+00  0.00000000E+00  0.00000000E+00
  0.00000000E+00  0.00000000E+00  0.00000000E+00
  0.00000000E+00  0.00000000E+00  0.00000000E+00
  0.00000000E+00  0.00000000E+00  0.00000000E+00
  0.00000000E+00  0.00000000E+00  0.00000000E+00
  0.00000000E+00  0.00000000E+00  0.00000000E+00
  0.00000000E+00  0.00000000E+00  0.00000000E+00
  0.00000000E+00  0.00000000E+00  0.00000000E+00
  0.00000000E+00  0.00000000E+00  0.00000000E+00
  0.00000000E+00  0.00000000E+00  0.00000000E+00
  0.00000000E+00  0.00000000E+00  0.00000000E+00
