Aniline                                 
   1.00000000000000     
    19.5402500000000003    0.0000000000000000    0.0000000000000000
     0.0000000000000000   20.8520800000000008    0.0000000000000000
     0.0000000000000000    0.0000000000000000   15.0000000000000000
   C    H    N 
     6     7     1
Direct
  0.4346294112843200  0.5052138137253551  0.4995474543760942
  0.4426780277976768  0.4388032785326710  0.4999799788753890
  0.5078486351950928  0.4111745620686999  0.5001043671062076
  0.5651158447841456  0.4513395148408928  0.4999828054813902
  0.5576697603015631  0.5178118390762899  0.4995501306921968
  0.4921471288267911  0.5458455239952911  0.4991013249365224
  0.3833553916012112  0.5260739677968354  0.4997931809111548
  0.3973112848439285  0.4083020116251044  0.5000877492574591
  0.5139059176360844  0.3592282714391398  0.5001997901405631
  0.6164401593713482  0.4307382902921745  0.5000902707707131
  0.6029279304760680  0.5485550971764148  0.4997935422275042
  0.4389181690298476  0.6296373076945800  0.4803005813045474
  0.5248183500852444  0.6384347034712186  0.4803469595519594
  0.4843977277157676  0.6122869613877195  0.5022467443905384
 
  0.00000000E+00  0.00000000E+00  0.00000000E+00
  0.00000000E+00  0.00000000E+00  0.00000000E+00
  0.00000000E+00  0.00000000E+00  0.00000000E+00
  0.00000000E+00  0.00000000E+00  0.00000000E+00
  0.00000000E+00  0.00000000E+00  0.00000000E+00
  0.00000000E+00  0.00000000E+00  0.00000000E+00
  0.00000000E+00  0.00000000E+00  0.00000000E+00
  0.00000000E+00  0.00000000E+00  0.00000000E+00
  0.00000000E+00  0.00000000E+00  0.00000000E+00
  0.00000000E+00  0.00000000E+00  0.00000000E+00
  0.00000000E+00  0.00000000E+00  0.00000000E+00
  0.00000000E+00  0.00000000E+00  0.00000000E+00
  0.00000000E+00  0.00000000E+00  0.00000000E+00
  0.00000000E+00  0.00000000E+00  0.00000000E+00
