ALGO = Fast
EDIFF = 1e-8
EDIFFG = -1e-2
ENCUT = 800
IBRION = 1
ISIF = 2
ISMEAR = 0
IVDW = 11
LCHARG = .FALSE.
LREAL = .FALSE.
LWAVE = .FALSE.
NELM = 250
NPAR = 4
NSW = 100
POTIM = 0.25
PREC = Accurate
SIGMA = 0.01
SYSTEM = Benzene

