Pnma SnSe                               
   1.0000000000000000     
     4.3453986333062176    0.0000000000000000    0.0000000000000000
     0.0000000000000000    4.1193665469459448    0.0000000000000000
     0.0000000000000000    0.0000000000000000   11.3547892037763258
   Sn   Se
     4     4
Direct
  0.0990363058739803  0.2500000000000000  0.1153971117655056
  0.4009636941260197  0.2500000000000000  0.6153971117655057
  0.5990363058739802  0.7500000000000000  0.3846028882344945
  0.9009636941260198  0.7500000000000000  0.8846028882344943
  0.0260505210931173  0.2500000000000000  0.3567546612014816
  0.4739494789068827  0.2500000000000000  0.8567546612014815
  0.5260505210931172  0.7500000000000000  0.1432453387985255
  0.9739494789068828  0.7500000000000000  0.6432453387985185

  0.00000000E+00  0.00000000E+00  0.00000000E+00
  0.00000000E+00  0.00000000E+00  0.00000000E+00
  0.00000000E+00  0.00000000E+00  0.00000000E+00
  0.00000000E+00  0.00000000E+00  0.00000000E+00
  0.00000000E+00  0.00000000E+00  0.00000000E+00
  0.00000000E+00  0.00000000E+00  0.00000000E+00
  0.00000000E+00  0.00000000E+00  0.00000000E+00
  0.00000000E+00  0.00000000E+00  0.00000000E+00
