<?xml version="1.0" encoding="ISO-8859-1"?>
<modeling>
 <generator>
  <i name="program" type="string">vasp </i>
  <i name="version" type="string">6.2.0  </i>
  <i name="subversion" type="string">18Jan21 (build Mar  1 2021 20:13:55) complex                          parallel </i>
  <i name="platform" type="string">HPECrayEX_GCC </i>
  <i name="date" type="string">2026 03 07 </i>
  <i name="time" type="string">19:50:45 </i>
 </generator>
 <incar>
  <i type="string" name="SYSTEM">Pnma SnSe</i>
  <i type="string" name="PREC">Accurate</i>
  <i type="string" name="ALGO">Normal</i>
  <i type="logical" name="ADDGRID"> T  </i>
  <i type="int" name="NELM">   250</i>
  <i type="int" name="NELMIN">     5</i>
  <i name="EDIFF">      0.00000001</i>
  <i type="int" name="NSW">     0</i>
  <i type="int" name="ISIF">     2</i>
  <i name="ENCUT">    700.00000000</i>
  <i type="logical" name="LREAL"> F  </i>
  <i type="int" name="ISMEAR">     0</i>
  <i name="SIGMA">      0.01000000</i>
  <i type="logical" name="LWAVE"> F  </i>
  <i type="logical" name="LCHARG"> F  </i>
  <i type="logical" name="LASPH"> T  </i>
  <i type="string" name="GGA">PS</i>
  <i type="logical" name="LEPSILON"> T  </i>
  <i type="int" name="IVDW">    11</i>
 </incar>
 <primitive_cell>
  <structure name="primitive_cell" >
   <crystal>
    <varray name="basis" >
     <v>       4.34539863       0.00000000       0.00000000 </v>
     <v>       0.00000000       4.11936655       0.00000000 </v>
     <v>       0.00000000       0.00000000      11.35478920 </v>
    </varray>
    <i name="volume">    203.25401695 </i>
    <varray name="rec_basis" >
     <v>       0.23012848       0.00000000       0.00000000 </v>
     <v>       0.00000000       0.24275577       0.00000000 </v>
     <v>       0.00000000       0.00000000       0.08806857 </v>
    </varray>
   </crystal>
   <varray name="positions" >
    <v>       0.09914209       0.25000000       0.11561694 </v>
    <v>       0.40085791       0.25000000       0.61561694 </v>
    <v>       0.59914209       0.75000000       0.38438306 </v>
    <v>       0.90085791       0.75000000       0.88438306 </v>
    <v>       0.02604419       0.25000000       0.35634181 </v>
    <v>       0.47395581       0.25000000       0.85634181 </v>
    <v>       0.52604419       0.75000000       0.14365819 </v>
    <v>       0.97395581       0.75000000       0.64365819 </v>
   </varray>
  </structure>
  <varray name="primitive_index" >
   <v type="int" >        1 </v>
   <v type="int" >        2 </v>
   <v type="int" >        3 </v>
   <v type="int" >        4 </v>
   <v type="int" >        5 </v>
   <v type="int" >        6 </v>
   <v type="int" >        7 </v>
   <v type="int" >        8 </v>
  </varray>
 </primitive_cell>
 <kpoints>
  <generation param="Gamma">
   <v type="int" name="divisions">       8        9        3 </v>
   <v name="usershift">      0.00000000       0.00000000       0.00000000 </v>
   <v name="genvec1">      0.12500000       0.00000000       0.00000000 </v>
   <v name="genvec2">      0.00000000       0.11111111       0.00000000 </v>
   <v name="genvec3">      0.00000000       0.00000000       0.33333333 </v>
   <v name="shift">      0.00000000       0.00000000       0.00000000 </v>
  </generation>
  <varray name="kpointlist" >
   <v>       0.00000000       0.00000000       0.00000000 </v>
   <v>       0.12500000       0.00000000       0.00000000 </v>
   <v>       0.25000000       0.00000000       0.00000000 </v>
   <v>       0.37500000       0.00000000       0.00000000 </v>
   <v>       0.50000000       0.00000000       0.00000000 </v>
   <v>       0.00000000       0.11111111       0.00000000 </v>
   <v>       0.12500000       0.11111111       0.00000000 </v>
   <v>       0.25000000       0.11111111       0.00000000 </v>
   <v>       0.37500000       0.11111111       0.00000000 </v>
   <v>       0.50000000       0.11111111       0.00000000 </v>
   <v>       0.00000000       0.22222222       0.00000000 </v>
   <v>       0.12500000       0.22222222       0.00000000 </v>
   <v>       0.25000000       0.22222222       0.00000000 </v>
   <v>       0.37500000       0.22222222       0.00000000 </v>
   <v>       0.50000000       0.22222222       0.00000000 </v>
   <v>       0.00000000       0.33333333       0.00000000 </v>
   <v>       0.12500000       0.33333333       0.00000000 </v>
   <v>       0.25000000       0.33333333       0.00000000 </v>
   <v>       0.37500000       0.33333333       0.00000000 </v>
   <v>       0.50000000       0.33333333       0.00000000 </v>
   <v>       0.00000000       0.44444444       0.00000000 </v>
   <v>       0.12500000       0.44444444       0.00000000 </v>
   <v>       0.25000000       0.44444444       0.00000000 </v>
   <v>       0.37500000       0.44444444       0.00000000 </v>
   <v>       0.50000000       0.44444444       0.00000000 </v>
   <v>       0.00000000       0.00000000       0.33333333 </v>
   <v>       0.12500000       0.00000000       0.33333333 </v>
   <v>       0.25000000       0.00000000       0.33333333 </v>
   <v>       0.37500000       0.00000000       0.33333333 </v>
   <v>       0.50000000       0.00000000       0.33333333 </v>
   <v>       0.00000000       0.11111111       0.33333333 </v>
   <v>       0.12500000       0.11111111       0.33333333 </v>
   <v>       0.25000000       0.11111111       0.33333333 </v>
   <v>       0.37500000       0.11111111       0.33333333 </v>
   <v>       0.50000000       0.11111111       0.33333333 </v>
   <v>       0.00000000       0.22222222       0.33333333 </v>
   <v>       0.12500000       0.22222222       0.33333333 </v>
   <v>       0.25000000       0.22222222       0.33333333 </v>
   <v>       0.37500000       0.22222222       0.33333333 </v>
   <v>       0.50000000       0.22222222       0.33333333 </v>
   <v>       0.00000000       0.33333333       0.33333333 </v>
   <v>       0.12500000       0.33333333       0.33333333 </v>
   <v>       0.25000000       0.33333333       0.33333333 </v>
   <v>       0.37500000       0.33333333       0.33333333 </v>
   <v>       0.50000000       0.33333333       0.33333333 </v>
   <v>       0.00000000       0.44444444       0.33333333 </v>
   <v>       0.12500000       0.44444444       0.33333333 </v>
   <v>       0.25000000       0.44444444       0.33333333 </v>
   <v>       0.37500000       0.44444444       0.33333333 </v>
   <v>       0.50000000       0.44444444       0.33333333 </v>
  </varray>
  <varray name="weights" >
   <v>       0.00462963 </v>
   <v>       0.00925926 </v>
   <v>       0.00925926 </v>
   <v>       0.00925926 </v>
   <v>       0.00462963 </v>
   <v>       0.00925926 </v>
   <v>       0.01851852 </v>
   <v>       0.01851852 </v>
   <v>       0.01851852 </v>
   <v>       0.00925926 </v>
   <v>       0.00925926 </v>
   <v>       0.01851852 </v>
   <v>       0.01851852 </v>
   <v>       0.01851852 </v>
   <v>       0.00925926 </v>
   <v>       0.00925926 </v>
   <v>       0.01851852 </v>
   <v>       0.01851852 </v>
   <v>       0.01851852 </v>
   <v>       0.00925926 </v>
   <v>       0.00925926 </v>
   <v>       0.01851852 </v>
   <v>       0.01851852 </v>
   <v>       0.01851852 </v>
   <v>       0.00925926 </v>
   <v>       0.00925926 </v>
   <v>       0.01851852 </v>
   <v>       0.01851852 </v>
   <v>       0.01851852 </v>
   <v>       0.00925926 </v>
   <v>       0.01851852 </v>
   <v>       0.03703704 </v>
   <v>       0.03703704 </v>
   <v>       0.03703704 </v>
   <v>       0.01851852 </v>
   <v>       0.01851852 </v>
   <v>       0.03703704 </v>
   <v>       0.03703704 </v>
   <v>       0.03703704 </v>
   <v>       0.01851852 </v>
   <v>       0.01851852 </v>
   <v>       0.03703704 </v>
   <v>       0.03703704 </v>
   <v>       0.03703704 </v>
   <v>       0.01851852 </v>
   <v>       0.01851852 </v>
   <v>       0.03703704 </v>
   <v>       0.03703704 </v>
   <v>       0.03703704 </v>
   <v>       0.01851852 </v>
  </varray>
 </kpoints>
 <parameters>
  <separator name="general" >
   <i type="string" name="SYSTEM">Pnma SnSe</i>
   <i type="logical" name="LCOMPAT"> F  </i>
  </separator>
  <separator name="electronic" >
   <i type="string" name="PREC">accura</i>
   <i name="ENMAX">    700.00000000</i>
   <i name="ENAUG">    446.84200000</i>
   <i name="EDIFF">      0.00000001</i>
   <i type="int" name="IALGO">    38</i>
   <i type="int" name="IWAVPR">    10</i>
   <i type="int" name="NBANDS">    64</i>
   <i type="int" name="NBANDSLOW">    -1</i>
   <i type="int" name="NBANDSHIGH">    -1</i>
   <i name="NELECT">     80.00000000</i>
   <i type="int" name="TURBO">     0</i>
   <i type="int" name="IRESTART">     0</i>
   <i type="int" name="NREBOOT">     0</i>
   <i type="int" name="NMIN">     0</i>
   <i name="EREF">      0.00000000</i>
   <separator name="electronic smearing" >
    <i type="int" name="ISMEAR">     0</i>
    <i name="SIGMA">      0.01000000</i>
    <i name="KSPACING">      0.50000000</i>
    <i type="logical" name="KGAMMA"> T  </i>
    <i type="logical" name="KBLOWUP"> T  </i>
   </separator>
   <separator name="electronic projectors" >
    <i type="logical" name="LREAL"> F  </i>
    <v name="ROPT">      0.00000000      0.00000000</v>
    <i type="int" name="LMAXPAW">  -100</i>
    <i type="int" name="LMAXMIX">     2</i>
    <i type="logical" name="NLSPLINE"> F  </i>
   </separator>
   <separator name="electronic startup" >
    <i type="int" name="ISTART">     0</i>
    <i type="int" name="ICHARG">     2</i>
    <i type="int" name="INIWAV">     1</i>
   </separator>
   <separator name="electronic spin" >
    <i type="int" name="ISPIN">     1</i>
    <i type="logical" name="LNONCOLLINEAR"> F  </i>
    <v name="MAGMOM">      1.00000000      1.00000000      1.00000000      1.00000000      1.00000000      1.00000000      1.00000000      1.00000000</v>
    <i name="NUPDOWN">     -1.00000000</i>
    <i type="logical" name="LSORBIT"> F  </i>
    <v name="SAXIS">      0.00000000      0.00000000      1.00000000</v>
    <i type="logical" name="LSPIRAL"> F  </i>
    <v name="QSPIRAL">      0.00000000      0.00000000      0.00000000</v>
    <i type="logical" name="LZEROZ"> F  </i>
   </separator>
   <separator name="electronic exchange-correlation" >
    <i type="logical" name="LASPH"> T  </i>
    <i type="logical" name="LMETAGGA"> F  </i>
   </separator>
   <separator name="electronic convergence" >
    <i type="int" name="NELM">   250</i>
    <i type="int" name="NELMDL">    -5</i>
    <i type="int" name="NELMIN">     5</i>
    <i name="ENINI">    700.00000000</i>
    <separator name="electronic convergence detail" >
     <i type="logical" name="LDIAG"> T  </i>
     <i type="logical" name="LSUBROT"> F  </i>
     <i name="WEIMIN">      0.00000000</i>
     <i name="EBREAK">      0.00000000</i>
     <i name="DEPER">      0.30000000</i>
     <i type="int" name="NRMM">     4</i>
     <i name="TIME">      0.40000000</i>
    </separator>
   </separator>
   <separator name="electronic mixer" >
    <i name="AMIX">      0.40000000</i>
    <i name="BMIX">      1.00000000</i>
    <i name="AMIN">      0.10000000</i>
    <i name="AMIX_MAG">      1.60000000</i>
    <i name="BMIX_MAG">      1.00000000</i>
    <separator name="electronic mixer details" >
     <i type="int" name="IMIX">     4</i>
     <i type="logical" name="MIXFIRST"> F  </i>
     <i type="int" name="MAXMIX">   -45</i>
     <i name="WC">    100.00000000</i>
     <i type="int" name="INIMIX">     1</i>
     <i type="int" name="MIXPRE">     1</i>
     <i type="int" name="MREMOVE">     5</i>
    </separator>
   </separator>
   <separator name="electronic dipolcorrection" >
    <i type="logical" name="LDIPOL"> F  </i>
    <i type="logical" name="LMONO"> F  </i>
    <i type="int" name="IDIPOL">     0</i>
    <i name="EPSILON">      1.00000000</i>
    <v name="DIPOL">   -100.00000000   -100.00000000   -100.00000000</v>
    <i name="EFIELD">      0.00000000</i>
   </separator>
  </separator>
  <separator name="grids" >
   <i type="int" name="NGX">    40</i>
   <i type="int" name="NGY">    36</i>
   <i type="int" name="NGZ">    98</i>
   <i type="int" name="NGXF">    80</i>
   <i type="int" name="NGYF">    72</i>
   <i type="int" name="NGZF">   196</i>
   <i type="logical" name="ADDGRID"> T  </i>
  </separator>
  <separator name="ionic" >
   <i type="int" name="NSW">     0</i>
   <i type="int" name="IBRION">    -1</i>
   <i type="int" name="MDALGO">     0</i>
   <i type="int" name="ISIF">     2</i>
   <i name="PSTRESS">      0.00000000</i>
   <i name="EDIFFG">      0.00000010</i>
   <i type="int" name="NFREE">     0</i>
   <i name="POTIM">      0.50000000</i>
   <i name="SMASS">     -3.00000000</i>
   <i name="SCALEE">      1.00000000</i>
  </separator>
  <separator name="ionic md" >
   <i name="TEBEG">      0.00010000</i>
   <i name="TEEND">      0.00010000</i>
   <i type="int" name="NBLOCK">     1</i>
   <i type="int" name="KBLOCK">     1</i>
   <i type="int" name="NPACO">   256</i>
   <i name="APACO">     16.00000000</i>
  </separator>
  <separator name="symmetry" >
   <i type="int" name="ISYM">     2</i>
   <i name="SYMPREC">      0.00001000</i>
  </separator>
  <separator name="dos" >
   <i type="int" name="LORBIT">     0</i>
   <v name="RWIGS">     -1.00000000     -1.00000000</v>
   <i type="int" name="NEDOS">   301</i>
   <i name="EMIN">     10.00000000</i>
   <i name="EMAX">    -10.00000000</i>
   <i name="EFERMI">      0.00000000</i>
  </separator>
  <separator name="writing" >
   <i type="int" name="NWRITE">     2</i>
   <i type="logical" name="LWAVE"> F  </i>
   <i type="logical" name="LDOWNSAMPLE"> F  </i>
   <i type="logical" name="LCHARG"> F  </i>
   <i type="logical" name="LPARD"> F  </i>
   <i type="logical" name="LVTOT"> F  </i>
   <i type="logical" name="LVHAR"> F  </i>
   <i type="logical" name="LELF"> F  </i>
   <i type="logical" name="LOPTICS"> F  </i>
   <v name="STM">      0.00000000      0.00000000      0.00000000      0.00000000      0.00000000      0.00000000      0.00000000</v>
  </separator>
  <separator name="performance" >
   <i type="int" name="NPAR">    32</i>
   <i type="int" name="NSIM">     4</i>
   <i type="int" name="NBLK">    -1</i>
   <i type="logical" name="LPLANE"> T  </i>
   <i type="logical" name="LSCALAPACK"> T  </i>
   <i type="logical" name="LSCAAWARE"> F  </i>
   <i type="logical" name="LSCALU"> F  </i>
   <i type="logical" name="LASYNC"> F  </i>
   <i type="logical" name="LORBITALREAL"> F  </i>
  </separator>
  <separator name="miscellaneous" >
   <i type="int" name="IDIOT">     3</i>
   <i type="int" name="PHON_NSTRUCT">    -1</i>
   <i type="logical" name="LMUSIC"> F  </i>
   <v name="POMASS">    118.71000000     78.96000000</v>
   <v name="DARWINR">      0.00000000      0.00000000</v>
   <v name="DARWINV">      1.00000000      1.00000000</v>
   <i type="logical" name="LCORR"> T  </i>
  </separator>
  <i type="logical" name="GGA_COMPAT"> T  </i>
  <i type="logical" name="LBERRY"> F  </i>
  <i type="int" name="ICORELEVEL">     0</i>
  <i type="logical" name="LDAU"> F  </i>
  <i type="int" name="I_CONSTRAINED_M">     0</i>
  <separator name="electronic exchange-correlation" >
   <i type="string" name="GGA">PS</i>
   <i type="int" name="VOSKOWN">     0</i>
   <i type="logical" name="LHFCALC"> F  </i>
   <i type="string" name="PRECFOCK"></i>
   <i type="logical" name="LSYMGRAD"> F  </i>
   <i type="logical" name="LHFONE"> F  </i>
   <i type="logical" name="LRHFCALC"> F  </i>
   <i type="logical" name="LTHOMAS"> F  </i>
   <i type="logical" name="LMODELHF"> F  </i>
   <i type="logical" name="LFOCKACE"> F  </i>
   <i name="ENCUT4O">     -1.00000000</i>
   <i type="int" name="EXXOEP">     0</i>
   <i type="int" name="FOURORBIT">     0</i>
   <i name="AEXX">      0.00000000</i>
   <i name="HFALPHA">      0.00000000</i>
   <i name="MCALPHA">      0.00000000</i>
   <i name="ALDAX">      1.00000000</i>
   <i name="AGGAX">      1.00000000</i>
   <i name="ALDAC">      1.00000000</i>
   <i name="AGGAC">      1.00000000</i>
   <i type="int" name="NKREDX">     1</i>
   <i type="int" name="NKREDY">     1</i>
   <i type="int" name="NKREDZ">     1</i>
   <i type="logical" name="SHIFTRED"> F  </i>
   <i type="logical" name="ODDONLY"> F  </i>
   <i type="logical" name="EVENONLY"> F  </i>
   <i type="int" name="LMAXFOCK">     0</i>
   <i type="int" name="NMAXFOCKAE">     0</i>
   <i type="logical" name="LFOCKAEDFT"> F  </i>
   <i name="HFSCREEN">      0.00000000</i>
   <i name="HFSCREENC">      0.00000000</i>
   <i type="int" name="NBANDSGWLOW">     0</i>
  </separator>
  <separator name="vdW DFT" >
   <i type="logical" name="LUSE_VDW"> F  </i>
   <i name="Zab_VDW">     -0.84910000</i>
   <i name="PARAM1">      0.12340000</i>
   <i name="PARAM2">      1.00000000</i>
   <i name="PARAM3">      0.00000000</i>
  </separator>
  <separator name="model GW" >
   <i type="int" name="MODEL_GW">     0</i>
   <i name="MODEL_EPS0">     15.24405127</i>
   <i name="MODEL_ALPHA">      1.00000000</i>
  </separator>
  <separator name="linear response parameters" >
   <i type="logical" name="LEPSILON"> T  </i>
   <i type="logical" name="LRPA"> F  </i>
   <i type="logical" name="LNABLA"> F  </i>
   <i type="logical" name="LVEL"> F  </i>
   <i type="int" name="KINTER">     0</i>
   <i name="CSHIFT">      0.10000000</i>
   <i name="OMEGAMAX">     -1.00000000</i>
   <i name="DEG_THRESHOLD">      0.00200000</i>
   <i name="RTIME">     -0.10000000</i>
   <i name="WPLASMAI">      0.00000000</i>
   <v name="DFIELD">      0.00000000      0.00000000      0.00000000</v>
   <v name="WPLASMA">      0.00000000      0.00000000      0.00000000      0.00000000      0.00000000      0.00000000      0.00000000      0.00000000      0.00000000</v>
  </separator>
  <separator name="orbital magnetization" >
   <i type="logical" name="NUCIND"> F  </i>
   <v name="MAGPOS">      0.00000000      0.00000000      0.00000000</v>
   <i type="logical" name="LNICSALL"> T  </i>
   <i type="logical" name="ORBITALMAG"> F  </i>
   <i type="logical" name="LMAGBLOCH"> F  </i>
   <i type="logical" name="LCHIMAG"> F  </i>
   <i type="logical" name="LGAUGE"> T  </i>
   <i type="int" name="MAGATOM">     0</i>
   <v name="MAGDIPOL">      0.00000000      0.00000000      0.00000000</v>
   <v name="AVECCONST">      0.00000000      0.00000000      0.00000000</v>
  </separator>
  <separator name="response functions" >
   <i type="logical" name="LFINITE_TEMPERATURE"> F  </i>
   <i type="logical" name="LADDER"> F  </i>
   <i type="logical" name="LRPAFORCE"> F  </i>
   <i type="logical" name="LFXC"> F  </i>
   <i type="logical" name="LHARTREE"> T  </i>
   <i type="int" name="IBSE">     0</i>
   <v type="int" name="KPOINT">    -1     0     0     0</v>
   <i type="logical" name="LTCTC"> F  </i>
   <i type="logical" name="LTCTE"> F  </i>
   <i type="logical" name="LTETE"> F  </i>
   <i type="logical" name="LTRIPLET"> F  </i>
   <i type="logical" name="LFXCEPS"> F  </i>
   <i type="logical" name="LFXHEG"> F  </i>
   <i type="int" name="NATURALO">     2</i>
   <i type="logical" name="LHOLEGF"> F  </i>
   <i type="logical" name="L2ORDER"> F  </i>
   <i type="logical" name="LDMP1"> F  </i>
   <i type="logical" name="LMP2LT"> F  </i>
   <i type="logical" name="LSMP2LT"> F  </i>
   <i type="logical" name="LGWLF"> F  </i>
   <i name="ENCUTGW">     -2.00000000</i>
   <i name="ENCUTGWSOFT">     -2.00000000</i>
   <i name="ENCUTLF">     -1.00000000</i>
   <i type="logical" name="LESF_SPLINES"> F  </i>
   <i type="int" name="LMAXMP2">    -1</i>
   <i name="SCISSOR">      0.00000000</i>
   <i type="int" name="NOMEGA">     0</i>
   <i type="int" name="NOMEGAR">     0</i>
   <i type="int" name="NBANDSGW">    -1</i>
   <i type="int" name="NBANDSO">    -1</i>
   <i type="int" name="NBANDSV">    -1</i>
   <i type="int" name="NELM">   250</i>
   <i type="int" name="NELMHF">     1</i>
   <i type="int" name="DIM">     3</i>
   <i type="int" name="IESPILON">     4</i>
   <i type="int" name="ANTIRES">     0</i>
   <i name="OMEGAMAX">    -30.00000000</i>
   <i name="OMEGAMIN">    -30.00000000</i>
   <i name="OMEGATL">   -200.00000000</i>
   <i type="int" name="OMEGAGRID">     0</i>
   <i name="CSHIFT">     -0.10000000</i>
   <i type="logical" name="LSELFENERGY"> F  </i>
   <i type="logical" name="LSPECTRAL"> F  </i>
   <i type="logical" name="LSPECTRALGW"> F  </i>
   <i type="logical" name="LSINGLES"> F  </i>
   <i type="logical" name="LFERMIGW"> F  </i>
   <i type="logical" name="ODDONLYGW"> F  </i>
   <i type="logical" name="EVENONLYGW"> F  </i>
   <i type="int" name="NKREDLFX">     1</i>
   <i type="int" name="NKREDLFY">     1</i>
   <i type="int" name="NKREDLFZ">     1</i>
   <i type="int" name="MAXMEM">  2800</i>
   <i type="int" name="TELESCOPE">     0</i>
   <i type="int" name="NTAUPAR">    -1</i>
   <i type="int" name="NOMEGAPAR">    -1</i>
   <i name="DAMP_NEWTON">      0.80000001</i>
   <i name="LAMBDA">      1.00000000</i>
  </separator>
  <separator name="External order field" >
   <i name="OFIELD_KAPPA">      0.00000000</i>
   <v name="OFIELD_K">      0.00000000      0.00000000      0.00000000</v>
   <i name="OFIELD_Q6_NEAR">      0.00000000</i>
   <i name="OFIELD_Q6_FAR">      0.00000000</i>
   <i name="OFIELD_A">      0.00000000</i>
  </separator>
 </parameters>
 <atominfo>
  <atoms>       8 </atoms>
  <types>       2 </types>
  <array name="atoms" >
   <dimension dim="1">ion</dimension>
   <field type="string">element</field>
   <field type="int">atomtype</field>
   <set>
    <rc><c>Sn</c><c>   1</c></rc>
    <rc><c>Sn</c><c>   1</c></rc>
    <rc><c>Sn</c><c>   1</c></rc>
    <rc><c>Sn</c><c>   1</c></rc>
    <rc><c>Se</c><c>   2</c></rc>
    <rc><c>Se</c><c>   2</c></rc>
    <rc><c>Se</c><c>   2</c></rc>
    <rc><c>Se</c><c>   2</c></rc>
   </set>
  </array>
  <array name="atomtypes" >
   <dimension dim="1">type</dimension>
   <field type="int">atomspertype</field>
   <field type="string">element</field>
   <field>mass</field>
   <field>valence</field>
   <field type="string">pseudopotential</field>
   <set>
    <rc><c>   4</c><c>Sn</c><c>    118.71000000</c><c>     14.00000000</c><c>  PAW_PBE Sn_d 06Sep2000                </c></rc>
    <rc><c>   4</c><c>Se</c><c>     78.96000000</c><c>      6.00000000</c><c>  PAW_PBE Se 06Sep2000                  </c></rc>
   </set>
  </array>
 </atominfo>
 <structure name="initialpos" >
  <crystal>
   <varray name="basis" >
    <v>       4.34539863       0.00000000       0.00000000 </v>
    <v>       0.00000000       4.11936655       0.00000000 </v>
    <v>       0.00000000       0.00000000      11.35478920 </v>
   </varray>
   <i name="volume">    203.25401695 </i>
   <varray name="rec_basis" >
    <v>       0.23012848       0.00000000       0.00000000 </v>
    <v>       0.00000000       0.24275577       0.00000000 </v>
    <v>       0.00000000       0.00000000       0.08806857 </v>
   </varray>
  </crystal>
  <varray name="positions" >
   <v>       0.09914209       0.25000000       0.11561694 </v>
   <v>       0.40085791       0.25000000       0.61561694 </v>
   <v>       0.59914209       0.75000000       0.38438306 </v>
   <v>       0.90085791       0.75000000       0.88438306 </v>
   <v>       0.02604419       0.25000000       0.35634181 </v>
   <v>       0.47395581       0.25000000       0.85634181 </v>
   <v>       0.52604419       0.75000000       0.14365819 </v>
   <v>       0.97395581       0.75000000       0.64365819 </v>
  </varray>
 </structure>
 <calculation>
  <scstep>
   <time name="dav">    1.35    0.68</time>
   <time name="total">    1.65    0.94</time>
   <energy>
    <i name="alphaZ">    217.43841536 </i>
    <i name="ewald">  -6082.22798446 </i>
    <i name="hartreedc">  -2322.47643214 </i>
    <i name="XCdc">    230.12326554 </i>
    <i name="pawpsdc">   7112.06264409 </i>
    <i name="pawaedc">  -7207.42447429 </i>
    <i name="eentropy">     -0.00014739 </i>
    <i name="bandstr">     37.31991093 </i>
    <i name="atom">   8598.20158228 </i>
    <i name="e_fr_energy">    583.01677991 </i>
    <i name="e_wo_entrp">    583.01692730 </i>
    <i name="e_0_energy">    583.01685360 </i>
   </energy>
  </scstep>
  <scstep>
   <time name="dav">    1.50    0.75</time>
   <time name="total">    1.50    0.75</time>
   <energy>
    <i name="e_fr_energy">     16.35069640 </i>
    <i name="e_wo_entrp">     16.35083835 </i>
    <i name="e_0_energy">     16.35076737 </i>
   </energy>
  </scstep>
  <scstep>
   <time name="dav">    2.00    1.00</time>
   <time name="total">    2.00    1.00</time>
   <energy>
    <i name="e_fr_energy">    -35.44839832 </i>
    <i name="e_wo_entrp">    -35.44839832 </i>
    <i name="e_0_energy">    -35.44839832 </i>
   </energy>
  </scstep>
  <scstep>
   <time name="dav">    1.80    0.90</time>
   <time name="total">    1.80    0.90</time>
   <energy>
    <i name="e_fr_energy">    -36.55398647 </i>
    <i name="e_wo_entrp">    -36.55398647 </i>
    <i name="e_0_energy">    -36.55398647 </i>
   </energy>
  </scstep>
  <scstep>
   <time name="dav">    2.19    1.10</time>
   <time name="total">    2.46    1.25</time>
   <energy>
    <i name="e_fr_energy">    -36.58178168 </i>
    <i name="e_wo_entrp">    -36.58178168 </i>
    <i name="e_0_energy">    -36.58178168 </i>
   </energy>
  </scstep>
  <scstep>
   <time name="dav">    2.47    1.24</time>
   <time name="total">    2.94    1.60</time>
   <energy>
    <i name="e_fr_energy">    -35.95342671 </i>
    <i name="e_wo_entrp">    -35.95342671 </i>
    <i name="e_0_energy">    -35.95342671 </i>
   </energy>
  </scstep>
  <scstep>
   <time name="dav">    2.10    1.05</time>
   <time name="total">    2.56    1.41</time>
   <energy>
    <i name="e_fr_energy">    -35.91834827 </i>
    <i name="e_wo_entrp">    -35.91834827 </i>
    <i name="e_0_energy">    -35.91834827 </i>
   </energy>
  </scstep>
  <scstep>
   <time name="dav">    1.91    0.96</time>
   <time name="total">    2.38    1.32</time>
   <energy>
    <i name="e_fr_energy">    -35.91330744 </i>
    <i name="e_wo_entrp">    -35.91330744 </i>
    <i name="e_0_energy">    -35.91330744 </i>
   </energy>
  </scstep>
  <scstep>
   <time name="dav">    2.08    1.04</time>
   <time name="total">    2.55    1.40</time>
   <energy>
    <i name="e_fr_energy">    -35.91334725 </i>
    <i name="e_wo_entrp">    -35.91334725 </i>
    <i name="e_0_energy">    -35.91334725 </i>
   </energy>
  </scstep>
  <scstep>
   <time name="dav">    1.94    0.98</time>
   <time name="total">    2.42    1.33</time>
   <energy>
    <i name="e_fr_energy">    -35.91334753 </i>
    <i name="e_wo_entrp">    -35.91334753 </i>
    <i name="e_0_energy">    -35.91334753 </i>
   </energy>
  </scstep>
  <scstep>
   <time name="dav">    2.04    1.02</time>
   <time name="total">    2.54    1.39</time>
   <energy>
    <i name="e_fr_energy">    -35.91336108 </i>
    <i name="e_wo_entrp">    -35.91336108 </i>
    <i name="e_0_energy">    -35.91336108 </i>
   </energy>
  </scstep>
  <scstep>
   <time name="dav">    1.99    1.00</time>
   <time name="total">    2.34    1.36</time>
   <energy>
    <i name="e_fr_energy">    -35.91335937 </i>
    <i name="e_wo_entrp">    -35.91335937 </i>
    <i name="e_0_energy">    -35.91335937 </i>
   </energy>
  </scstep>
  <scstep>
   <time name="dav">    2.08    1.05</time>
   <time name="total">    2.54    1.40</time>
   <energy>
    <i name="e_fr_energy">    -35.91335928 </i>
    <i name="e_wo_entrp">    -35.91335928 </i>
    <i name="e_0_energy">    -35.91335928 </i>
   </energy>
  </scstep>
  <scstep>
   <time name="dav">    1.94    0.98</time>
   <time name="total">    2.42    1.33</time>
   <energy>
    <i name="e_fr_energy">    -35.91335930 </i>
    <i name="e_wo_entrp">    -35.91335930 </i>
    <i name="e_0_energy">    -35.91335930 </i>
   </energy>
  </scstep>
  <scstep>
   <time name="dav">    1.72    0.87</time>
   <time name="total">    2.19    1.22</time>
   <energy>
    <i name="e_fr_energy">    -35.91335924 </i>
    <i name="e_wo_entrp">    -35.91335924 </i>
    <i name="e_0_energy">    -35.91335924 </i>
   </energy>
  </scstep>
  <scstep>
   <time name="dav">    1.40    0.71</time>
   <time name="total">    1.88    1.07</time>
   <energy>
    <i name="e_fr_energy">    -35.91335923 </i>
    <i name="e_wo_entrp">    -35.91335923 </i>
    <i name="e_0_energy">    -35.91335923 </i>
   </energy>
  </scstep>
  <scstep>
   <time name="dav">    1.36    0.69</time>
   <time name="total">    1.61    0.94</time>
   <energy>
    <i name="alphaZ">    217.43841536 </i>
    <i name="ewald">  -6082.22798446 </i>
    <i name="hartreedc">  -2304.33106777 </i>
    <i name="XCdc">    230.44494131 </i>
    <i name="pawpsdc">   8477.86771208 </i>
    <i name="pawaedc">  -8573.81235470 </i>
    <i name="eentropy">     -0.00000000 </i>
    <i name="bandstr">   -599.49460333 </i>
    <i name="atom">   8598.20158228 </i>
    <i name="e_fr_energy">    -35.91335923 </i>
    <i name="e_wo_entrp">    -35.91335923 </i>
    <i name="e_0_energy">    -35.91335923 </i>
   </energy>
  </scstep>
  <structure>
   <crystal>
    <varray name="basis" >
     <v>       4.34539863       0.00000000       0.00000000 </v>
     <v>       0.00000000       4.11936655       0.00000000 </v>
     <v>       0.00000000       0.00000000      11.35478920 </v>
    </varray>
    <i name="volume">    203.25401695 </i>
    <varray name="rec_basis" >
     <v>       0.23012848       0.00000000       0.00000000 </v>
     <v>       0.00000000       0.24275577       0.00000000 </v>
     <v>       0.00000000       0.00000000       0.08806857 </v>
    </varray>
   </crystal>
   <varray name="positions" >
    <v>       0.09914209       0.25000000       0.11561694 </v>
    <v>       0.40085791       0.25000000       0.61561694 </v>
    <v>       0.59914209       0.75000000       0.38438306 </v>
    <v>       0.90085791       0.75000000       0.88438306 </v>
    <v>       0.02604419       0.25000000       0.35634181 </v>
    <v>       0.47395581       0.25000000       0.85634181 </v>
    <v>       0.52604419       0.75000000       0.14365819 </v>
    <v>       0.97395581       0.75000000       0.64365819 </v>
   </varray>
  </structure>
  <varray name="forces" >
   <v>      -0.01262226       0.00000000      -0.02228181 </v>
   <v>       0.01262226      -0.00000000      -0.02228181 </v>
   <v>      -0.01262226       0.00000000       0.02228181 </v>
   <v>       0.01262226       0.00000000       0.02228181 </v>
   <v>      -0.00318492      -0.00000000       0.02937922 </v>
   <v>       0.00318492      -0.00000000       0.02937922 </v>
   <v>      -0.00318492      -0.00000000      -0.02937922 </v>
   <v>       0.00318492       0.00000000      -0.02937922 </v>
  </varray>
  <varray name="stress" >
   <v>       0.32391599       0.00000000       0.00000000 </v>
   <v>       0.00000000       0.25363786       0.00000000 </v>
   <v>       0.00000000       0.00000000       1.26022950 </v>
  </varray>
  <energy>
   <i name="e_fr_energy">    -37.43157745 </i>
   <i name="e_wo_entrp">    -37.43157745 </i>
   <i name="e_0_energy">    -37.43157745 </i>
  </energy>
  <scstep>
   <time name="total">    0.98    0.50</time>
   <energy>
    <i name="e_fr_energy">   -132.58925289 </i>
    <i name="e_wo_entrp">   -132.58925289 </i>
    <i name="e_0_energy">   -132.58925289 </i>
   </energy>
  </scstep>
  <scstep>
   <time name="total">    1.30    0.67</time>
   <energy>
    <i name="e_fr_energy">   -259.15380966 </i>
    <i name="e_wo_entrp">   -259.15380966 </i>
    <i name="e_0_energy">   -259.15380966 </i>
   </energy>
  </scstep>
  <scstep>
   <time name="total">    1.35    0.72</time>
   <energy>
    <i name="e_fr_energy">   -259.94781583 </i>
    <i name="e_wo_entrp">   -259.94781583 </i>
    <i name="e_0_energy">   -259.94781583 </i>
   </energy>
  </scstep>
  <scstep>
   <time name="total">    1.11    0.58</time>
   <energy>
    <i name="e_fr_energy">   -260.10600389 </i>
    <i name="e_wo_entrp">   -260.10600389 </i>
    <i name="e_0_energy">   -260.10600389 </i>
   </energy>
  </scstep>
  <scstep>
   <time name="total">    1.14    0.60</time>
   <energy>
    <i name="e_fr_energy">   -260.10982451 </i>
    <i name="e_wo_entrp">   -260.10982451 </i>
    <i name="e_0_energy">   -260.10982451 </i>
   </energy>
  </scstep>
  <scstep>
   <time name="total">    1.17    0.60</time>
   <energy>
    <i name="e_fr_energy">   -260.11208651 </i>
    <i name="e_wo_entrp">   -260.11208651 </i>
    <i name="e_0_energy">   -260.11208651 </i>
   </energy>
  </scstep>
  <scstep>
   <time name="total">    1.22    0.61</time>
   <energy>
    <i name="e_fr_energy">   -260.11227675 </i>
    <i name="e_wo_entrp">   -260.11227675 </i>
    <i name="e_0_energy">   -260.11227675 </i>
   </energy>
  </scstep>
  <scstep>
   <time name="total">    1.21    0.60</time>
   <energy>
    <i name="e_fr_energy">   -260.11230225 </i>
    <i name="e_wo_entrp">   -260.11230225 </i>
    <i name="e_0_energy">   -260.11230225 </i>
   </energy>
  </scstep>
  <scstep>
   <time name="total">    1.19    0.60</time>
   <energy>
    <i name="e_fr_energy">   -260.11230770 </i>
    <i name="e_wo_entrp">   -260.11230770 </i>
    <i name="e_0_energy">   -260.11230770 </i>
   </energy>
  </scstep>
  <scstep>
   <time name="total">    1.20    0.60</time>
   <energy>
    <i name="e_fr_energy">   -260.11235387 </i>
    <i name="e_wo_entrp">   -260.11235387 </i>
    <i name="e_0_energy">   -260.11235387 </i>
   </energy>
  </scstep>
  <scstep>
   <time name="total">    1.18    0.59</time>
   <energy>
    <i name="e_fr_energy">   -260.11231247 </i>
    <i name="e_wo_entrp">   -260.11231247 </i>
    <i name="e_0_energy">   -260.11231247 </i>
   </energy>
  </scstep>
  <scstep>
   <time name="total">    1.15    0.58</time>
   <energy>
    <i name="e_fr_energy">   -260.11230458 </i>
    <i name="e_wo_entrp">   -260.11230458 </i>
    <i name="e_0_energy">   -260.11230458 </i>
   </energy>
  </scstep>
  <scstep>
   <time name="total">    1.10    0.55</time>
   <energy>
    <i name="e_fr_energy">   -260.11230612 </i>
    <i name="e_wo_entrp">   -260.11230612 </i>
    <i name="e_0_energy">   -260.11230612 </i>
   </energy>
  </scstep>
  <scstep>
   <time name="total">    0.94    0.47</time>
   <energy>
    <i name="e_fr_energy">   -130.06113317 </i>
    <i name="e_wo_entrp">   -130.06113317 </i>
    <i name="e_0_energy">   -130.06113317 </i>
   </energy>
  </scstep>
  <scstep>
   <time name="total">    1.30    0.67</time>
   <energy>
    <i name="e_fr_energy">   -258.98584491 </i>
    <i name="e_wo_entrp">   -258.98584491 </i>
    <i name="e_0_energy">   -258.98584491 </i>
   </energy>
  </scstep>
  <scstep>
   <time name="total">    1.30    0.70</time>
   <energy>
    <i name="e_fr_energy">   -259.81155700 </i>
    <i name="e_wo_entrp">   -259.81155700 </i>
    <i name="e_0_energy">   -259.81155700 </i>
   </energy>
  </scstep>
  <scstep>
   <time name="total">    1.09    0.57</time>
   <energy>
    <i name="e_fr_energy">   -259.94636867 </i>
    <i name="e_wo_entrp">   -259.94636867 </i>
    <i name="e_0_energy">   -259.94636867 </i>
   </energy>
  </scstep>
  <scstep>
   <time name="total">    1.13    0.59</time>
   <energy>
    <i name="e_fr_energy">   -259.95752988 </i>
    <i name="e_wo_entrp">   -259.95752988 </i>
    <i name="e_0_energy">   -259.95752988 </i>
   </energy>
  </scstep>
  <scstep>
   <time name="total">    1.17    0.60</time>
   <energy>
    <i name="e_fr_energy">   -259.96087288 </i>
    <i name="e_wo_entrp">   -259.96087288 </i>
    <i name="e_0_energy">   -259.96087288 </i>
   </energy>
  </scstep>
  <scstep>
   <time name="total">    1.22    0.61</time>
   <energy>
    <i name="e_fr_energy">   -259.96088762 </i>
    <i name="e_wo_entrp">   -259.96088762 </i>
    <i name="e_0_energy">   -259.96088762 </i>
   </energy>
  </scstep>
  <scstep>
   <time name="total">    1.22    0.61</time>
   <energy>
    <i name="e_fr_energy">   -259.96085888 </i>
    <i name="e_wo_entrp">   -259.96085888 </i>
    <i name="e_0_energy">   -259.96085888 </i>
   </energy>
  </scstep>
  <scstep>
   <time name="total">    1.22    0.61</time>
   <energy>
    <i name="e_fr_energy">   -259.96084608 </i>
    <i name="e_wo_entrp">   -259.96084608 </i>
    <i name="e_0_energy">   -259.96084608 </i>
   </energy>
  </scstep>
  <scstep>
   <time name="total">    1.23    0.62</time>
   <energy>
    <i name="e_fr_energy">   -259.96090991 </i>
    <i name="e_wo_entrp">   -259.96090991 </i>
    <i name="e_0_energy">   -259.96090991 </i>
   </energy>
  </scstep>
  <scstep>
   <time name="total">    1.16    0.58</time>
   <energy>
    <i name="e_fr_energy">   -259.96085301 </i>
    <i name="e_wo_entrp">   -259.96085301 </i>
    <i name="e_0_energy">   -259.96085301 </i>
   </energy>
  </scstep>
  <scstep>
   <time name="total">    1.13    0.57</time>
   <energy>
    <i name="e_fr_energy">   -259.96089917 </i>
    <i name="e_wo_entrp">   -259.96089917 </i>
    <i name="e_0_energy">   -259.96089917 </i>
   </energy>
  </scstep>
  <scstep>
   <time name="total">    1.10    0.55</time>
   <energy>
    <i name="e_fr_energy">   -259.96090139 </i>
    <i name="e_wo_entrp">   -259.96090139 </i>
    <i name="e_0_energy">   -259.96090139 </i>
   </energy>
  </scstep>
  <scstep>
   <time name="total">    0.93    0.47</time>
   <energy>
    <i name="e_fr_energy">   -129.27767051 </i>
    <i name="e_wo_entrp">   -129.27767051 </i>
    <i name="e_0_energy">   -129.27767051 </i>
   </energy>
  </scstep>
  <scstep>
   <time name="total">    1.29    0.66</time>
   <energy>
    <i name="e_fr_energy">   -263.58500001 </i>
    <i name="e_wo_entrp">   -263.58500001 </i>
    <i name="e_0_energy">   -263.58500001 </i>
   </energy>
  </scstep>
  <scstep>
   <time name="total">    1.28    0.68</time>
   <energy>
    <i name="e_fr_energy">   -264.63525708 </i>
    <i name="e_wo_entrp">   -264.63525708 </i>
    <i name="e_0_energy">   -264.63525708 </i>
   </energy>
  </scstep>
  <scstep>
   <time name="total">    1.09    0.57</time>
   <energy>
    <i name="e_fr_energy">   -264.93886885 </i>
    <i name="e_wo_entrp">   -264.93886885 </i>
    <i name="e_0_energy">   -264.93886885 </i>
   </energy>
  </scstep>
  <scstep>
   <time name="total">    1.12    0.61</time>
   <energy>
    <i name="e_fr_energy">   -264.93847901 </i>
    <i name="e_wo_entrp">   -264.93847901 </i>
    <i name="e_0_energy">   -264.93847901 </i>
   </energy>
  </scstep>
  <scstep>
   <time name="total">    1.16    0.60</time>
   <energy>
    <i name="e_fr_energy">   -264.94307059 </i>
    <i name="e_wo_entrp">   -264.94307059 </i>
    <i name="e_0_energy">   -264.94307059 </i>
   </energy>
  </scstep>
  <scstep>
   <time name="total">    1.23    0.62</time>
   <energy>
    <i name="e_fr_energy">   -264.94330031 </i>
    <i name="e_wo_entrp">   -264.94330031 </i>
    <i name="e_0_energy">   -264.94330031 </i>
   </energy>
  </scstep>
  <scstep>
   <time name="total">    1.25    0.62</time>
   <energy>
    <i name="e_fr_energy">   -264.94319294 </i>
    <i name="e_wo_entrp">   -264.94319294 </i>
    <i name="e_0_energy">   -264.94319294 </i>
   </energy>
  </scstep>
  <scstep>
   <time name="total">    1.25    0.63</time>
   <energy>
    <i name="e_fr_energy">   -264.94321292 </i>
    <i name="e_wo_entrp">   -264.94321292 </i>
    <i name="e_0_energy">   -264.94321292 </i>
   </energy>
  </scstep>
  <scstep>
   <time name="total">    1.24    0.62</time>
   <energy>
    <i name="e_fr_energy">   -264.94325500 </i>
    <i name="e_wo_entrp">   -264.94325500 </i>
    <i name="e_0_energy">   -264.94325500 </i>
   </energy>
  </scstep>
  <scstep>
   <time name="total">    1.21    0.61</time>
   <energy>
    <i name="e_fr_energy">   -264.94325366 </i>
    <i name="e_wo_entrp">   -264.94325366 </i>
    <i name="e_0_energy">   -264.94325366 </i>
   </energy>
  </scstep>
  <scstep>
   <time name="total">    1.17    0.59</time>
   <energy>
    <i name="e_fr_energy">   -264.94325307 </i>
    <i name="e_wo_entrp">   -264.94325307 </i>
    <i name="e_0_energy">   -264.94325307 </i>
   </energy>
  </scstep>
  <scstep>
   <time name="total">    1.11    0.56</time>
   <energy>
    <i name="e_fr_energy">   -264.94324636 </i>
    <i name="e_wo_entrp">   -264.94324636 </i>
    <i name="e_0_energy">   -264.94324636 </i>
   </energy>
  </scstep>
  <scstep>
   <time name="total">    1.61    1.10</time>
   <energy>
    <i name="e_fr_energy">     -2.24118360 </i>
    <i name="e_wo_entrp">     -2.24118360 </i>
    <i name="e_0_energy">     -2.24118360 </i>
   </energy>
  </scstep>
  <scstep>
   <time name="total">    2.02    1.24</time>
   <energy>
    <i name="e_fr_energy">    -13.75301707 </i>
    <i name="e_wo_entrp">    -13.75301707 </i>
    <i name="e_0_energy">    -13.75301707 </i>
   </energy>
  </scstep>
  <scstep>
   <time name="total">    2.02    1.26</time>
   <energy>
    <i name="e_fr_energy">    -13.82696222 </i>
    <i name="e_wo_entrp">    -13.82696222 </i>
    <i name="e_0_energy">    -13.82696222 </i>
   </energy>
  </scstep>
  <scstep>
   <time name="total">    2.02    1.24</time>
   <energy>
    <i name="e_fr_energy">    -13.82739214 </i>
    <i name="e_wo_entrp">    -13.82739214 </i>
    <i name="e_0_energy">    -13.82739214 </i>
   </energy>
  </scstep>
  <scstep>
   <time name="total">    2.02    1.26</time>
   <energy>
    <i name="e_fr_energy">    -13.82748303 </i>
    <i name="e_wo_entrp">    -13.82748303 </i>
    <i name="e_0_energy">    -13.82748303 </i>
   </energy>
  </scstep>
  <scstep>
   <time name="total">    2.01    1.25</time>
   <energy>
    <i name="e_fr_energy">    -13.82748703 </i>
    <i name="e_wo_entrp">    -13.82748703 </i>
    <i name="e_0_energy">    -13.82748703 </i>
   </energy>
  </scstep>
  <scstep>
   <time name="total">    2.06    1.26</time>
   <energy>
    <i name="e_fr_energy">    -13.82748834 </i>
    <i name="e_wo_entrp">    -13.82748834 </i>
    <i name="e_0_energy">    -13.82748834 </i>
   </energy>
  </scstep>
  <scstep>
   <time name="total">    2.07    1.25</time>
   <energy>
    <i name="e_fr_energy">    -13.82748846 </i>
    <i name="e_wo_entrp">    -13.82748846 </i>
    <i name="e_0_energy">    -13.82748846 </i>
   </energy>
  </scstep>
  <scstep>
   <time name="total">    2.10    1.26</time>
   <energy>
    <i name="e_fr_energy">    -13.82748847 </i>
    <i name="e_wo_entrp">    -13.82748847 </i>
    <i name="e_0_energy">    -13.82748847 </i>
   </energy>
  </scstep>
  <scstep>
   <time name="total">    2.05    1.24</time>
   <energy>
    <i name="e_fr_energy">    -13.82748848 </i>
    <i name="e_wo_entrp">    -13.82748848 </i>
    <i name="e_0_energy">    -13.82748848 </i>
   </energy>
  </scstep>
  <scstep>
   <time name="total">    2.00    1.22</time>
   <energy>
    <i name="e_fr_energy">    -13.82748847 </i>
    <i name="e_wo_entrp">    -13.82748847 </i>
    <i name="e_0_energy">    -13.82748847 </i>
   </energy>
  </scstep>
  <scstep>
   <time name="total">    2.04    1.23</time>
   <energy>
    <i name="e_fr_energy">    -13.82748848 </i>
    <i name="e_wo_entrp">    -13.82748848 </i>
    <i name="e_0_energy">    -13.82748848 </i>
   </energy>
  </scstep>
  <scstep>
   <time name="total">    1.94    1.18</time>
   <energy>
    <i name="e_fr_energy">    -13.82748848 </i>
    <i name="e_wo_entrp">    -13.82748848 </i>
    <i name="e_0_energy">    -13.82748848 </i>
   </energy>
  </scstep>
  <scstep>
   <time name="total">    1.93    1.17</time>
   <energy>
    <i name="e_fr_energy">    -13.82748848 </i>
    <i name="e_wo_entrp">    -13.82748848 </i>
    <i name="e_0_energy">    -13.82748848 </i>
   </energy>
  </scstep>
  <scstep>
   <time name="total">    1.95    1.19</time>
   <energy>
    <i name="e_fr_energy">    -13.82748847 </i>
    <i name="e_wo_entrp">    -13.82748847 </i>
    <i name="e_0_energy">    -13.82748847 </i>
   </energy>
  </scstep>
  <scstep>
   <time name="total">    1.98    1.20</time>
   <energy>
    <i name="e_fr_energy">    -13.82748848 </i>
    <i name="e_wo_entrp">    -13.82748848 </i>
    <i name="e_0_energy">    -13.82748848 </i>
   </energy>
  </scstep>
  <scstep>
   <time name="total">    1.59    1.08</time>
   <energy>
    <i name="e_fr_energy">     -3.82125775 </i>
    <i name="e_wo_entrp">     -3.82125775 </i>
    <i name="e_0_energy">     -3.82125775 </i>
   </energy>
  </scstep>
  <scstep>
   <time name="total">    1.97    1.22</time>
   <energy>
    <i name="e_fr_energy">    -16.55037255 </i>
    <i name="e_wo_entrp">    -16.55037255 </i>
    <i name="e_0_energy">    -16.55037255 </i>
   </energy>
  </scstep>
  <scstep>
   <time name="total">    2.15    2.66</time>
   <energy>
    <i name="e_fr_energy">    -16.63651759 </i>
    <i name="e_wo_entrp">    -16.63651759 </i>
    <i name="e_0_energy">    -16.63651759 </i>
   </energy>
  </scstep>
  <scstep>
   <time name="total">    1.77    1.12</time>
   <energy>
    <i name="e_fr_energy">    -16.63695384 </i>
    <i name="e_wo_entrp">    -16.63695384 </i>
    <i name="e_0_energy">    -16.63695384 </i>
   </energy>
  </scstep>
  <scstep>
   <time name="total">    2.06    1.26</time>
   <energy>
    <i name="e_fr_energy">    -16.63703259 </i>
    <i name="e_wo_entrp">    -16.63703259 </i>
    <i name="e_0_energy">    -16.63703259 </i>
   </energy>
  </scstep>
  <scstep>
   <time name="total">    2.05    1.27</time>
   <energy>
    <i name="e_fr_energy">    -16.63703591 </i>
    <i name="e_wo_entrp">    -16.63703591 </i>
    <i name="e_0_energy">    -16.63703591 </i>
   </energy>
  </scstep>
  <scstep>
   <time name="total">    1.93    3.76</time>
   <energy>
    <i name="e_fr_energy">    -16.63703724 </i>
    <i name="e_wo_entrp">    -16.63703724 </i>
    <i name="e_0_energy">    -16.63703724 </i>
   </energy>
  </scstep>
  <scstep>
   <time name="total">    2.06    1.24</time>
   <energy>
    <i name="e_fr_energy">    -16.63703734 </i>
    <i name="e_wo_entrp">    -16.63703734 </i>
    <i name="e_0_energy">    -16.63703734 </i>
   </energy>
  </scstep>
  <scstep>
   <time name="total">    2.05    1.24</time>
   <energy>
    <i name="e_fr_energy">    -16.63703736 </i>
    <i name="e_wo_entrp">    -16.63703736 </i>
    <i name="e_0_energy">    -16.63703736 </i>
   </energy>
  </scstep>
  <scstep>
   <time name="total">    2.01    1.22</time>
   <energy>
    <i name="e_fr_energy">    -16.63703736 </i>
    <i name="e_wo_entrp">    -16.63703736 </i>
    <i name="e_0_energy">    -16.63703736 </i>
   </energy>
  </scstep>
  <scstep>
   <time name="total">    2.00    1.21</time>
   <energy>
    <i name="e_fr_energy">    -16.63703736 </i>
    <i name="e_wo_entrp">    -16.63703736 </i>
    <i name="e_0_energy">    -16.63703736 </i>
   </energy>
  </scstep>
  <scstep>
   <time name="total">    1.91    1.17</time>
   <energy>
    <i name="e_fr_energy">    -16.63703737 </i>
    <i name="e_wo_entrp">    -16.63703737 </i>
    <i name="e_0_energy">    -16.63703737 </i>
   </energy>
  </scstep>
  <scstep>
   <time name="total">    1.92    1.17</time>
   <energy>
    <i name="e_fr_energy">    -16.63703737 </i>
    <i name="e_wo_entrp">    -16.63703737 </i>
    <i name="e_0_energy">    -16.63703737 </i>
   </energy>
  </scstep>
  <scstep>
   <time name="total">    1.91    1.17</time>
   <energy>
    <i name="e_fr_energy">    -16.63703737 </i>
    <i name="e_wo_entrp">    -16.63703737 </i>
    <i name="e_0_energy">    -16.63703737 </i>
   </energy>
  </scstep>
  <scstep>
   <time name="total">    1.92    1.17</time>
   <energy>
    <i name="e_fr_energy">    -16.63703737 </i>
    <i name="e_wo_entrp">    -16.63703737 </i>
    <i name="e_0_energy">    -16.63703737 </i>
   </energy>
  </scstep>
  <scstep>
   <time name="total">    1.92    1.17</time>
   <energy>
    <i name="e_fr_energy">    -16.63703737 </i>
    <i name="e_wo_entrp">    -16.63703737 </i>
    <i name="e_0_energy">    -16.63703737 </i>
   </energy>
  </scstep>
  <scstep>
   <time name="total">    1.59    1.08</time>
   <energy>
    <i name="e_fr_energy">     -3.89391666 </i>
    <i name="e_wo_entrp">     -3.89391666 </i>
    <i name="e_0_energy">     -3.89391666 </i>
   </energy>
  </scstep>
  <scstep>
   <time name="total">    1.99    1.23</time>
   <energy>
    <i name="e_fr_energy">    -15.36798866 </i>
    <i name="e_wo_entrp">    -15.36798866 </i>
    <i name="e_0_energy">    -15.36798866 </i>
   </energy>
  </scstep>
  <scstep>
   <time name="total">    2.02    1.25</time>
   <energy>
    <i name="e_fr_energy">    -15.42964140 </i>
    <i name="e_wo_entrp">    -15.42964140 </i>
    <i name="e_0_energy">    -15.42964140 </i>
   </energy>
  </scstep>
  <scstep>
   <time name="total">    2.04    1.26</time>
   <energy>
    <i name="e_fr_energy">    -15.43003521 </i>
    <i name="e_wo_entrp">    -15.43003521 </i>
    <i name="e_0_energy">    -15.43003521 </i>
   </energy>
  </scstep>
  <scstep>
   <time name="total">    2.02    1.24</time>
   <energy>
    <i name="e_fr_energy">    -15.43013492 </i>
    <i name="e_wo_entrp">    -15.43013492 </i>
    <i name="e_0_energy">    -15.43013492 </i>
   </energy>
  </scstep>
  <scstep>
   <time name="total">    2.02    1.25</time>
   <energy>
    <i name="e_fr_energy">    -15.43013872 </i>
    <i name="e_wo_entrp">    -15.43013872 </i>
    <i name="e_0_energy">    -15.43013872 </i>
   </energy>
  </scstep>
  <scstep>
   <time name="total">    2.10    1.28</time>
   <energy>
    <i name="e_fr_energy">    -15.43014040 </i>
    <i name="e_wo_entrp">    -15.43014040 </i>
    <i name="e_0_energy">    -15.43014040 </i>
   </energy>
  </scstep>
  <scstep>
   <time name="total">    2.10    1.27</time>
   <energy>
    <i name="e_fr_energy">    -15.43014050 </i>
    <i name="e_wo_entrp">    -15.43014050 </i>
    <i name="e_0_energy">    -15.43014050 </i>
   </energy>
  </scstep>
  <scstep>
   <time name="total">    2.06    1.24</time>
   <energy>
    <i name="e_fr_energy">    -15.43014053 </i>
    <i name="e_wo_entrp">    -15.43014053 </i>
    <i name="e_0_energy">    -15.43014053 </i>
   </energy>
  </scstep>
  <scstep>
   <time name="total">    2.02    1.22</time>
   <energy>
    <i name="e_fr_energy">    -15.43014053 </i>
    <i name="e_wo_entrp">    -15.43014053 </i>
    <i name="e_0_energy">    -15.43014053 </i>
   </energy>
  </scstep>
  <scstep>
   <time name="total">    1.98    1.20</time>
   <energy>
    <i name="e_fr_energy">    -15.43014053 </i>
    <i name="e_wo_entrp">    -15.43014053 </i>
    <i name="e_0_energy">    -15.43014053 </i>
   </energy>
  </scstep>
  <scstep>
   <time name="total">    1.98    1.20</time>
   <energy>
    <i name="e_fr_energy">    -15.43014053 </i>
    <i name="e_wo_entrp">    -15.43014053 </i>
    <i name="e_0_energy">    -15.43014053 </i>
   </energy>
  </scstep>
  <scstep>
   <time name="total">    1.92    1.18</time>
   <energy>
    <i name="e_fr_energy">    -15.43014053 </i>
    <i name="e_wo_entrp">    -15.43014053 </i>
    <i name="e_0_energy">    -15.43014053 </i>
   </energy>
  </scstep>
  <scstep>
   <time name="total">    1.90    1.16</time>
   <energy>
    <i name="e_fr_energy">    -15.43014053 </i>
    <i name="e_wo_entrp">    -15.43014053 </i>
    <i name="e_0_energy">    -15.43014053 </i>
   </energy>
  </scstep>
  <scstep>
   <time name="total">    1.97    1.20</time>
   <energy>
    <i name="e_fr_energy">    -15.43014053 </i>
    <i name="e_wo_entrp">    -15.43014053 </i>
    <i name="e_0_energy">    -15.43014053 </i>
   </energy>
  </scstep>
  <scstep>
   <time name="total">    1.98    1.20</time>
   <energy>
    <i name="e_fr_energy">    -15.43014053 </i>
    <i name="e_wo_entrp">    -15.43014053 </i>
    <i name="e_0_energy">    -15.43014053 </i>
   </energy>
  </scstep>
  <varray name="dielectric_ipa" >
   <v>      25.62078329       0.00000000       0.00000000 </v>
   <v>       0.00000000      30.62327726       0.00000000 </v>
   <v>       0.00000000       0.00000000      28.47430935 </v>
  </varray>
  <kpoints>
   <generation param="Gamma">
    <v type="int" name="divisions">       8        9        3 </v>
    <v name="usershift">      0.00000000       0.00000000       0.00000000 </v>
    <v name="genvec1">      0.12500000       0.00000000       0.00000000 </v>
    <v name="genvec2">      0.00000000       0.11111111       0.00000000 </v>
    <v name="genvec3">      0.00000000       0.00000000       0.33333333 </v>
    <v name="shift">      0.00000000       0.00000000       0.00000000 </v>
   </generation>
   <varray name="kpointlist" >
    <v>       0.00000000       0.00000000       0.00000000 </v>
    <v>       0.12500000       0.00000000       0.00000000 </v>
    <v>       0.25000000       0.00000000       0.00000000 </v>
    <v>       0.37500000       0.00000000       0.00000000 </v>
    <v>       0.50000000       0.00000000       0.00000000 </v>
    <v>       0.00000000       0.11111111       0.00000000 </v>
    <v>       0.12500000       0.11111111       0.00000000 </v>
    <v>       0.25000000       0.11111111       0.00000000 </v>
    <v>       0.37500000       0.11111111       0.00000000 </v>
    <v>       0.50000000       0.11111111       0.00000000 </v>
    <v>       0.00000000       0.22222222       0.00000000 </v>
    <v>       0.12500000       0.22222222       0.00000000 </v>
    <v>       0.25000000       0.22222222       0.00000000 </v>
    <v>       0.37500000       0.22222222       0.00000000 </v>
    <v>       0.50000000       0.22222222       0.00000000 </v>
    <v>       0.00000000       0.33333333       0.00000000 </v>
    <v>       0.12500000       0.33333333       0.00000000 </v>
    <v>       0.25000000       0.33333333       0.00000000 </v>
    <v>       0.37500000       0.33333333       0.00000000 </v>
    <v>       0.50000000       0.33333333       0.00000000 </v>
    <v>       0.00000000       0.44444444       0.00000000 </v>
    <v>       0.12500000       0.44444444       0.00000000 </v>
    <v>       0.25000000       0.44444444       0.00000000 </v>
    <v>       0.37500000       0.44444444       0.00000000 </v>
    <v>       0.50000000       0.44444444       0.00000000 </v>
    <v>       0.00000000       0.00000000       0.33333333 </v>
    <v>       0.12500000       0.00000000       0.33333333 </v>
    <v>       0.25000000       0.00000000       0.33333333 </v>
    <v>       0.37500000       0.00000000       0.33333333 </v>
    <v>       0.50000000       0.00000000       0.33333333 </v>
    <v>       0.00000000       0.11111111       0.33333333 </v>
    <v>       0.12500000       0.11111111       0.33333333 </v>
    <v>       0.25000000       0.11111111       0.33333333 </v>
    <v>       0.37500000       0.11111111       0.33333333 </v>
    <v>       0.50000000       0.11111111       0.33333333 </v>
    <v>       0.00000000       0.22222222       0.33333333 </v>
    <v>       0.12500000       0.22222222       0.33333333 </v>
    <v>       0.25000000       0.22222222       0.33333333 </v>
    <v>       0.37500000       0.22222222       0.33333333 </v>
    <v>       0.50000000       0.22222222       0.33333333 </v>
    <v>       0.00000000       0.33333333       0.33333333 </v>
    <v>       0.12500000       0.33333333       0.33333333 </v>
    <v>       0.25000000       0.33333333       0.33333333 </v>
    <v>       0.37500000       0.33333333       0.33333333 </v>
    <v>       0.50000000       0.33333333       0.33333333 </v>
    <v>       0.00000000       0.44444444       0.33333333 </v>
    <v>       0.12500000       0.44444444       0.33333333 </v>
    <v>       0.25000000       0.44444444       0.33333333 </v>
    <v>       0.37500000       0.44444444       0.33333333 </v>
    <v>       0.50000000       0.44444444       0.33333333 </v>
   </varray>
   <varray name="weights" >
    <v>       0.00462963 </v>
    <v>       0.00925926 </v>
    <v>       0.00925926 </v>
    <v>       0.00925926 </v>
    <v>       0.00462963 </v>
    <v>       0.00925926 </v>
    <v>       0.01851852 </v>
    <v>       0.01851852 </v>
    <v>       0.01851852 </v>
    <v>       0.00925926 </v>
    <v>       0.00925926 </v>
    <v>       0.01851852 </v>
    <v>       0.01851852 </v>
    <v>       0.01851852 </v>
    <v>       0.00925926 </v>
    <v>       0.00925926 </v>
    <v>       0.01851852 </v>
    <v>       0.01851852 </v>
    <v>       0.01851852 </v>
    <v>       0.00925926 </v>
    <v>       0.00925926 </v>
    <v>       0.01851852 </v>
    <v>       0.01851852 </v>
    <v>       0.01851852 </v>
    <v>       0.00925926 </v>
    <v>       0.00925926 </v>
    <v>       0.01851852 </v>
    <v>       0.01851852 </v>
    <v>       0.01851852 </v>
    <v>       0.00925926 </v>
    <v>       0.01851852 </v>
    <v>       0.03703704 </v>
    <v>       0.03703704 </v>
    <v>       0.03703704 </v>
    <v>       0.01851852 </v>
    <v>       0.01851852 </v>
    <v>       0.03703704 </v>
    <v>       0.03703704 </v>
    <v>       0.03703704 </v>
    <v>       0.01851852 </v>
    <v>       0.01851852 </v>
    <v>       0.03703704 </v>
    <v>       0.03703704 </v>
    <v>       0.03703704 </v>
    <v>       0.01851852 </v>
    <v>       0.01851852 </v>
    <v>       0.03703704 </v>
    <v>       0.03703704 </v>
    <v>       0.03703704 </v>
    <v>       0.01851852 </v>
   </varray>
  </kpoints>
  <scstep>
   <time name="total">    1.61    1.09</time>
   <energy>
    <i name="e_fr_energy">     -2.24118353 </i>
    <i name="e_wo_entrp">     -2.24118353 </i>
    <i name="e_0_energy">     -2.24118353 </i>
   </energy>
  </scstep>
  <scstep>
   <time name="total">    2.29    1.41</time>
   <energy>
    <i name="e_fr_energy">    -13.75301706 </i>
    <i name="e_wo_entrp">    -13.75301706 </i>
    <i name="e_0_energy">    -13.75301706 </i>
   </energy>
  </scstep>
  <scstep>
   <time name="total">    2.16    1.39</time>
   <energy>
    <i name="e_fr_energy">    -13.25550099 </i>
    <i name="e_wo_entrp">    -13.25550099 </i>
    <i name="e_0_energy">    -13.25550099 </i>
   </energy>
  </scstep>
  <scstep>
   <time name="total">    2.16    1.40</time>
   <energy>
    <i name="e_fr_energy">    -13.42867865 </i>
    <i name="e_wo_entrp">    -13.42867865 </i>
    <i name="e_0_energy">    -13.42867865 </i>
   </energy>
  </scstep>
  <scstep>
   <time name="total">    2.17    1.40</time>
   <energy>
    <i name="e_fr_energy">    -13.63577492 </i>
    <i name="e_wo_entrp">    -13.63577492 </i>
    <i name="e_0_energy">    -13.63577492 </i>
   </energy>
  </scstep>
  <scstep>
   <time name="total">    2.24    1.40</time>
   <energy>
    <i name="e_fr_energy">    -13.68861252 </i>
    <i name="e_wo_entrp">    -13.68861252 </i>
    <i name="e_0_energy">    -13.68861252 </i>
   </energy>
  </scstep>
  <scstep>
   <time name="total">    2.24    1.41</time>
   <energy>
    <i name="e_fr_energy">    -13.70214779 </i>
    <i name="e_wo_entrp">    -13.70214779 </i>
    <i name="e_0_energy">    -13.70214779 </i>
   </energy>
  </scstep>
  <scstep>
   <time name="total">    2.24    1.41</time>
   <energy>
    <i name="e_fr_energy">    -13.70047046 </i>
    <i name="e_wo_entrp">    -13.70047046 </i>
    <i name="e_0_energy">    -13.70047046 </i>
   </energy>
  </scstep>
  <scstep>
   <time name="total">    2.30    1.44</time>
   <energy>
    <i name="e_fr_energy">    -13.70414590 </i>
    <i name="e_wo_entrp">    -13.70414590 </i>
    <i name="e_0_energy">    -13.70414590 </i>
   </energy>
  </scstep>
  <scstep>
   <time name="total">    2.26    1.42</time>
   <energy>
    <i name="e_fr_energy">    -13.70243898 </i>
    <i name="e_wo_entrp">    -13.70243898 </i>
    <i name="e_0_energy">    -13.70243898 </i>
   </energy>
  </scstep>
  <scstep>
   <time name="total">    2.26    1.42</time>
   <energy>
    <i name="e_fr_energy">    -13.70610506 </i>
    <i name="e_wo_entrp">    -13.70610506 </i>
    <i name="e_0_energy">    -13.70610506 </i>
   </energy>
  </scstep>
  <scstep>
   <time name="total">    2.25    1.41</time>
   <energy>
    <i name="e_fr_energy">    -13.70268680 </i>
    <i name="e_wo_entrp">    -13.70268680 </i>
    <i name="e_0_energy">    -13.70268680 </i>
   </energy>
  </scstep>
  <scstep>
   <time name="total">    2.25    1.41</time>
   <energy>
    <i name="e_fr_energy">    -13.70369256 </i>
    <i name="e_wo_entrp">    -13.70369256 </i>
    <i name="e_0_energy">    -13.70369256 </i>
   </energy>
  </scstep>
  <scstep>
   <time name="total">    2.19    1.38</time>
   <energy>
    <i name="e_fr_energy">    -13.70704256 </i>
    <i name="e_wo_entrp">    -13.70704256 </i>
    <i name="e_0_energy">    -13.70704256 </i>
   </energy>
  </scstep>
  <scstep>
   <time name="total">    2.16    1.37</time>
   <energy>
    <i name="e_fr_energy">    -13.70235617 </i>
    <i name="e_wo_entrp">    -13.70235617 </i>
    <i name="e_0_energy">    -13.70235617 </i>
   </energy>
  </scstep>
  <scstep>
   <time name="total">    2.16    1.36</time>
   <energy>
    <i name="e_fr_energy">    -13.70625658 </i>
    <i name="e_wo_entrp">    -13.70625658 </i>
    <i name="e_0_energy">    -13.70625658 </i>
   </energy>
  </scstep>
  <scstep>
   <time name="total">    2.10    1.33</time>
   <energy>
    <i name="e_fr_energy">    -13.70584235 </i>
    <i name="e_wo_entrp">    -13.70584235 </i>
    <i name="e_0_energy">    -13.70584235 </i>
   </energy>
  </scstep>
  <scstep>
   <time name="total">    2.09    1.33</time>
   <energy>
    <i name="e_fr_energy">    -13.70543469 </i>
    <i name="e_wo_entrp">    -13.70543469 </i>
    <i name="e_0_energy">    -13.70543469 </i>
   </energy>
  </scstep>
  <scstep>
   <time name="total">    2.09    1.33</time>
   <energy>
    <i name="e_fr_energy">    -13.70532414 </i>
    <i name="e_wo_entrp">    -13.70532414 </i>
    <i name="e_0_energy">    -13.70532414 </i>
   </energy>
  </scstep>
  <scstep>
   <time name="total">    2.10    6.08</time>
   <energy>
    <i name="e_fr_energy">    -13.70417221 </i>
    <i name="e_wo_entrp">    -13.70417221 </i>
    <i name="e_0_energy">    -13.70417221 </i>
   </energy>
  </scstep>
  <scstep>
   <time name="total">    1.93    3.95</time>
   <energy>
    <i name="e_fr_energy">    -13.70451932 </i>
    <i name="e_wo_entrp">    -13.70451932 </i>
    <i name="e_0_energy">    -13.70451932 </i>
   </energy>
  </scstep>
  <scstep>
   <time name="total">    2.08    1.32</time>
   <energy>
    <i name="e_fr_energy">    -13.70588342 </i>
    <i name="e_wo_entrp">    -13.70588342 </i>
    <i name="e_0_energy">    -13.70588342 </i>
   </energy>
  </scstep>
  <scstep>
   <time name="total">    2.08    1.33</time>
   <energy>
    <i name="e_fr_energy">    -13.70548830 </i>
    <i name="e_wo_entrp">    -13.70548830 </i>
    <i name="e_0_energy">    -13.70548830 </i>
   </energy>
  </scstep>
  <scstep>
   <time name="total">    2.10    1.34</time>
   <energy>
    <i name="e_fr_energy">    -13.70375515 </i>
    <i name="e_wo_entrp">    -13.70375515 </i>
    <i name="e_0_energy">    -13.70375515 </i>
   </energy>
  </scstep>
  <scstep>
   <time name="total">    2.11    1.34</time>
   <energy>
    <i name="e_fr_energy">    -13.70581375 </i>
    <i name="e_wo_entrp">    -13.70581375 </i>
    <i name="e_0_energy">    -13.70581375 </i>
   </energy>
  </scstep>
  <scstep>
   <time name="total">    2.12    1.35</time>
   <energy>
    <i name="e_fr_energy">    -13.70506987 </i>
    <i name="e_wo_entrp">    -13.70506987 </i>
    <i name="e_0_energy">    -13.70506987 </i>
   </energy>
  </scstep>
  <scstep>
   <time name="total">    2.12    1.35</time>
   <energy>
    <i name="e_fr_energy">    -13.70529621 </i>
    <i name="e_wo_entrp">    -13.70529621 </i>
    <i name="e_0_energy">    -13.70529621 </i>
   </energy>
  </scstep>
  <scstep>
   <time name="total">    2.10    1.33</time>
   <energy>
    <i name="e_fr_energy">    -13.70410627 </i>
    <i name="e_wo_entrp">    -13.70410627 </i>
    <i name="e_0_energy">    -13.70410627 </i>
   </energy>
  </scstep>
  <scstep>
   <time name="total">    2.12    1.35</time>
   <energy>
    <i name="e_fr_energy">    -13.70511720 </i>
    <i name="e_wo_entrp">    -13.70511720 </i>
    <i name="e_0_energy">    -13.70511720 </i>
   </energy>
  </scstep>
  <scstep>
   <time name="total">    2.13    1.35</time>
   <energy>
    <i name="e_fr_energy">    -13.70506442 </i>
    <i name="e_wo_entrp">    -13.70506442 </i>
    <i name="e_0_energy">    -13.70506442 </i>
   </energy>
  </scstep>
  <scstep>
   <time name="total">    2.12    1.34</time>
   <energy>
    <i name="e_fr_energy">    -13.70472097 </i>
    <i name="e_wo_entrp">    -13.70472097 </i>
    <i name="e_0_energy">    -13.70472097 </i>
   </energy>
  </scstep>
  <scstep>
   <time name="total">    2.13    1.35</time>
   <energy>
    <i name="e_fr_energy">    -13.70388099 </i>
    <i name="e_wo_entrp">    -13.70388099 </i>
    <i name="e_0_energy">    -13.70388099 </i>
   </energy>
  </scstep>
  <scstep>
   <time name="total">    2.16    1.37</time>
   <energy>
    <i name="e_fr_energy">    -13.70480153 </i>
    <i name="e_wo_entrp">    -13.70480153 </i>
    <i name="e_0_energy">    -13.70480153 </i>
   </energy>
  </scstep>
  <scstep>
   <time name="total">    2.12    1.34</time>
   <energy>
    <i name="e_fr_energy">    -13.70462105 </i>
    <i name="e_wo_entrp">    -13.70462105 </i>
    <i name="e_0_energy">    -13.70462105 </i>
   </energy>
  </scstep>
  <scstep>
   <time name="total">    2.12    1.35</time>
   <energy>
    <i name="e_fr_energy">    -13.70458662 </i>
    <i name="e_wo_entrp">    -13.70458662 </i>
    <i name="e_0_energy">    -13.70458662 </i>
   </energy>
  </scstep>
  <scstep>
   <time name="total">    2.15    1.36</time>
   <energy>
    <i name="e_fr_energy">    -13.70492383 </i>
    <i name="e_wo_entrp">    -13.70492383 </i>
    <i name="e_0_energy">    -13.70492383 </i>
   </energy>
  </scstep>
  <scstep>
   <time name="total">    2.13    1.35</time>
   <energy>
    <i name="e_fr_energy">    -13.70556524 </i>
    <i name="e_wo_entrp">    -13.70556524 </i>
    <i name="e_0_energy">    -13.70556524 </i>
   </energy>
  </scstep>
  <scstep>
   <time name="total">    2.15    1.37</time>
   <energy>
    <i name="e_fr_energy">    -13.70300840 </i>
    <i name="e_wo_entrp">    -13.70300840 </i>
    <i name="e_0_energy">    -13.70300840 </i>
   </energy>
  </scstep>
  <scstep>
   <time name="total">    2.14    1.36</time>
   <energy>
    <i name="e_fr_energy">    -13.70503546 </i>
    <i name="e_wo_entrp">    -13.70503546 </i>
    <i name="e_0_energy">    -13.70503546 </i>
   </energy>
  </scstep>
  <scstep>
   <time name="total">    2.14    1.36</time>
   <energy>
    <i name="e_fr_energy">    -13.70503536 </i>
    <i name="e_wo_entrp">    -13.70503536 </i>
    <i name="e_0_energy">    -13.70503536 </i>
   </energy>
  </scstep>
  <scstep>
   <time name="total">    2.12    1.35</time>
   <energy>
    <i name="e_fr_energy">    -13.70454507 </i>
    <i name="e_wo_entrp">    -13.70454507 </i>
    <i name="e_0_energy">    -13.70454507 </i>
   </energy>
  </scstep>
  <scstep>
   <time name="total">    2.15    1.36</time>
   <energy>
    <i name="e_fr_energy">    -13.70568720 </i>
    <i name="e_wo_entrp">    -13.70568720 </i>
    <i name="e_0_energy">    -13.70568720 </i>
   </energy>
  </scstep>
  <kpoints>
   <generation param="Gamma">
    <v type="int" name="divisions">       8        9        3 </v>
    <v name="usershift">      0.00000000       0.00000000       0.00000000 </v>
    <v name="genvec1">      0.12500000       0.00000000       0.00000000 </v>
    <v name="genvec2">      0.00000000       0.11111111       0.00000000 </v>
    <v name="genvec3">      0.00000000       0.00000000       0.33333333 </v>
    <v name="shift">      0.00000000       0.00000000       0.00000000 </v>
   </generation>
   <varray name="kpointlist" >
    <v>       0.00000000       0.00000000       0.00000000 </v>
    <v>       0.12500000       0.00000000       0.00000000 </v>
    <v>       0.25000000       0.00000000       0.00000000 </v>
    <v>       0.37500000       0.00000000       0.00000000 </v>
    <v>       0.50000000       0.00000000       0.00000000 </v>
    <v>       0.00000000       0.11111111       0.00000000 </v>
    <v>       0.12500000       0.11111111       0.00000000 </v>
    <v>       0.25000000       0.11111111       0.00000000 </v>
    <v>       0.37500000       0.11111111       0.00000000 </v>
    <v>       0.50000000       0.11111111       0.00000000 </v>
    <v>       0.00000000       0.22222222       0.00000000 </v>
    <v>       0.12500000       0.22222222       0.00000000 </v>
    <v>       0.25000000       0.22222222       0.00000000 </v>
    <v>       0.37500000       0.22222222       0.00000000 </v>
    <v>       0.50000000       0.22222222       0.00000000 </v>
    <v>       0.00000000       0.33333333       0.00000000 </v>
    <v>       0.12500000       0.33333333       0.00000000 </v>
    <v>       0.25000000       0.33333333       0.00000000 </v>
    <v>       0.37500000       0.33333333       0.00000000 </v>
    <v>       0.50000000       0.33333333       0.00000000 </v>
    <v>       0.00000000       0.44444444       0.00000000 </v>
    <v>       0.12500000       0.44444444       0.00000000 </v>
    <v>       0.25000000       0.44444444       0.00000000 </v>
    <v>       0.37500000       0.44444444       0.00000000 </v>
    <v>       0.50000000       0.44444444       0.00000000 </v>
    <v>       0.00000000       0.00000000       0.33333333 </v>
    <v>       0.12500000       0.00000000       0.33333333 </v>
    <v>       0.25000000       0.00000000       0.33333333 </v>
    <v>       0.37500000       0.00000000       0.33333333 </v>
    <v>       0.50000000       0.00000000       0.33333333 </v>
    <v>       0.00000000       0.11111111       0.33333333 </v>
    <v>       0.12500000       0.11111111       0.33333333 </v>
    <v>       0.25000000       0.11111111       0.33333333 </v>
    <v>       0.37500000       0.11111111       0.33333333 </v>
    <v>       0.50000000       0.11111111       0.33333333 </v>
    <v>       0.00000000       0.22222222       0.33333333 </v>
    <v>       0.12500000       0.22222222       0.33333333 </v>
    <v>       0.25000000       0.22222222       0.33333333 </v>
    <v>       0.37500000       0.22222222       0.33333333 </v>
    <v>       0.50000000       0.22222222       0.33333333 </v>
    <v>       0.00000000       0.33333333       0.33333333 </v>
    <v>       0.12500000       0.33333333       0.33333333 </v>
    <v>       0.25000000       0.33333333       0.33333333 </v>
    <v>       0.37500000       0.33333333       0.33333333 </v>
    <v>       0.50000000       0.33333333       0.33333333 </v>
    <v>       0.00000000       0.44444444       0.33333333 </v>
    <v>       0.12500000       0.44444444       0.33333333 </v>
    <v>       0.25000000       0.44444444       0.33333333 </v>
    <v>       0.37500000       0.44444444       0.33333333 </v>
    <v>       0.50000000       0.44444444       0.33333333 </v>
   </varray>
   <varray name="weights" >
    <v>       0.00462963 </v>
    <v>       0.00925926 </v>
    <v>       0.00925926 </v>
    <v>       0.00925926 </v>
    <v>       0.00462963 </v>
    <v>       0.00925926 </v>
    <v>       0.01851852 </v>
    <v>       0.01851852 </v>
    <v>       0.01851852 </v>
    <v>       0.00925926 </v>
    <v>       0.00925926 </v>
    <v>       0.01851852 </v>
    <v>       0.01851852 </v>
    <v>       0.01851852 </v>
    <v>       0.00925926 </v>
    <v>       0.00925926 </v>
    <v>       0.01851852 </v>
    <v>       0.01851852 </v>
    <v>       0.01851852 </v>
    <v>       0.00925926 </v>
    <v>       0.00925926 </v>
    <v>       0.01851852 </v>
    <v>       0.01851852 </v>
    <v>       0.01851852 </v>
    <v>       0.00925926 </v>
    <v>       0.00925926 </v>
    <v>       0.01851852 </v>
    <v>       0.01851852 </v>
    <v>       0.01851852 </v>
    <v>       0.00925926 </v>
    <v>       0.01851852 </v>
    <v>       0.03703704 </v>
    <v>       0.03703704 </v>
    <v>       0.03703704 </v>
    <v>       0.01851852 </v>
    <v>       0.01851852 </v>
    <v>       0.03703704 </v>
    <v>       0.03703704 </v>
    <v>       0.03703704 </v>
    <v>       0.01851852 </v>
    <v>       0.01851852 </v>
    <v>       0.03703704 </v>
    <v>       0.03703704 </v>
    <v>       0.03703704 </v>
    <v>       0.01851852 </v>
    <v>       0.01851852 </v>
    <v>       0.03703704 </v>
    <v>       0.03703704 </v>
    <v>       0.03703704 </v>
    <v>       0.01851852 </v>
   </varray>
  </kpoints>
  <scstep>
   <time name="total">    1.57    1.06</time>
   <energy>
    <i name="e_fr_energy">     -3.82125775 </i>
    <i name="e_wo_entrp">     -3.82125775 </i>
    <i name="e_0_energy">     -3.82125775 </i>
   </energy>
  </scstep>
  <scstep>
   <time name="total">    2.22    1.35</time>
   <energy>
    <i name="e_fr_energy">    -16.55037255 </i>
    <i name="e_wo_entrp">    -16.55037255 </i>
    <i name="e_0_energy">    -16.55037255 </i>
   </energy>
  </scstep>
  <scstep>
   <time name="total">    2.11    1.33</time>
   <energy>
    <i name="e_fr_energy">    -16.26620680 </i>
    <i name="e_wo_entrp">    -16.26620680 </i>
    <i name="e_0_energy">    -16.26620680 </i>
   </energy>
  </scstep>
  <scstep>
   <time name="total">    2.11    1.33</time>
   <energy>
    <i name="e_fr_energy">    -16.67842114 </i>
    <i name="e_wo_entrp">    -16.67842114 </i>
    <i name="e_0_energy">    -16.67842114 </i>
   </energy>
  </scstep>
  <scstep>
   <time name="total">    2.13    1.37</time>
   <energy>
    <i name="e_fr_energy">    -16.79235689 </i>
    <i name="e_wo_entrp">    -16.79235689 </i>
    <i name="e_0_energy">    -16.79235689 </i>
   </energy>
  </scstep>
  <scstep>
   <time name="total">    2.24    1.41</time>
   <energy>
    <i name="e_fr_energy">    -16.81306584 </i>
    <i name="e_wo_entrp">    -16.81306584 </i>
    <i name="e_0_energy">    -16.81306584 </i>
   </energy>
  </scstep>
  <scstep>
   <time name="total">    2.15    1.35</time>
   <energy>
    <i name="e_fr_energy">    -16.80823978 </i>
    <i name="e_wo_entrp">    -16.80823978 </i>
    <i name="e_0_energy">    -16.80823978 </i>
   </energy>
  </scstep>
  <scstep>
   <time name="total">    2.27    1.42</time>
   <energy>
    <i name="e_fr_energy">    -16.81506846 </i>
    <i name="e_wo_entrp">    -16.81506846 </i>
    <i name="e_0_energy">    -16.81506846 </i>
   </energy>
  </scstep>
  <scstep>
   <time name="total">    2.23    1.39</time>
   <energy>
    <i name="e_fr_energy">    -16.81324116 </i>
    <i name="e_wo_entrp">    -16.81324116 </i>
    <i name="e_0_energy">    -16.81324116 </i>
   </energy>
  </scstep>
  <scstep>
   <time name="total">    2.23    1.39</time>
   <energy>
    <i name="e_fr_energy">    -16.81426741 </i>
    <i name="e_wo_entrp">    -16.81426741 </i>
    <i name="e_0_energy">    -16.81426741 </i>
   </energy>
  </scstep>
  <scstep>
   <time name="total">    2.26    1.40</time>
   <energy>
    <i name="e_fr_energy">    -16.81093679 </i>
    <i name="e_wo_entrp">    -16.81093679 </i>
    <i name="e_0_energy">    -16.81093679 </i>
   </energy>
  </scstep>
  <scstep>
   <time name="total">    2.24    1.39</time>
   <energy>
    <i name="e_fr_energy">    -16.81313942 </i>
    <i name="e_wo_entrp">    -16.81313942 </i>
    <i name="e_0_energy">    -16.81313942 </i>
   </energy>
  </scstep>
  <scstep>
   <time name="total">    2.21    1.38</time>
   <energy>
    <i name="e_fr_energy">    -16.81377498 </i>
    <i name="e_wo_entrp">    -16.81377498 </i>
    <i name="e_0_energy">    -16.81377498 </i>
   </energy>
  </scstep>
  <scstep>
   <time name="total">    2.15    1.35</time>
   <energy>
    <i name="e_fr_energy">    -16.81243131 </i>
    <i name="e_wo_entrp">    -16.81243131 </i>
    <i name="e_0_energy">    -16.81243131 </i>
   </energy>
  </scstep>
  <scstep>
   <time name="total">    2.11    1.33</time>
   <energy>
    <i name="e_fr_energy">    -16.81309378 </i>
    <i name="e_wo_entrp">    -16.81309378 </i>
    <i name="e_0_energy">    -16.81309378 </i>
   </energy>
  </scstep>
  <scstep>
   <time name="total">    2.10    1.32</time>
   <energy>
    <i name="e_fr_energy">    -16.81319845 </i>
    <i name="e_wo_entrp">    -16.81319845 </i>
    <i name="e_0_energy">    -16.81319845 </i>
   </energy>
  </scstep>
  <scstep>
   <time name="total">    2.08    1.31</time>
   <energy>
    <i name="e_fr_energy">    -16.81323569 </i>
    <i name="e_wo_entrp">    -16.81323569 </i>
    <i name="e_0_energy">    -16.81323569 </i>
   </energy>
  </scstep>
  <scstep>
   <time name="total">    2.06    1.30</time>
   <energy>
    <i name="e_fr_energy">    -16.81316146 </i>
    <i name="e_wo_entrp">    -16.81316146 </i>
    <i name="e_0_energy">    -16.81316146 </i>
   </energy>
  </scstep>
  <scstep>
   <time name="total">    2.09    1.32</time>
   <energy>
    <i name="e_fr_energy">    -16.81402678 </i>
    <i name="e_wo_entrp">    -16.81402678 </i>
    <i name="e_0_energy">    -16.81402678 </i>
   </energy>
  </scstep>
  <scstep>
   <time name="total">    2.08    1.31</time>
   <energy>
    <i name="e_fr_energy">    -16.81364093 </i>
    <i name="e_wo_entrp">    -16.81364093 </i>
    <i name="e_0_energy">    -16.81364093 </i>
   </energy>
  </scstep>
  <scstep>
   <time name="total">    2.07    1.31</time>
   <energy>
    <i name="e_fr_energy">    -16.81286177 </i>
    <i name="e_wo_entrp">    -16.81286177 </i>
    <i name="e_0_energy">    -16.81286177 </i>
   </energy>
  </scstep>
  <scstep>
   <time name="total">    2.07    1.31</time>
   <energy>
    <i name="e_fr_energy">    -16.81365802 </i>
    <i name="e_wo_entrp">    -16.81365802 </i>
    <i name="e_0_energy">    -16.81365802 </i>
   </energy>
  </scstep>
  <scstep>
   <time name="total">    2.11    1.33</time>
   <energy>
    <i name="e_fr_energy">    -16.81357865 </i>
    <i name="e_wo_entrp">    -16.81357865 </i>
    <i name="e_0_energy">    -16.81357865 </i>
   </energy>
  </scstep>
  <scstep>
   <time name="total">    2.09    1.32</time>
   <energy>
    <i name="e_fr_energy">    -16.81452140 </i>
    <i name="e_wo_entrp">    -16.81452140 </i>
    <i name="e_0_energy">    -16.81452140 </i>
   </energy>
  </scstep>
  <scstep>
   <time name="total">    2.07    1.31</time>
   <energy>
    <i name="e_fr_energy">    -16.81343013 </i>
    <i name="e_wo_entrp">    -16.81343013 </i>
    <i name="e_0_energy">    -16.81343013 </i>
   </energy>
  </scstep>
  <scstep>
   <time name="total">    2.12    1.33</time>
   <energy>
    <i name="e_fr_energy">    -16.81341482 </i>
    <i name="e_wo_entrp">    -16.81341482 </i>
    <i name="e_0_energy">    -16.81341482 </i>
   </energy>
  </scstep>
  <scstep>
   <time name="total">    2.10    1.32</time>
   <energy>
    <i name="e_fr_energy">    -16.81377949 </i>
    <i name="e_wo_entrp">    -16.81377949 </i>
    <i name="e_0_energy">    -16.81377949 </i>
   </energy>
  </scstep>
  <scstep>
   <time name="total">    2.11    1.33</time>
   <energy>
    <i name="e_fr_energy">    -16.81350193 </i>
    <i name="e_wo_entrp">    -16.81350193 </i>
    <i name="e_0_energy">    -16.81350193 </i>
   </energy>
  </scstep>
  <scstep>
   <time name="total">    2.10    1.32</time>
   <energy>
    <i name="e_fr_energy">    -16.81436420 </i>
    <i name="e_wo_entrp">    -16.81436420 </i>
    <i name="e_0_energy">    -16.81436420 </i>
   </energy>
  </scstep>
  <scstep>
   <time name="total">    2.17    1.36</time>
   <energy>
    <i name="e_fr_energy">    -16.81372630 </i>
    <i name="e_wo_entrp">    -16.81372630 </i>
    <i name="e_0_energy">    -16.81372630 </i>
   </energy>
  </scstep>
  <scstep>
   <time name="total">    2.09    1.32</time>
   <energy>
    <i name="e_fr_energy">    -16.81299191 </i>
    <i name="e_wo_entrp">    -16.81299191 </i>
    <i name="e_0_energy">    -16.81299191 </i>
   </energy>
  </scstep>
  <scstep>
   <time name="total">    2.12    1.33</time>
   <energy>
    <i name="e_fr_energy">    -16.81337664 </i>
    <i name="e_wo_entrp">    -16.81337664 </i>
    <i name="e_0_energy">    -16.81337664 </i>
   </energy>
  </scstep>
  <scstep>
   <time name="total">    2.09    1.32</time>
   <energy>
    <i name="e_fr_energy">    -16.81554355 </i>
    <i name="e_wo_entrp">    -16.81554355 </i>
    <i name="e_0_energy">    -16.81554355 </i>
   </energy>
  </scstep>
  <scstep>
   <time name="total">    2.12    1.33</time>
   <energy>
    <i name="e_fr_energy">    -16.81375130 </i>
    <i name="e_wo_entrp">    -16.81375130 </i>
    <i name="e_0_energy">    -16.81375130 </i>
   </energy>
  </scstep>
  <scstep>
   <time name="total">    2.11    1.33</time>
   <energy>
    <i name="e_fr_energy">    -16.81305821 </i>
    <i name="e_wo_entrp">    -16.81305821 </i>
    <i name="e_0_energy">    -16.81305821 </i>
   </energy>
  </scstep>
  <scstep>
   <time name="total">    2.14    1.34</time>
   <energy>
    <i name="e_fr_energy">    -16.81357622 </i>
    <i name="e_wo_entrp">    -16.81357622 </i>
    <i name="e_0_energy">    -16.81357622 </i>
   </energy>
  </scstep>
  <kpoints>
   <generation param="Gamma">
    <v type="int" name="divisions">       8        9        3 </v>
    <v name="usershift">      0.00000000       0.00000000       0.00000000 </v>
    <v name="genvec1">      0.12500000       0.00000000       0.00000000 </v>
    <v name="genvec2">      0.00000000       0.11111111       0.00000000 </v>
    <v name="genvec3">      0.00000000       0.00000000       0.33333333 </v>
    <v name="shift">      0.00000000       0.00000000       0.00000000 </v>
   </generation>
   <varray name="kpointlist" >
    <v>       0.00000000       0.00000000       0.00000000 </v>
    <v>       0.12500000       0.00000000       0.00000000 </v>
    <v>       0.25000000       0.00000000       0.00000000 </v>
    <v>       0.37500000       0.00000000       0.00000000 </v>
    <v>       0.50000000       0.00000000       0.00000000 </v>
    <v>       0.00000000       0.11111111       0.00000000 </v>
    <v>       0.12500000       0.11111111       0.00000000 </v>
    <v>       0.25000000       0.11111111       0.00000000 </v>
    <v>       0.37500000       0.11111111       0.00000000 </v>
    <v>       0.50000000       0.11111111       0.00000000 </v>
    <v>       0.00000000       0.22222222       0.00000000 </v>
    <v>       0.12500000       0.22222222       0.00000000 </v>
    <v>       0.25000000       0.22222222       0.00000000 </v>
    <v>       0.37500000       0.22222222       0.00000000 </v>
    <v>       0.50000000       0.22222222       0.00000000 </v>
    <v>       0.00000000       0.33333333       0.00000000 </v>
    <v>       0.12500000       0.33333333       0.00000000 </v>
    <v>       0.25000000       0.33333333       0.00000000 </v>
    <v>       0.37500000       0.33333333       0.00000000 </v>
    <v>       0.50000000       0.33333333       0.00000000 </v>
    <v>       0.00000000       0.44444444       0.00000000 </v>
    <v>       0.12500000       0.44444444       0.00000000 </v>
    <v>       0.25000000       0.44444444       0.00000000 </v>
    <v>       0.37500000       0.44444444       0.00000000 </v>
    <v>       0.50000000       0.44444444       0.00000000 </v>
    <v>       0.00000000       0.00000000       0.33333333 </v>
    <v>       0.12500000       0.00000000       0.33333333 </v>
    <v>       0.25000000       0.00000000       0.33333333 </v>
    <v>       0.37500000       0.00000000       0.33333333 </v>
    <v>       0.50000000       0.00000000       0.33333333 </v>
    <v>       0.00000000       0.11111111       0.33333333 </v>
    <v>       0.12500000       0.11111111       0.33333333 </v>
    <v>       0.25000000       0.11111111       0.33333333 </v>
    <v>       0.37500000       0.11111111       0.33333333 </v>
    <v>       0.50000000       0.11111111       0.33333333 </v>
    <v>       0.00000000       0.22222222       0.33333333 </v>
    <v>       0.12500000       0.22222222       0.33333333 </v>
    <v>       0.25000000       0.22222222       0.33333333 </v>
    <v>       0.37500000       0.22222222       0.33333333 </v>
    <v>       0.50000000       0.22222222       0.33333333 </v>
    <v>       0.00000000       0.33333333       0.33333333 </v>
    <v>       0.12500000       0.33333333       0.33333333 </v>
    <v>       0.25000000       0.33333333       0.33333333 </v>
    <v>       0.37500000       0.33333333       0.33333333 </v>
    <v>       0.50000000       0.33333333       0.33333333 </v>
    <v>       0.00000000       0.44444444       0.33333333 </v>
    <v>       0.12500000       0.44444444       0.33333333 </v>
    <v>       0.25000000       0.44444444       0.33333333 </v>
    <v>       0.37500000       0.44444444       0.33333333 </v>
    <v>       0.50000000       0.44444444       0.33333333 </v>
   </varray>
   <varray name="weights" >
    <v>       0.00462963 </v>
    <v>       0.00925926 </v>
    <v>       0.00925926 </v>
    <v>       0.00925926 </v>
    <v>       0.00462963 </v>
    <v>       0.00925926 </v>
    <v>       0.01851852 </v>
    <v>       0.01851852 </v>
    <v>       0.01851852 </v>
    <v>       0.00925926 </v>
    <v>       0.00925926 </v>
    <v>       0.01851852 </v>
    <v>       0.01851852 </v>
    <v>       0.01851852 </v>
    <v>       0.00925926 </v>
    <v>       0.00925926 </v>
    <v>       0.01851852 </v>
    <v>       0.01851852 </v>
    <v>       0.01851852 </v>
    <v>       0.00925926 </v>
    <v>       0.00925926 </v>
    <v>       0.01851852 </v>
    <v>       0.01851852 </v>
    <v>       0.01851852 </v>
    <v>       0.00925926 </v>
    <v>       0.00925926 </v>
    <v>       0.01851852 </v>
    <v>       0.01851852 </v>
    <v>       0.01851852 </v>
    <v>       0.00925926 </v>
    <v>       0.01851852 </v>
    <v>       0.03703704 </v>
    <v>       0.03703704 </v>
    <v>       0.03703704 </v>
    <v>       0.01851852 </v>
    <v>       0.01851852 </v>
    <v>       0.03703704 </v>
    <v>       0.03703704 </v>
    <v>       0.03703704 </v>
    <v>       0.01851852 </v>
    <v>       0.01851852 </v>
    <v>       0.03703704 </v>
    <v>       0.03703704 </v>
    <v>       0.03703704 </v>
    <v>       0.01851852 </v>
    <v>       0.01851852 </v>
    <v>       0.03703704 </v>
    <v>       0.03703704 </v>
    <v>       0.03703704 </v>
    <v>       0.01851852 </v>
   </varray>
  </kpoints>
  <scstep>
   <time name="total">    1.58    1.07</time>
   <energy>
    <i name="e_fr_energy">     -3.89391666 </i>
    <i name="e_wo_entrp">     -3.89391666 </i>
    <i name="e_0_energy">     -3.89391666 </i>
   </energy>
  </scstep>
  <scstep>
   <time name="total">    2.25    1.36</time>
   <energy>
    <i name="e_fr_energy">    -15.36798866 </i>
    <i name="e_wo_entrp">    -15.36798866 </i>
    <i name="e_0_energy">    -15.36798866 </i>
   </energy>
  </scstep>
  <scstep>
   <time name="total">    2.15    1.37</time>
   <energy>
    <i name="e_fr_energy">    -14.93903201 </i>
    <i name="e_wo_entrp">    -14.93903201 </i>
    <i name="e_0_energy">    -14.93903201 </i>
   </energy>
  </scstep>
  <scstep>
   <time name="total">    2.16    1.37</time>
   <energy>
    <i name="e_fr_energy">    -15.08425404 </i>
    <i name="e_wo_entrp">    -15.08425404 </i>
    <i name="e_0_energy">    -15.08425404 </i>
   </energy>
  </scstep>
  <scstep>
   <time name="total">    2.19    1.37</time>
   <energy>
    <i name="e_fr_energy">    -15.23968404 </i>
    <i name="e_wo_entrp">    -15.23968404 </i>
    <i name="e_0_energy">    -15.23968404 </i>
   </energy>
  </scstep>
  <scstep>
   <time name="total">    2.22    1.39</time>
   <energy>
    <i name="e_fr_energy">    -15.31370103 </i>
    <i name="e_wo_entrp">    -15.31370103 </i>
    <i name="e_0_energy">    -15.31370103 </i>
   </energy>
  </scstep>
  <scstep>
   <time name="total">    2.27    1.41</time>
   <energy>
    <i name="e_fr_energy">    -15.31244051 </i>
    <i name="e_wo_entrp">    -15.31244051 </i>
    <i name="e_0_energy">    -15.31244051 </i>
   </energy>
  </scstep>
  <scstep>
   <time name="total">    2.26    1.41</time>
   <energy>
    <i name="e_fr_energy">    -15.31464632 </i>
    <i name="e_wo_entrp">    -15.31464632 </i>
    <i name="e_0_energy">    -15.31464632 </i>
   </energy>
  </scstep>
  <scstep>
   <time name="total">    2.23    1.39</time>
   <energy>
    <i name="e_fr_energy">    -15.31134281 </i>
    <i name="e_wo_entrp">    -15.31134281 </i>
    <i name="e_0_energy">    -15.31134281 </i>
   </energy>
  </scstep>
  <scstep>
   <time name="total">    2.19    1.37</time>
   <energy>
    <i name="e_fr_energy">    -15.31025734 </i>
    <i name="e_wo_entrp">    -15.31025734 </i>
    <i name="e_0_energy">    -15.31025734 </i>
   </energy>
  </scstep>
  <scstep>
   <time name="total">    2.19    1.37</time>
   <energy>
    <i name="e_fr_energy">    -15.30616340 </i>
    <i name="e_wo_entrp">    -15.30616340 </i>
    <i name="e_0_energy">    -15.30616340 </i>
   </energy>
  </scstep>
  <scstep>
   <time name="total">    2.26    1.41</time>
   <energy>
    <i name="e_fr_energy">    -15.31193173 </i>
    <i name="e_wo_entrp">    -15.31193173 </i>
    <i name="e_0_energy">    -15.31193173 </i>
   </energy>
  </scstep>
  <scstep>
   <time name="total">    2.27    1.41</time>
   <energy>
    <i name="e_fr_energy">    -15.30679933 </i>
    <i name="e_wo_entrp">    -15.30679933 </i>
    <i name="e_0_energy">    -15.30679933 </i>
   </energy>
  </scstep>
  <scstep>
   <time name="total">    2.21    1.38</time>
   <energy>
    <i name="e_fr_energy">    -15.31320492 </i>
    <i name="e_wo_entrp">    -15.31320492 </i>
    <i name="e_0_energy">    -15.31320492 </i>
   </energy>
  </scstep>
  <scstep>
   <time name="total">    2.15    1.35</time>
   <energy>
    <i name="e_fr_energy">    -15.30835453 </i>
    <i name="e_wo_entrp">    -15.30835453 </i>
    <i name="e_0_energy">    -15.30835453 </i>
   </energy>
  </scstep>
  <scstep>
   <time name="total">    2.14    1.35</time>
   <energy>
    <i name="e_fr_energy">    -15.31015515 </i>
    <i name="e_wo_entrp">    -15.31015515 </i>
    <i name="e_0_energy">    -15.31015515 </i>
   </energy>
  </scstep>
  <scstep>
   <time name="total">    2.07    1.31</time>
   <energy>
    <i name="e_fr_energy">    -15.30985666 </i>
    <i name="e_wo_entrp">    -15.30985666 </i>
    <i name="e_0_energy">    -15.30985666 </i>
   </energy>
  </scstep>
  <scstep>
   <time name="total">    2.07    1.31</time>
   <energy>
    <i name="e_fr_energy">    -15.31321326 </i>
    <i name="e_wo_entrp">    -15.31321326 </i>
    <i name="e_0_energy">    -15.31321326 </i>
   </energy>
  </scstep>
  <scstep>
   <time name="total">    2.08    1.32</time>
   <energy>
    <i name="e_fr_energy">    -15.30754226 </i>
    <i name="e_wo_entrp">    -15.30754226 </i>
    <i name="e_0_energy">    -15.30754226 </i>
   </energy>
  </scstep>
  <scstep>
   <time name="total">    2.07    1.31</time>
   <energy>
    <i name="e_fr_energy">    -15.30909582 </i>
    <i name="e_wo_entrp">    -15.30909582 </i>
    <i name="e_0_energy">    -15.30909582 </i>
   </energy>
  </scstep>
  <scstep>
   <time name="total">    2.07    1.31</time>
   <energy>
    <i name="e_fr_energy">    -15.30836270 </i>
    <i name="e_wo_entrp">    -15.30836270 </i>
    <i name="e_0_energy">    -15.30836270 </i>
   </energy>
  </scstep>
  <scstep>
   <time name="total">    2.07    1.31</time>
   <energy>
    <i name="e_fr_energy">    -15.31039314 </i>
    <i name="e_wo_entrp">    -15.31039314 </i>
    <i name="e_0_energy">    -15.31039314 </i>
   </energy>
  </scstep>
  <scstep>
   <time name="total">    2.08    1.32</time>
   <energy>
    <i name="e_fr_energy">    -15.31213385 </i>
    <i name="e_wo_entrp">    -15.31213385 </i>
    <i name="e_0_energy">    -15.31213385 </i>
   </energy>
  </scstep>
  <scstep>
   <time name="total">    2.08    1.32</time>
   <energy>
    <i name="e_fr_energy">    -15.30958248 </i>
    <i name="e_wo_entrp">    -15.30958248 </i>
    <i name="e_0_energy">    -15.30958248 </i>
   </energy>
  </scstep>
  <scstep>
   <time name="total">    2.09    1.32</time>
   <energy>
    <i name="e_fr_energy">    -15.30961511 </i>
    <i name="e_wo_entrp">    -15.30961511 </i>
    <i name="e_0_energy">    -15.30961511 </i>
   </energy>
  </scstep>
  <scstep>
   <time name="total">    2.12    1.34</time>
   <energy>
    <i name="e_fr_energy">    -15.30940998 </i>
    <i name="e_wo_entrp">    -15.30940998 </i>
    <i name="e_0_energy">    -15.30940998 </i>
   </energy>
  </scstep>
  <scstep>
   <time name="total">    2.11    1.33</time>
   <energy>
    <i name="e_fr_energy">    -15.31032070 </i>
    <i name="e_wo_entrp">    -15.31032070 </i>
    <i name="e_0_energy">    -15.31032070 </i>
   </energy>
  </scstep>
  <scstep>
   <time name="total">    2.12    1.34</time>
   <energy>
    <i name="e_fr_energy">    -15.31105025 </i>
    <i name="e_wo_entrp">    -15.31105025 </i>
    <i name="e_0_energy">    -15.31105025 </i>
   </energy>
  </scstep>
  <scstep>
   <time name="total">    2.11    1.33</time>
   <energy>
    <i name="e_fr_energy">    -15.30833132 </i>
    <i name="e_wo_entrp">    -15.30833132 </i>
    <i name="e_0_energy">    -15.30833132 </i>
   </energy>
  </scstep>
  <scstep>
   <time name="total">    2.09    1.33</time>
   <energy>
    <i name="e_fr_energy">    -15.31021330 </i>
    <i name="e_wo_entrp">    -15.31021330 </i>
    <i name="e_0_energy">    -15.31021330 </i>
   </energy>
  </scstep>
  <scstep>
   <time name="total">    2.12    1.34</time>
   <energy>
    <i name="e_fr_energy">    -15.30928118 </i>
    <i name="e_wo_entrp">    -15.30928118 </i>
    <i name="e_0_energy">    -15.30928118 </i>
   </energy>
  </scstep>
  <scstep>
   <time name="total">    2.12    1.34</time>
   <energy>
    <i name="e_fr_energy">    -15.31125926 </i>
    <i name="e_wo_entrp">    -15.31125926 </i>
    <i name="e_0_energy">    -15.31125926 </i>
   </energy>
  </scstep>
  <scstep>
   <time name="total">    2.13    1.34</time>
   <energy>
    <i name="e_fr_energy">    -15.31115112 </i>
    <i name="e_wo_entrp">    -15.31115112 </i>
    <i name="e_0_energy">    -15.31115112 </i>
   </energy>
  </scstep>
  <scstep>
   <time name="total">    2.13    1.34</time>
   <energy>
    <i name="e_fr_energy">    -15.30977667 </i>
    <i name="e_wo_entrp">    -15.30977667 </i>
    <i name="e_0_energy">    -15.30977667 </i>
   </energy>
  </scstep>
  <scstep>
   <time name="total">    2.12    1.34</time>
   <energy>
    <i name="e_fr_energy">    -15.31133846 </i>
    <i name="e_wo_entrp">    -15.31133846 </i>
    <i name="e_0_energy">    -15.31133846 </i>
   </energy>
  </scstep>
  <scstep>
   <time name="total">    2.13    1.34</time>
   <energy>
    <i name="e_fr_energy">    -15.31132436 </i>
    <i name="e_wo_entrp">    -15.31132436 </i>
    <i name="e_0_energy">    -15.31132436 </i>
   </energy>
  </scstep>
  <scstep>
   <time name="total">    2.13    1.34</time>
   <energy>
    <i name="e_fr_energy">    -15.31137665 </i>
    <i name="e_wo_entrp">    -15.31137665 </i>
    <i name="e_0_energy">    -15.31137665 </i>
   </energy>
  </scstep>
  <scstep>
   <time name="total">    2.12    1.34</time>
   <energy>
    <i name="e_fr_energy">    -15.31116076 </i>
    <i name="e_wo_entrp">    -15.31116076 </i>
    <i name="e_0_energy">    -15.31116076 </i>
   </energy>
  </scstep>
  <scstep>
   <time name="total">    2.14    1.35</time>
   <energy>
    <i name="e_fr_energy">    -15.31110336 </i>
    <i name="e_wo_entrp">    -15.31110336 </i>
    <i name="e_0_energy">    -15.31110336 </i>
   </energy>
  </scstep>
  <scstep>
   <time name="total">    2.12    1.34</time>
   <energy>
    <i name="e_fr_energy">    -15.31144935 </i>
    <i name="e_wo_entrp">    -15.31144935 </i>
    <i name="e_0_energy">    -15.31144935 </i>
   </energy>
  </scstep>
  <kpoints>
   <generation param="Gamma">
    <v type="int" name="divisions">       8        9        3 </v>
    <v name="usershift">      0.00000000       0.00000000       0.00000000 </v>
    <v name="genvec1">      0.12500000       0.00000000       0.00000000 </v>
    <v name="genvec2">      0.00000000       0.11111111       0.00000000 </v>
    <v name="genvec3">      0.00000000       0.00000000       0.33333333 </v>
    <v name="shift">      0.00000000       0.00000000       0.00000000 </v>
   </generation>
   <varray name="kpointlist" >
    <v>       0.00000000       0.00000000       0.00000000 </v>
    <v>       0.12500000       0.00000000       0.00000000 </v>
    <v>       0.25000000       0.00000000       0.00000000 </v>
    <v>       0.37500000       0.00000000       0.00000000 </v>
    <v>       0.50000000       0.00000000       0.00000000 </v>
    <v>       0.00000000       0.11111111       0.00000000 </v>
    <v>       0.12500000       0.11111111       0.00000000 </v>
    <v>       0.25000000       0.11111111       0.00000000 </v>
    <v>       0.37500000       0.11111111       0.00000000 </v>
    <v>       0.50000000       0.11111111       0.00000000 </v>
    <v>       0.00000000       0.22222222       0.00000000 </v>
    <v>       0.12500000       0.22222222       0.00000000 </v>
    <v>       0.25000000       0.22222222       0.00000000 </v>
    <v>       0.37500000       0.22222222       0.00000000 </v>
    <v>       0.50000000       0.22222222       0.00000000 </v>
    <v>       0.00000000       0.33333333       0.00000000 </v>
    <v>       0.12500000       0.33333333       0.00000000 </v>
    <v>       0.25000000       0.33333333       0.00000000 </v>
    <v>       0.37500000       0.33333333       0.00000000 </v>
    <v>       0.50000000       0.33333333       0.00000000 </v>
    <v>       0.00000000       0.44444444       0.00000000 </v>
    <v>       0.12500000       0.44444444       0.00000000 </v>
    <v>       0.25000000       0.44444444       0.00000000 </v>
    <v>       0.37500000       0.44444444       0.00000000 </v>
    <v>       0.50000000       0.44444444       0.00000000 </v>
    <v>       0.00000000       0.00000000       0.33333333 </v>
    <v>       0.12500000       0.00000000       0.33333333 </v>
    <v>       0.25000000       0.00000000       0.33333333 </v>
    <v>       0.37500000       0.00000000       0.33333333 </v>
    <v>       0.50000000       0.00000000       0.33333333 </v>
    <v>       0.00000000       0.11111111       0.33333333 </v>
    <v>       0.12500000       0.11111111       0.33333333 </v>
    <v>       0.25000000       0.11111111       0.33333333 </v>
    <v>       0.37500000       0.11111111       0.33333333 </v>
    <v>       0.50000000       0.11111111       0.33333333 </v>
    <v>       0.00000000       0.22222222       0.33333333 </v>
    <v>       0.12500000       0.22222222       0.33333333 </v>
    <v>       0.25000000       0.22222222       0.33333333 </v>
    <v>       0.37500000       0.22222222       0.33333333 </v>
    <v>       0.50000000       0.22222222       0.33333333 </v>
    <v>       0.00000000       0.33333333       0.33333333 </v>
    <v>       0.12500000       0.33333333       0.33333333 </v>
    <v>       0.25000000       0.33333333       0.33333333 </v>
    <v>       0.37500000       0.33333333       0.33333333 </v>
    <v>       0.50000000       0.33333333       0.33333333 </v>
    <v>       0.00000000       0.44444444       0.33333333 </v>
    <v>       0.12500000       0.44444444       0.33333333 </v>
    <v>       0.25000000       0.44444444       0.33333333 </v>
    <v>       0.37500000       0.44444444       0.33333333 </v>
    <v>       0.50000000       0.44444444       0.33333333 </v>
   </varray>
   <varray name="weights" >
    <v>       0.00462963 </v>
    <v>       0.00925926 </v>
    <v>       0.00925926 </v>
    <v>       0.00925926 </v>
    <v>       0.00462963 </v>
    <v>       0.00925926 </v>
    <v>       0.01851852 </v>
    <v>       0.01851852 </v>
    <v>       0.01851852 </v>
    <v>       0.00925926 </v>
    <v>       0.00925926 </v>
    <v>       0.01851852 </v>
    <v>       0.01851852 </v>
    <v>       0.01851852 </v>
    <v>       0.00925926 </v>
    <v>       0.00925926 </v>
    <v>       0.01851852 </v>
    <v>       0.01851852 </v>
    <v>       0.01851852 </v>
    <v>       0.00925926 </v>
    <v>       0.00925926 </v>
    <v>       0.01851852 </v>
    <v>       0.01851852 </v>
    <v>       0.01851852 </v>
    <v>       0.00925926 </v>
    <v>       0.00925926 </v>
    <v>       0.01851852 </v>
    <v>       0.01851852 </v>
    <v>       0.01851852 </v>
    <v>       0.00925926 </v>
    <v>       0.01851852 </v>
    <v>       0.03703704 </v>
    <v>       0.03703704 </v>
    <v>       0.03703704 </v>
    <v>       0.01851852 </v>
    <v>       0.01851852 </v>
    <v>       0.03703704 </v>
    <v>       0.03703704 </v>
    <v>       0.03703704 </v>
    <v>       0.01851852 </v>
    <v>       0.01851852 </v>
    <v>       0.03703704 </v>
    <v>       0.03703704 </v>
    <v>       0.03703704 </v>
    <v>       0.01851852 </v>
    <v>       0.01851852 </v>
    <v>       0.03703704 </v>
    <v>       0.03703704 </v>
    <v>       0.03703704 </v>
    <v>       0.01851852 </v>
   </varray>
  </kpoints>
  <varray name="dielectric_dft" >
   <v>      24.16538058       0.00000000       0.00000000 </v>
   <v>      -0.00000000      29.40296597       0.00000000 </v>
   <v>       0.00000000       0.00000000      27.28504027 </v>
  </varray>
  <varray name="epsilon" >
   <v>      24.16538058       0.00000000       0.00000000 </v>
   <v>      -0.00000000      29.40296597       0.00000000 </v>
   <v>       0.00000000       0.00000000      27.28504027 </v>
  </varray>
  <kpoints>
   <generation param="Gamma">
    <v type="int" name="divisions">       8        9        3 </v>
    <v name="usershift">      0.00000000       0.00000000       0.00000000 </v>
    <v name="genvec1">      0.12500000       0.00000000       0.00000000 </v>
    <v name="genvec2">      0.00000000       0.11111111       0.00000000 </v>
    <v name="genvec3">      0.00000000       0.00000000       0.33333333 </v>
    <v name="shift">      0.00000000       0.00000000       0.00000000 </v>
   </generation>
   <varray name="kpointlist" >
    <v>       0.00000000       0.00000000       0.00000000 </v>
    <v>       0.12500000       0.00000000       0.00000000 </v>
    <v>       0.25000000       0.00000000       0.00000000 </v>
    <v>       0.37500000       0.00000000       0.00000000 </v>
    <v>       0.50000000       0.00000000       0.00000000 </v>
    <v>       0.00000000       0.11111111       0.00000000 </v>
    <v>       0.12500000       0.11111111       0.00000000 </v>
    <v>       0.25000000       0.11111111       0.00000000 </v>
    <v>       0.37500000       0.11111111       0.00000000 </v>
    <v>       0.50000000       0.11111111       0.00000000 </v>
    <v>       0.00000000       0.22222222       0.00000000 </v>
    <v>       0.12500000       0.22222222       0.00000000 </v>
    <v>       0.25000000       0.22222222       0.00000000 </v>
    <v>       0.37500000       0.22222222       0.00000000 </v>
    <v>       0.50000000       0.22222222       0.00000000 </v>
    <v>       0.00000000       0.33333333       0.00000000 </v>
    <v>       0.12500000       0.33333333       0.00000000 </v>
    <v>       0.25000000       0.33333333       0.00000000 </v>
    <v>       0.37500000       0.33333333       0.00000000 </v>
    <v>       0.50000000       0.33333333       0.00000000 </v>
    <v>       0.00000000       0.44444444       0.00000000 </v>
    <v>       0.12500000       0.44444444       0.00000000 </v>
    <v>       0.25000000       0.44444444       0.00000000 </v>
    <v>       0.37500000       0.44444444       0.00000000 </v>
    <v>       0.50000000       0.44444444       0.00000000 </v>
    <v>       0.00000000       0.00000000       0.33333333 </v>
    <v>       0.12500000       0.00000000       0.33333333 </v>
    <v>       0.25000000       0.00000000       0.33333333 </v>
    <v>       0.37500000       0.00000000       0.33333333 </v>
    <v>       0.50000000       0.00000000       0.33333333 </v>
    <v>       0.00000000       0.11111111       0.33333333 </v>
    <v>       0.12500000       0.11111111       0.33333333 </v>
    <v>       0.25000000       0.11111111       0.33333333 </v>
    <v>       0.37500000       0.11111111       0.33333333 </v>
    <v>       0.50000000       0.11111111       0.33333333 </v>
    <v>       0.00000000       0.22222222       0.33333333 </v>
    <v>       0.12500000       0.22222222       0.33333333 </v>
    <v>       0.25000000       0.22222222       0.33333333 </v>
    <v>       0.37500000       0.22222222       0.33333333 </v>
    <v>       0.50000000       0.22222222       0.33333333 </v>
    <v>       0.00000000       0.33333333       0.33333333 </v>
    <v>       0.12500000       0.33333333       0.33333333 </v>
    <v>       0.25000000       0.33333333       0.33333333 </v>
    <v>       0.37500000       0.33333333       0.33333333 </v>
    <v>       0.50000000       0.33333333       0.33333333 </v>
    <v>       0.00000000       0.44444444       0.33333333 </v>
    <v>       0.12500000       0.44444444       0.33333333 </v>
    <v>       0.25000000       0.44444444       0.33333333 </v>
    <v>       0.37500000       0.44444444       0.33333333 </v>
    <v>       0.50000000       0.44444444       0.33333333 </v>
   </varray>
   <varray name="weights" >
    <v>       0.00462963 </v>
    <v>       0.00925926 </v>
    <v>       0.00925926 </v>
    <v>       0.00925926 </v>
    <v>       0.00462963 </v>
    <v>       0.00925926 </v>
    <v>       0.01851852 </v>
    <v>       0.01851852 </v>
    <v>       0.01851852 </v>
    <v>       0.00925926 </v>
    <v>       0.00925926 </v>
    <v>       0.01851852 </v>
    <v>       0.01851852 </v>
    <v>       0.01851852 </v>
    <v>       0.00925926 </v>
    <v>       0.00925926 </v>
    <v>       0.01851852 </v>
    <v>       0.01851852 </v>
    <v>       0.01851852 </v>
    <v>       0.00925926 </v>
    <v>       0.00925926 </v>
    <v>       0.01851852 </v>
    <v>       0.01851852 </v>
    <v>       0.01851852 </v>
    <v>       0.00925926 </v>
    <v>       0.00925926 </v>
    <v>       0.01851852 </v>
    <v>       0.01851852 </v>
    <v>       0.01851852 </v>
    <v>       0.00925926 </v>
    <v>       0.01851852 </v>
    <v>       0.03703704 </v>
    <v>       0.03703704 </v>
    <v>       0.03703704 </v>
    <v>       0.01851852 </v>
    <v>       0.01851852 </v>
    <v>       0.03703704 </v>
    <v>       0.03703704 </v>
    <v>       0.03703704 </v>
    <v>       0.01851852 </v>
    <v>       0.01851852 </v>
    <v>       0.03703704 </v>
    <v>       0.03703704 </v>
    <v>       0.03703704 </v>
    <v>       0.01851852 </v>
    <v>       0.01851852 </v>
    <v>       0.03703704 </v>
    <v>       0.03703704 </v>
    <v>       0.03703704 </v>
    <v>       0.01851852 </v>
   </varray>
  </kpoints>
  <array name="born_charges" >
   <dimension dim="1">ion</dimension>
   <set>
    <v>       3.97819632      -0.00000000      -0.58750589 </v>
    <v>       0.00000000       4.56486094       0.00000000 </v>
    <v>       0.09615490       0.00000000       4.20764306 </v>
   </set>
   <set>
    <v>       3.97819632      -0.00000000       0.58750589 </v>
    <v>       0.00000000       4.56486094       0.00000000 </v>
    <v>      -0.09615490       0.00000000       4.20764306 </v>
   </set>
   <set>
    <v>       3.97819632      -0.00000000       0.58750589 </v>
    <v>       0.00000000       4.56486094       0.00000000 </v>
    <v>      -0.09615490       0.00000000       4.20764306 </v>
   </set>
   <set>
    <v>       3.97819632      -0.00000000      -0.58750589 </v>
    <v>       0.00000000       4.56486094       0.00000000 </v>
    <v>       0.09615490       0.00000000       4.20764306 </v>
   </set>
   <set>
    <v>      -3.97819632       0.00000000       0.58337096 </v>
    <v>       0.00000000      -4.56486094       0.00000000 </v>
    <v>       0.69220279       0.00000000      -4.20764306 </v>
   </set>
   <set>
    <v>      -3.97819632       0.00000000      -0.58337096 </v>
    <v>       0.00000000      -4.56486094       0.00000000 </v>
    <v>      -0.69220279       0.00000000      -4.20764306 </v>
   </set>
   <set>
    <v>      -3.97819632       0.00000000      -0.58337096 </v>
    <v>       0.00000000      -4.56486094       0.00000000 </v>
    <v>      -0.69220279       0.00000000      -4.20764306 </v>
   </set>
   <set>
    <v>      -3.97819632       0.00000000       0.58337096 </v>
    <v>       0.00000000      -4.56486094       0.00000000 </v>
    <v>       0.69220279       0.00000000      -4.20764306 </v>
   </set>
  </array>
  <time name="totalsc">  478.77  311.94</time>
  <eigenvalues>
   <array>
    <dimension dim="1">band</dimension>
    <dimension dim="2">kpoint</dimension>
    <dimension dim="3">spin</dimension>
    <field>eigene</field>
    <field>occ</field>
    <set>
     <set comment="spin 1">
      <set comment="kpoint 1">
       <r>  -15.4162    1.0000 </r>
       <r>  -15.3970    1.0000 </r>
       <r>  -15.3961    1.0000 </r>
       <r>  -15.3903    1.0000 </r>
       <r>  -15.3886    1.0000 </r>
       <r>  -15.3882    1.0000 </r>
       <r>  -15.3846    1.0000 </r>
       <r>  -15.3801    1.0000 </r>
       <r>  -15.3799    1.0000 </r>
       <r>  -15.3778    1.0000 </r>
       <r>  -15.3747    1.0000 </r>
       <r>  -15.3737    1.0000 </r>
       <r>  -15.3630    1.0000 </r>
       <r>  -15.3580    1.0000 </r>
       <r>  -15.3424    1.0000 </r>
       <r>  -15.3330    1.0000 </r>
       <r>  -15.3321    1.0000 </r>
       <r>  -15.3245    1.0000 </r>
       <r>  -15.3122    1.0000 </r>
       <r>  -15.3028    1.0000 </r>
       <r>   -8.1840    1.0000 </r>
       <r>   -7.7767    1.0000 </r>
       <r>   -7.0989    1.0000 </r>
       <r>   -6.5003    1.0000 </r>
       <r>   -1.4629    1.0000 </r>
       <r>   -0.2219    1.0000 </r>
       <r>    0.0374    1.0000 </r>
       <r>    0.8566    1.0000 </r>
       <r>    0.9770    1.0000 </r>
       <r>    2.3031    1.0000 </r>
       <r>    2.3220    1.0000 </r>
       <r>    2.4283    1.0000 </r>
       <r>    2.8973    1.0000 </r>
       <r>    2.9002    1.0000 </r>
       <r>    3.4236    1.0000 </r>
       <r>    3.9175    1.0000 </r>
       <r>    4.2228    1.0000 </r>
       <r>    4.5853    1.0000 </r>
       <r>    5.1478    1.0000 </r>
       <r>    5.2962    1.0000 </r>
       <r>    6.3291    0.0000 </r>
       <r>    8.7865    0.0000 </r>
       <r>    8.8815    0.0000 </r>
       <r>    8.9179    0.0000 </r>
       <r>    9.1786    0.0000 </r>
       <r>    9.3602    0.0000 </r>
       <r>   10.0897    0.0000 </r>
       <r>   10.4164    0.0000 </r>
       <r>   10.5188    0.0000 </r>
       <r>   10.7376    0.0000 </r>
       <r>   11.3561    0.0000 </r>
       <r>   11.8098    0.0000 </r>
       <r>   12.0445    0.0000 </r>
       <r>   12.0850    0.0000 </r>
       <r>   12.1493    0.0000 </r>
       <r>   12.6116    0.0000 </r>
       <r>   12.6776    0.0000 </r>
       <r>   13.5919    0.0000 </r>
       <r>   14.3870    0.0000 </r>
       <r>   14.4023    0.0000 </r>
       <r>   14.5362    0.0000 </r>
       <r>   14.6982    0.0000 </r>
       <r>   15.0152    0.0000 </r>
       <r>   15.0383    0.0000 </r>
      </set>
      <set comment="kpoint 2">
       <r>  -15.4150    1.0000 </r>
       <r>  -15.3972    1.0000 </r>
       <r>  -15.3949    1.0000 </r>
       <r>  -15.3895    1.0000 </r>
       <r>  -15.3895    1.0000 </r>
       <r>  -15.3891    1.0000 </r>
       <r>  -15.3849    1.0000 </r>
       <r>  -15.3807    1.0000 </r>
       <r>  -15.3788    1.0000 </r>
       <r>  -15.3778    1.0000 </r>
       <r>  -15.3755    1.0000 </r>
       <r>  -15.3716    1.0000 </r>
       <r>  -15.3619    1.0000 </r>
       <r>  -15.3583    1.0000 </r>
       <r>  -15.3425    1.0000 </r>
       <r>  -15.3328    1.0000 </r>
       <r>  -15.3326    1.0000 </r>
       <r>  -15.3250    1.0000 </r>
       <r>  -15.3118    1.0000 </r>
       <r>  -15.3031    1.0000 </r>
       <r>   -8.1096    1.0000 </r>
       <r>   -7.7091    1.0000 </r>
       <r>   -7.0770    1.0000 </r>
       <r>   -6.5099    1.0000 </r>
       <r>   -1.7470    1.0000 </r>
       <r>   -0.4169    1.0000 </r>
       <r>   -0.2242    1.0000 </r>
       <r>    0.4736    1.0000 </r>
       <r>    0.8587    1.0000 </r>
       <r>    2.3496    1.0000 </r>
       <r>    2.4335    1.0000 </r>
       <r>    2.8470    1.0000 </r>
       <r>    2.9980    1.0000 </r>
       <r>    3.4352    1.0000 </r>
       <r>    3.5070    1.0000 </r>
       <r>    3.9934    1.0000 </r>
       <r>    4.2721    1.0000 </r>
       <r>    4.9207    1.0000 </r>
       <r>    4.9700    1.0000 </r>
       <r>    5.3505    1.0000 </r>
       <r>    6.3478    0.0000 </r>
       <r>    8.2022    0.0000 </r>
       <r>    8.8508    0.0000 </r>
       <r>    8.9852    0.0000 </r>
       <r>    9.0679    0.0000 </r>
       <r>    9.1521    0.0000 </r>
       <r>    9.9713    0.0000 </r>
       <r>   10.2478    0.0000 </r>
       <r>   10.2780    0.0000 </r>
       <r>   10.4018    0.0000 </r>
       <r>   11.2903    0.0000 </r>
       <r>   11.2913    0.0000 </r>
       <r>   11.5614    0.0000 </r>
       <r>   12.0173    0.0000 </r>
       <r>   12.0984    0.0000 </r>
       <r>   12.6143    0.0000 </r>
       <r>   13.0582    0.0000 </r>
       <r>   13.6550    0.0000 </r>
       <r>   13.9895    0.0000 </r>
       <r>   14.5704    0.0000 </r>
       <r>   14.8743    0.0000 </r>
       <r>   15.3463    0.0000 </r>
       <r>   15.3963    0.0000 </r>
       <r>   15.6396    0.0000 </r>
      </set>
      <set comment="kpoint 3">
       <r>  -15.4117    1.0000 </r>
       <r>  -15.3980    1.0000 </r>
       <r>  -15.3923    1.0000 </r>
       <r>  -15.3923    1.0000 </r>
       <r>  -15.3913    1.0000 </r>
       <r>  -15.3878    1.0000 </r>
       <r>  -15.3846    1.0000 </r>
       <r>  -15.3821    1.0000 </r>
       <r>  -15.3780    1.0000 </r>
       <r>  -15.3777    1.0000 </r>
       <r>  -15.3750    1.0000 </r>
       <r>  -15.3666    1.0000 </r>
       <r>  -15.3607    1.0000 </r>
       <r>  -15.3581    1.0000 </r>
       <r>  -15.3424    1.0000 </r>
       <r>  -15.3345    1.0000 </r>
       <r>  -15.3314    1.0000 </r>
       <r>  -15.3260    1.0000 </r>
       <r>  -15.3108    1.0000 </r>
       <r>  -15.3041    1.0000 </r>
       <r>   -7.8995    1.0000 </r>
       <r>   -7.5178    1.0000 </r>
       <r>   -7.0450    1.0000 </r>
       <r>   -6.5603    1.0000 </r>
       <r>   -2.2689    1.0000 </r>
       <r>   -1.1031    1.0000 </r>
       <r>   -0.8149    1.0000 </r>
       <r>    0.0295    1.0000 </r>
       <r>    0.8753    1.0000 </r>
       <r>    2.6432    1.0000 </r>
       <r>    2.7532    1.0000 </r>
       <r>    3.2834    1.0000 </r>
       <r>    3.4707    1.0000 </r>
       <r>    3.7130    1.0000 </r>
       <r>    3.8844    1.0000 </r>
       <r>    4.3682    1.0000 </r>
       <r>    4.6244    1.0000 </r>
       <r>    4.7633    1.0000 </r>
       <r>    5.2853    1.0000 </r>
       <r>    5.5835    1.0000 </r>
       <r>    6.6802    0.0000 </r>
       <r>    7.1818    0.0000 </r>
       <r>    7.9191    0.0000 </r>
       <r>    8.0978    0.0000 </r>
       <r>    8.8619    0.0000 </r>
       <r>    8.9552    0.0000 </r>
       <r>    9.3297    0.0000 </r>
       <r>    9.4328    0.0000 </r>
       <r>   10.3331    0.0000 </r>
       <r>   10.5837    0.0000 </r>
       <r>   10.5956    0.0000 </r>
       <r>   11.1603    0.0000 </r>
       <r>   11.2431    0.0000 </r>
       <r>   12.2754    0.0000 </r>
       <r>   12.6814    0.0000 </r>
       <r>   12.6879    0.0000 </r>
       <r>   13.3205    0.0000 </r>
       <r>   13.5391    0.0000 </r>
       <r>   14.1319    0.0000 </r>
       <r>   14.7073    0.0000 </r>
       <r>   15.1910    0.0000 </r>
       <r>   15.5405    0.0000 </r>
       <r>   15.9253    0.0000 </r>
       <r>   16.2942    0.0000 </r>
      </set>
      <set comment="kpoint 4">
       <r>  -15.4073    1.0000 </r>
       <r>  -15.3998    1.0000 </r>
       <r>  -15.3948    1.0000 </r>
       <r>  -15.3942    1.0000 </r>
       <r>  -15.3898    1.0000 </r>
       <r>  -15.3871    1.0000 </r>
       <r>  -15.3838    1.0000 </r>
       <r>  -15.3835    1.0000 </r>
       <r>  -15.3797    1.0000 </r>
       <r>  -15.3786    1.0000 </r>
       <r>  -15.3697    1.0000 </r>
       <r>  -15.3622    1.0000 </r>
       <r>  -15.3616    1.0000 </r>
       <r>  -15.3571    1.0000 </r>
       <r>  -15.3410    1.0000 </r>
       <r>  -15.3365    1.0000 </r>
       <r>  -15.3298    1.0000 </r>
       <r>  -15.3272    1.0000 </r>
       <r>  -15.3092    1.0000 </r>
       <r>  -15.3056    1.0000 </r>
       <r>   -7.5979    1.0000 </r>
       <r>   -7.2398    1.0000 </r>
       <r>   -7.0927    1.0000 </r>
       <r>   -6.6979    1.0000 </r>
       <r>   -2.5906    1.0000 </r>
       <r>   -1.9472    1.0000 </r>
       <r>   -1.0633    1.0000 </r>
       <r>   -0.5698    1.0000 </r>
       <r>    1.3267    1.0000 </r>
       <r>    2.5387    1.0000 </r>
       <r>    3.2237    1.0000 </r>
       <r>    3.6950    1.0000 </r>
       <r>    3.8680    1.0000 </r>
       <r>    4.0738    1.0000 </r>
       <r>    4.1753    1.0000 </r>
       <r>    4.3573    1.0000 </r>
       <r>    4.6887    1.0000 </r>
       <r>    5.1689    1.0000 </r>
       <r>    5.6688    1.0000 </r>
       <r>    5.8692    1.0000 </r>
       <r>    6.6707    0.0000 </r>
       <r>    7.0746    0.0000 </r>
       <r>    7.2480    0.0000 </r>
       <r>    7.3337    0.0000 </r>
       <r>    7.9308    0.0000 </r>
       <r>    8.0203    0.0000 </r>
       <r>    8.6656    0.0000 </r>
       <r>    8.8889    0.0000 </r>
       <r>    9.3283    0.0000 </r>
       <r>    9.6063    0.0000 </r>
       <r>   11.4682    0.0000 </r>
       <r>   11.7704    0.0000 </r>
       <r>   12.4087    0.0000 </r>
       <r>   12.6973    0.0000 </r>
       <r>   13.1046    0.0000 </r>
       <r>   13.5960    0.0000 </r>
       <r>   13.6486    0.0000 </r>
       <r>   14.1537    0.0000 </r>
       <r>   14.2976    0.0000 </r>
       <r>   14.6484    0.0000 </r>
       <r>   14.7410    0.0000 </r>
       <r>   15.7160    0.0000 </r>
       <r>   16.5428    0.0000 </r>
       <r>   16.6320    0.0000 </r>
      </set>
      <set comment="kpoint 5">
       <r>  -15.4031    1.0000 </r>
       <r>  -15.4031    1.0000 </r>
       <r>  -15.3956    1.0000 </r>
       <r>  -15.3956    1.0000 </r>
       <r>  -15.3879    1.0000 </r>
       <r>  -15.3879    1.0000 </r>
       <r>  -15.3838    1.0000 </r>
       <r>  -15.3838    1.0000 </r>
       <r>  -15.3796    1.0000 </r>
       <r>  -15.3796    1.0000 </r>
       <r>  -15.3651    1.0000 </r>
       <r>  -15.3651    1.0000 </r>
       <r>  -15.3582    1.0000 </r>
       <r>  -15.3582    1.0000 </r>
       <r>  -15.3387    1.0000 </r>
       <r>  -15.3387    1.0000 </r>
       <r>  -15.3284    1.0000 </r>
       <r>  -15.3284    1.0000 </r>
       <r>  -15.3074    1.0000 </r>
       <r>  -15.3074    1.0000 </r>
       <r>   -7.2917    1.0000 </r>
       <r>   -7.2917    1.0000 </r>
       <r>   -6.9402    1.0000 </r>
       <r>   -6.9402    1.0000 </r>
       <r>   -2.4861    1.0000 </r>
       <r>   -2.4861    1.0000 </r>
       <r>   -0.9801    1.0000 </r>
       <r>   -0.9801    1.0000 </r>
       <r>    1.9490    1.0000 </r>
       <r>    1.9490    1.0000 </r>
       <r>    3.6909    1.0000 </r>
       <r>    3.6909    1.0000 </r>
       <r>    4.1087    1.0000 </r>
       <r>    4.1087    1.0000 </r>
       <r>    4.4329    1.0000 </r>
       <r>    4.4329    1.0000 </r>
       <r>    5.0190    1.0000 </r>
       <r>    5.0190    1.0000 </r>
       <r>    5.6345    1.0000 </r>
       <r>    5.6345    1.0000 </r>
       <r>    7.0734    0.0000 </r>
       <r>    7.0734    0.0000 </r>
       <r>    7.2570    0.0000 </r>
       <r>    7.2570    0.0000 </r>
       <r>    7.5586    0.0000 </r>
       <r>    7.5586    0.0000 </r>
       <r>    8.3656    0.0000 </r>
       <r>    8.3656    0.0000 </r>
       <r>    8.9608    0.0000 </r>
       <r>    8.9608    0.0000 </r>
       <r>   11.9215    0.0000 </r>
       <r>   11.9215    0.0000 </r>
       <r>   13.1159    0.0000 </r>
       <r>   13.1159    0.0000 </r>
       <r>   13.7884    0.0000 </r>
       <r>   13.7884    0.0000 </r>
       <r>   13.8965    0.0000 </r>
       <r>   13.8965    0.0000 </r>
       <r>   15.0940    0.0000 </r>
       <r>   15.0940    0.0000 </r>
       <r>   15.6077    0.0000 </r>
       <r>   15.6077    0.0000 </r>
       <r>   16.0163    0.0000 </r>
       <r>   16.0163    0.0000 </r>
      </set>
      <set comment="kpoint 6">
       <r>  -15.4125    1.0000 </r>
       <r>  -15.3946    1.0000 </r>
       <r>  -15.3941    1.0000 </r>
       <r>  -15.3896    1.0000 </r>
       <r>  -15.3890    1.0000 </r>
       <r>  -15.3889    1.0000 </r>
       <r>  -15.3888    1.0000 </r>
       <r>  -15.3828    1.0000 </r>
       <r>  -15.3791    1.0000 </r>
       <r>  -15.3773    1.0000 </r>
       <r>  -15.3768    1.0000 </r>
       <r>  -15.3712    1.0000 </r>
       <r>  -15.3609    1.0000 </r>
       <r>  -15.3582    1.0000 </r>
       <r>  -15.3408    1.0000 </r>
       <r>  -15.3337    1.0000 </r>
       <r>  -15.3309    1.0000 </r>
       <r>  -15.3260    1.0000 </r>
       <r>  -15.3127    1.0000 </r>
       <r>  -15.3043    1.0000 </r>
       <r>   -8.1120    1.0000 </r>
       <r>   -7.7157    1.0000 </r>
       <r>   -7.0609    1.0000 </r>
       <r>   -6.4986    1.0000 </r>
       <r>   -1.5775    1.0000 </r>
       <r>   -0.4722    1.0000 </r>
       <r>    0.0324    1.0000 </r>
       <r>    0.4281    1.0000 </r>
       <r>    0.8853    1.0000 </r>
       <r>    2.2216    1.0000 </r>
       <r>    2.5080    1.0000 </r>
       <r>    2.6219    1.0000 </r>
       <r>    2.8836    1.0000 </r>
       <r>    2.9800    1.0000 </r>
       <r>    3.6246    1.0000 </r>
       <r>    3.9540    1.0000 </r>
       <r>    4.2368    1.0000 </r>
       <r>    4.8298    1.0000 </r>
       <r>    5.1656    1.0000 </r>
       <r>    5.2341    1.0000 </r>
       <r>    6.4450    0.0000 </r>
       <r>    8.3185    0.0000 </r>
       <r>    8.8388    0.0000 </r>
       <r>    9.0660    0.0000 </r>
       <r>    9.1797    0.0000 </r>
       <r>    9.3021    0.0000 </r>
       <r>    9.7781    0.0000 </r>
       <r>   10.1567    0.0000 </r>
       <r>   10.2542    0.0000 </r>
       <r>   10.6648    0.0000 </r>
       <r>   11.0973    0.0000 </r>
       <r>   11.3982    0.0000 </r>
       <r>   11.7765    0.0000 </r>
       <r>   11.7813    0.0000 </r>
       <r>   12.2786    0.0000 </r>
       <r>   12.3682    0.0000 </r>
       <r>   12.6059    0.0000 </r>
       <r>   13.9260    0.0000 </r>
       <r>   14.1324    0.0000 </r>
       <r>   14.4956    0.0000 </r>
       <r>   15.1092    0.0000 </r>
       <r>   15.2018    0.0000 </r>
       <r>   15.2508    0.0000 </r>
       <r>   15.4041    0.0000 </r>
      </set>
      <set comment="kpoint 7">
       <r>  -15.4116    1.0000 </r>
       <r>  -15.3943    1.0000 </r>
       <r>  -15.3936    1.0000 </r>
       <r>  -15.3908    1.0000 </r>
       <r>  -15.3898    1.0000 </r>
       <r>  -15.3883    1.0000 </r>
       <r>  -15.3881    1.0000 </r>
       <r>  -15.3834    1.0000 </r>
       <r>  -15.3792    1.0000 </r>
       <r>  -15.3792    1.0000 </r>
       <r>  -15.3747    1.0000 </r>
       <r>  -15.3694    1.0000 </r>
       <r>  -15.3604    1.0000 </r>
       <r>  -15.3580    1.0000 </r>
       <r>  -15.3410    1.0000 </r>
       <r>  -15.3332    1.0000 </r>
       <r>  -15.3316    1.0000 </r>
       <r>  -15.3263    1.0000 </r>
       <r>  -15.3123    1.0000 </r>
       <r>  -15.3046    1.0000 </r>
       <r>   -8.0386    1.0000 </r>
       <r>   -7.6492    1.0000 </r>
       <r>   -7.0390    1.0000 </r>
       <r>   -6.5061    1.0000 </r>
       <r>   -1.7941    1.0000 </r>
       <r>   -0.5644    1.0000 </r>
       <r>   -0.2623    1.0000 </r>
       <r>    0.2875    1.0000 </r>
       <r>    0.8033    1.0000 </r>
       <r>    1.9989    1.0000 </r>
       <r>    2.1642    1.0000 </r>
       <r>    3.1702    1.0000 </r>
       <r>    3.2165    1.0000 </r>
       <r>    3.3492    1.0000 </r>
       <r>    3.4031    1.0000 </r>
       <r>    4.0425    1.0000 </r>
       <r>    4.5060    1.0000 </r>
       <r>    4.9996    1.0000 </r>
       <r>    5.2325    1.0000 </r>
       <r>    5.3169    1.0000 </r>
       <r>    6.4780    0.0000 </r>
       <r>    7.8088    0.0000 </r>
       <r>    8.4164    0.0000 </r>
       <r>    8.7433    0.0000 </r>
       <r>    8.9958    0.0000 </r>
       <r>    9.2929    0.0000 </r>
       <r>    9.5980    0.0000 </r>
       <r>    9.9706    0.0000 </r>
       <r>   10.2631    0.0000 </r>
       <r>   10.8796    0.0000 </r>
       <r>   10.9902    0.0000 </r>
       <r>   11.3446    0.0000 </r>
       <r>   11.5818    0.0000 </r>
       <r>   12.1151    0.0000 </r>
       <r>   12.3387    0.0000 </r>
       <r>   12.7034    0.0000 </r>
       <r>   12.9397    0.0000 </r>
       <r>   13.9621    0.0000 </r>
       <r>   14.1972    0.0000 </r>
       <r>   14.5156    0.0000 </r>
       <r>   14.8092    0.0000 </r>
       <r>   15.0188    0.0000 </r>
       <r>   15.2453    0.0000 </r>
       <r>   15.5479    0.0000 </r>
      </set>
      <set comment="kpoint 8">
       <r>  -15.4090    1.0000 </r>
       <r>  -15.3954    1.0000 </r>
       <r>  -15.3936    1.0000 </r>
       <r>  -15.3931    1.0000 </r>
       <r>  -15.3906    1.0000 </r>
       <r>  -15.3869    1.0000 </r>
       <r>  -15.3868    1.0000 </r>
       <r>  -15.3847    1.0000 </r>
       <r>  -15.3812    1.0000 </r>
       <r>  -15.3795    1.0000 </r>
       <r>  -15.3717    1.0000 </r>
       <r>  -15.3648    1.0000 </r>
       <r>  -15.3604    1.0000 </r>
       <r>  -15.3566    1.0000 </r>
       <r>  -15.3408    1.0000 </r>
       <r>  -15.3332    1.0000 </r>
       <r>  -15.3320    1.0000 </r>
       <r>  -15.3272    1.0000 </r>
       <r>  -15.3114    1.0000 </r>
       <r>  -15.3055    1.0000 </r>
       <r>   -7.8316    1.0000 </r>
       <r>   -7.4618    1.0000 </r>
       <r>   -7.0062    1.0000 </r>
       <r>   -6.5496    1.0000 </r>
       <r>   -2.2262    1.0000 </r>
       <r>   -1.0726    1.0000 </r>
       <r>   -0.8126    1.0000 </r>
       <r>   -0.0602    1.0000 </r>
       <r>    0.9537    1.0000 </r>
       <r>    1.9919    1.0000 </r>
       <r>    2.1556    1.0000 </r>
       <r>    3.2043    1.0000 </r>
       <r>    3.5686    1.0000 </r>
       <r>    3.6288    1.0000 </r>
       <r>    4.0093    1.0000 </r>
       <r>    4.0690    1.0000 </r>
       <r>    4.8312    1.0000 </r>
       <r>    5.1058    1.0000 </r>
       <r>    5.3443    1.0000 </r>
       <r>    5.5408    1.0000 </r>
       <r>    6.7958    0.0000 </r>
       <r>    7.2825    0.0000 </r>
       <r>    7.5210    0.0000 </r>
       <r>    7.6928    0.0000 </r>
       <r>    8.8688    0.0000 </r>
       <r>    8.9541    0.0000 </r>
       <r>    9.2967    0.0000 </r>
       <r>    9.8466    0.0000 </r>
       <r>   10.3671    0.0000 </r>
       <r>   10.5866    0.0000 </r>
       <r>   10.9487    0.0000 </r>
       <r>   11.4185    0.0000 </r>
       <r>   11.7769    0.0000 </r>
       <r>   11.9641    0.0000 </r>
       <r>   12.7672    0.0000 </r>
       <r>   13.0618    0.0000 </r>
       <r>   13.5406    0.0000 </r>
       <r>   13.9835    0.0000 </r>
       <r>   14.0140    0.0000 </r>
       <r>   14.4057    0.0000 </r>
       <r>   14.7993    0.0000 </r>
       <r>   15.5595    0.0000 </r>
       <r>   15.7439    0.0000 </r>
       <r>   16.2177    0.0000 </r>
      </set>
      <set comment="kpoint 9">
       <r>  -15.4056    1.0000 </r>
       <r>  -15.3985    1.0000 </r>
       <r>  -15.3952    1.0000 </r>
       <r>  -15.3950    1.0000 </r>
       <r>  -15.3899    1.0000 </r>
       <r>  -15.3881    1.0000 </r>
       <r>  -15.3856    1.0000 </r>
       <r>  -15.3846    1.0000 </r>
       <r>  -15.3818    1.0000 </r>
       <r>  -15.3802    1.0000 </r>
       <r>  -15.3676    1.0000 </r>
       <r>  -15.3615    1.0000 </r>
       <r>  -15.3599    1.0000 </r>
       <r>  -15.3556    1.0000 </r>
       <r>  -15.3394    1.0000 </r>
       <r>  -15.3351    1.0000 </r>
       <r>  -15.3305    1.0000 </r>
       <r>  -15.3282    1.0000 </r>
       <r>  -15.3099    1.0000 </r>
       <r>  -15.3068    1.0000 </r>
       <r>   -7.5364    1.0000 </r>
       <r>   -7.1914    1.0000 </r>
       <r>   -7.0497    1.0000 </r>
       <r>   -6.6754    1.0000 </r>
       <r>   -2.5040    1.0000 </r>
       <r>   -1.8716    1.0000 </r>
       <r>   -0.9990    1.0000 </r>
       <r>   -0.5535    1.0000 </r>
       <r>    1.3936    1.0000 </r>
       <r>    2.2207    1.0000 </r>
       <r>    2.4255    1.0000 </r>
       <r>    3.2981    1.0000 </r>
       <r>    3.3790    1.0000 </r>
       <r>    3.6390    1.0000 </r>
       <r>    4.1153    1.0000 </r>
       <r>    4.4419    1.0000 </r>
       <r>    5.0034    1.0000 </r>
       <r>    5.1279    1.0000 </r>
       <r>    5.4289    1.0000 </r>
       <r>    5.5039    1.0000 </r>
       <r>    6.9337    0.0000 </r>
       <r>    7.0948    0.0000 </r>
       <r>    7.1837    0.0000 </r>
       <r>    7.4890    0.0000 </r>
       <r>    8.3577    0.0000 </r>
       <r>    8.4815    0.0000 </r>
       <r>    8.7837    0.0000 </r>
       <r>    9.4913    0.0000 </r>
       <r>    9.9376    0.0000 </r>
       <r>   10.2576    0.0000 </r>
       <r>   11.3721    0.0000 </r>
       <r>   11.6414    0.0000 </r>
       <r>   11.9671    0.0000 </r>
       <r>   12.7402    0.0000 </r>
       <r>   12.8866    0.0000 </r>
       <r>   13.2030    0.0000 </r>
       <r>   14.0435    0.0000 </r>
       <r>   14.3486    0.0000 </r>
       <r>   14.3984    0.0000 </r>
       <r>   14.8420    0.0000 </r>
       <r>   15.3297    0.0000 </r>
       <r>   15.6920    0.0000 </r>
       <r>   16.7784    0.0000 </r>
       <r>   16.8911    0.0000 </r>
      </set>
      <set comment="kpoint 10">
       <r>  -15.4020    1.0000 </r>
       <r>  -15.4020    1.0000 </r>
       <r>  -15.3958    1.0000 </r>
       <r>  -15.3958    1.0000 </r>
       <r>  -15.3893    1.0000 </r>
       <r>  -15.3893    1.0000 </r>
       <r>  -15.3850    1.0000 </r>
       <r>  -15.3850    1.0000 </r>
       <r>  -15.3809    1.0000 </r>
       <r>  -15.3809    1.0000 </r>
       <r>  -15.3639    1.0000 </r>
       <r>  -15.3639    1.0000 </r>
       <r>  -15.3566    1.0000 </r>
       <r>  -15.3566    1.0000 </r>
       <r>  -15.3372    1.0000 </r>
       <r>  -15.3372    1.0000 </r>
       <r>  -15.3292    1.0000 </r>
       <r>  -15.3292    1.0000 </r>
       <r>  -15.3083    1.0000 </r>
       <r>  -15.3083    1.0000 </r>
       <r>   -7.2397    1.0000 </r>
       <r>   -7.2397    1.0000 </r>
       <r>   -6.9035    1.0000 </r>
       <r>   -6.9035    1.0000 </r>
       <r>   -2.3926    1.0000 </r>
       <r>   -2.3926    1.0000 </r>
       <r>   -0.9172    1.0000 </r>
       <r>   -0.9172    1.0000 </r>
       <r>    1.9439    1.0000 </r>
       <r>    1.9439    1.0000 </r>
       <r>    2.9856    1.0000 </r>
       <r>    2.9856    1.0000 </r>
       <r>    3.4069    1.0000 </r>
       <r>    3.4069    1.0000 </r>
       <r>    4.2838    1.0000 </r>
       <r>    4.2838    1.0000 </r>
       <r>    5.2382    1.0000 </r>
       <r>    5.2382    1.0000 </r>
       <r>    5.3968    1.0000 </r>
       <r>    5.3968    1.0000 </r>
       <r>    6.8802    0.0000 </r>
       <r>    6.8802    0.0000 </r>
       <r>    7.3062    0.0000 </r>
       <r>    7.3062    0.0000 </r>
       <r>    8.5299    0.0000 </r>
       <r>    8.5299    0.0000 </r>
       <r>    8.8609    0.0000 </r>
       <r>    8.8609    0.0000 </r>
       <r>    9.6816    0.0000 </r>
       <r>    9.6816    0.0000 </r>
       <r>   11.7658    0.0000 </r>
       <r>   11.7658    0.0000 </r>
       <r>   12.2224    0.0000 </r>
       <r>   12.2224    0.0000 </r>
       <r>   13.7445    0.0000 </r>
       <r>   13.7445    0.0000 </r>
       <r>   14.5102    0.0000 </r>
       <r>   14.5102    0.0000 </r>
       <r>   15.4147    0.0000 </r>
       <r>   15.4147    0.0000 </r>
       <r>   15.7072    0.0000 </r>
       <r>   15.7072    0.0000 </r>
       <r>   16.2155    0.0000 </r>
       <r>   16.2155    0.0000 </r>
      </set>
      <set comment="kpoint 11">
       <r>  -15.4029    1.0000 </r>
       <r>  -15.3951    1.0000 </r>
       <r>  -15.3927    1.0000 </r>
       <r>  -15.3907    1.0000 </r>
       <r>  -15.3906    1.0000 </r>
       <r>  -15.3897    1.0000 </r>
       <r>  -15.3860    1.0000 </r>
       <r>  -15.3855    1.0000 </r>
       <r>  -15.3820    1.0000 </r>
       <r>  -15.3812    1.0000 </r>
       <r>  -15.3733    1.0000 </r>
       <r>  -15.3663    1.0000 </r>
       <r>  -15.3592    1.0000 </r>
       <r>  -15.3568    1.0000 </r>
       <r>  -15.3367    1.0000 </r>
       <r>  -15.3358    1.0000 </r>
       <r>  -15.3306    1.0000 </r>
       <r>  -15.3279    1.0000 </r>
       <r>  -15.3135    1.0000 </r>
       <r>  -15.3081    1.0000 </r>
       <r>   -7.9042    1.0000 </r>
       <r>   -7.5440    1.0000 </r>
       <r>   -6.9675    1.0000 </r>
       <r>   -6.5185    1.0000 </r>
       <r>   -1.8641    1.0000 </r>
       <r>   -0.9819    1.0000 </r>
       <r>   -0.4321    1.0000 </r>
       <r>   -0.1871    1.0000 </r>
       <r>    0.8838    1.0000 </r>
       <r>    2.4018    1.0000 </r>
       <r>    2.7421    1.0000 </r>
       <r>    2.9112    1.0000 </r>
       <r>    2.9652    1.0000 </r>
       <r>    3.2039    1.0000 </r>
       <r>    3.9351    1.0000 </r>
       <r>    4.0832    1.0000 </r>
       <r>    4.3112    1.0000 </r>
       <r>    5.0407    1.0000 </r>
       <r>    5.1825    1.0000 </r>
       <r>    5.4442    1.0000 </r>
       <r>    6.7203    0.0000 </r>
       <r>    7.0658    0.0000 </r>
       <r>    8.3948    0.0000 </r>
       <r>    8.5280    0.0000 </r>
       <r>    8.6044    0.0000 </r>
       <r>    9.1761    0.0000 </r>
       <r>    9.2796    0.0000 </r>
       <r>    9.7571    0.0000 </r>
       <r>   10.4372    0.0000 </r>
       <r>   10.6198    0.0000 </r>
       <r>   10.7043    0.0000 </r>
       <r>   10.8923    0.0000 </r>
       <r>   11.4679    0.0000 </r>
       <r>   11.4994    0.0000 </r>
       <r>   12.1483    0.0000 </r>
       <r>   12.6737    0.0000 </r>
       <r>   13.1481    0.0000 </r>
       <r>   13.4851    0.0000 </r>
       <r>   14.7047    0.0000 </r>
       <r>   14.7838    0.0000 </r>
       <r>   15.3733    0.0000 </r>
       <r>   15.3869    0.0000 </r>
       <r>   15.5653    0.0000 </r>
       <r>   16.1371    0.0000 </r>
      </set>
      <set comment="kpoint 12">
       <r>  -15.4036    1.0000 </r>
       <r>  -15.3951    1.0000 </r>
       <r>  -15.3944    1.0000 </r>
       <r>  -15.3914    1.0000 </r>
       <r>  -15.3899    1.0000 </r>
       <r>  -15.3895    1.0000 </r>
       <r>  -15.3859    1.0000 </r>
       <r>  -15.3851    1.0000 </r>
       <r>  -15.3828    1.0000 </r>
       <r>  -15.3814    1.0000 </r>
       <r>  -15.3721    1.0000 </r>
       <r>  -15.3646    1.0000 </r>
       <r>  -15.3599    1.0000 </r>
       <r>  -15.3555    1.0000 </r>
       <r>  -15.3370    1.0000 </r>
       <r>  -15.3351    1.0000 </r>
       <r>  -15.3307    1.0000 </r>
       <r>  -15.3285    1.0000 </r>
       <r>  -15.3132    1.0000 </r>
       <r>  -15.3082    1.0000 </r>
       <r>   -7.8339    1.0000 </r>
       <r>   -7.4813    1.0000 </r>
       <r>   -6.9452    1.0000 </r>
       <r>   -6.5186    1.0000 </r>
       <r>   -1.9369    1.0000 </r>
       <r>   -0.9385    1.0000 </r>
       <r>   -0.5330    1.0000 </r>
       <r>   -0.2810    1.0000 </r>
       <r>    0.9495    1.0000 </r>
       <r>    1.7268    1.0000 </r>
       <r>    2.0477    1.0000 </r>
       <r>    2.9315    1.0000 </r>
       <r>    3.3689    1.0000 </r>
       <r>    3.6095    1.0000 </r>
       <r>    3.6932    1.0000 </r>
       <r>    4.0723    1.0000 </r>
       <r>    4.7726    1.0000 </r>
       <r>    5.0769    1.0000 </r>
       <r>    5.2301    1.0000 </r>
       <r>    5.4611    1.0000 </r>
       <r>    6.7634    0.0000 </r>
       <r>    7.1416    0.0000 </r>
       <r>    7.6813    0.0000 </r>
       <r>    7.8056    0.0000 </r>
       <r>    8.9392    0.0000 </r>
       <r>    9.0363    0.0000 </r>
       <r>    9.6458    0.0000 </r>
       <r>    9.9093    0.0000 </r>
       <r>   10.4796    0.0000 </r>
       <r>   10.5681    0.0000 </r>
       <r>   10.7342    0.0000 </r>
       <r>   11.4144    0.0000 </r>
       <r>   11.4343    0.0000 </r>
       <r>   12.4305    0.0000 </r>
       <r>   12.4602    0.0000 </r>
       <r>   12.9312    0.0000 </r>
       <r>   13.3402    0.0000 </r>
       <r>   13.8724    0.0000 </r>
       <r>   13.9809    0.0000 </r>
       <r>   14.3616    0.0000 </r>
       <r>   14.7695    0.0000 </r>
       <r>   15.5172    0.0000 </r>
       <r>   15.7044    0.0000 </r>
       <r>   15.9563    0.0000 </r>
      </set>
      <set comment="kpoint 13">
       <r>  -15.4055    1.0000 </r>
       <r>  -15.3987    1.0000 </r>
       <r>  -15.3946    1.0000 </r>
       <r>  -15.3933    1.0000 </r>
       <r>  -15.3906    1.0000 </r>
       <r>  -15.3887    1.0000 </r>
       <r>  -15.3867    1.0000 </r>
       <r>  -15.3837    1.0000 </r>
       <r>  -15.3824    1.0000 </r>
       <r>  -15.3815    1.0000 </r>
       <r>  -15.3692    1.0000 </r>
       <r>  -15.3604    1.0000 </r>
       <r>  -15.3604    1.0000 </r>
       <r>  -15.3535    1.0000 </r>
       <r>  -15.3368    1.0000 </r>
       <r>  -15.3339    1.0000 </r>
       <r>  -15.3309    1.0000 </r>
       <r>  -15.3299    1.0000 </r>
       <r>  -15.3125    1.0000 </r>
       <r>  -15.3087    1.0000 </r>
       <r>   -7.6379    1.0000 </r>
       <r>   -7.3065    1.0000 </r>
       <r>   -6.9088    1.0000 </r>
       <r>   -6.5393    1.0000 </r>
       <r>   -2.1221    1.0000 </r>
       <r>   -1.0295    1.0000 </r>
       <r>   -0.8683    1.0000 </r>
       <r>   -0.3800    1.0000 </r>
       <r>    1.1868    1.0000 </r>
       <r>    1.2955    1.0000 </r>
       <r>    1.5566    1.0000 </r>
       <r>    2.7060    1.0000 </r>
       <r>    2.8174    1.0000 </r>
       <r>    3.7870    1.0000 </r>
       <r>    3.9061    1.0000 </r>
       <r>    4.2884    1.0000 </r>
       <r>    4.6886    1.0000 </r>
       <r>    4.9415    1.0000 </r>
       <r>    5.0511    1.0000 </r>
       <r>    5.3137    1.0000 </r>
       <r>    6.7431    0.0000 </r>
       <r>    7.1931    0.0000 </r>
       <r>    7.8454    0.0000 </r>
       <r>    8.2888    0.0000 </r>
       <r>    8.5178    0.0000 </r>
       <r>    8.9724    0.0000 </r>
       <r>    9.3143    0.0000 </r>
       <r>   10.3382    0.0000 </r>
       <r>   10.8370    0.0000 </r>
       <r>   10.9499    0.0000 </r>
       <r>   11.0134    0.0000 </r>
       <r>   11.4351    0.0000 </r>
       <r>   11.6913    0.0000 </r>
       <r>   12.7381    0.0000 </r>
       <r>   12.9902    0.0000 </r>
       <r>   13.2440    0.0000 </r>
       <r>   13.8140    0.0000 </r>
       <r>   13.9058    0.0000 </r>
       <r>   14.1793    0.0000 </r>
       <r>   14.7114    0.0000 </r>
       <r>   15.1696    0.0000 </r>
       <r>   15.3712    0.0000 </r>
       <r>   16.0505    0.0000 </r>
       <r>   16.1547    0.0000 </r>
      </set>
      <set comment="kpoint 14">
       <r>  -15.4071    1.0000 </r>
       <r>  -15.4035    1.0000 </r>
       <r>  -15.3955    1.0000 </r>
       <r>  -15.3951    1.0000 </r>
       <r>  -15.3912    1.0000 </r>
       <r>  -15.3879    1.0000 </r>
       <r>  -15.3877    1.0000 </r>
       <r>  -15.3849    1.0000 </r>
       <r>  -15.3802    1.0000 </r>
       <r>  -15.3799    1.0000 </r>
       <r>  -15.3659    1.0000 </r>
       <r>  -15.3611    1.0000 </r>
       <r>  -15.3559    1.0000 </r>
       <r>  -15.3524    1.0000 </r>
       <r>  -15.3355    1.0000 </r>
       <r>  -15.3326    1.0000 </r>
       <r>  -15.3318    1.0000 </r>
       <r>  -15.3308    1.0000 </r>
       <r>  -15.3115    1.0000 </r>
       <r>  -15.3094    1.0000 </r>
       <r>   -7.3640    1.0000 </r>
       <r>   -7.0608    1.0000 </r>
       <r>   -6.9375    1.0000 </r>
       <r>   -6.6272    1.0000 </r>
       <r>   -2.2552    1.0000 </r>
       <r>   -1.6626    1.0000 </r>
       <r>   -0.8440    1.0000 </r>
       <r>   -0.5613    1.0000 </r>
       <r>    1.3632    1.0000 </r>
       <r>    1.5566    1.0000 </r>
       <r>    1.5835    1.0000 </r>
       <r>    2.5160    1.0000 </r>
       <r>    2.6307    1.0000 </r>
       <r>    3.2974    1.0000 </r>
       <r>    3.4331    1.0000 </r>
       <r>    4.0777    1.0000 </r>
       <r>    4.3350    1.0000 </r>
       <r>    4.8187    1.0000 </r>
       <r>    4.8286    1.0000 </r>
       <r>    5.3085    1.0000 </r>
       <r>    6.5359    0.0000 </r>
       <r>    7.7923    0.0000 </r>
       <r>    7.9393    0.0000 </r>
       <r>    8.8469    0.0000 </r>
       <r>    9.0022    0.0000 </r>
       <r>    9.3130    0.0000 </r>
       <r>    9.5403    0.0000 </r>
       <r>   10.5014    0.0000 </r>
       <r>   10.6251    0.0000 </r>
       <r>   11.0129    0.0000 </r>
       <r>   11.1096    0.0000 </r>
       <r>   11.5473    0.0000 </r>
       <r>   11.5939    0.0000 </r>
       <r>   11.8960    0.0000 </r>
       <r>   12.9415    0.0000 </r>
       <r>   13.7325    0.0000 </r>
       <r>   14.0187    0.0000 </r>
       <r>   14.5269    0.0000 </r>
       <r>   15.0506    0.0000 </r>
       <r>   15.7027    0.0000 </r>
       <r>   15.8545    0.0000 </r>
       <r>   16.2579    0.0000 </r>
       <r>   16.4029    0.0000 </r>
       <r>   16.8644    0.0000 </r>
      </set>
      <set comment="kpoint 15">
       <r>  -15.4066    1.0000 </r>
       <r>  -15.4066    1.0000 </r>
       <r>  -15.3963    1.0000 </r>
       <r>  -15.3963    1.0000 </r>
       <r>  -15.3896    1.0000 </r>
       <r>  -15.3896    1.0000 </r>
       <r>  -15.3865    1.0000 </r>
       <r>  -15.3865    1.0000 </r>
       <r>  -15.3792    1.0000 </r>
       <r>  -15.3792    1.0000 </r>
       <r>  -15.3629    1.0000 </r>
       <r>  -15.3629    1.0000 </r>
       <r>  -15.3530    1.0000 </r>
       <r>  -15.3530    1.0000 </r>
       <r>  -15.3334    1.0000 </r>
       <r>  -15.3334    1.0000 </r>
       <r>  -15.3315    1.0000 </r>
       <r>  -15.3315    1.0000 </r>
       <r>  -15.3103    1.0000 </r>
       <r>  -15.3103    1.0000 </r>
       <r>   -7.0982    1.0000 </r>
       <r>   -7.0982    1.0000 </r>
       <r>   -6.8109    1.0000 </r>
       <r>   -6.8109    1.0000 </r>
       <r>   -2.1194    1.0000 </r>
       <r>   -2.1194    1.0000 </r>
       <r>   -0.7612    1.0000 </r>
       <r>   -0.7612    1.0000 </r>
       <r>    1.6980    1.0000 </r>
       <r>    1.6980    1.0000 </r>
       <r>    1.9760    1.0000 </r>
       <r>    1.9760    1.0000 </r>
       <r>    2.7621    1.0000 </r>
       <r>    2.7621    1.0000 </r>
       <r>    3.5038    1.0000 </r>
       <r>    3.5038    1.0000 </r>
       <r>    4.5088    1.0000 </r>
       <r>    4.5088    1.0000 </r>
       <r>    5.0091    1.0000 </r>
       <r>    5.0091    1.0000 </r>
       <r>    7.0758    0.0000 </r>
       <r>    7.0758    0.0000 </r>
       <r>    8.6185    0.0000 </r>
       <r>    8.6185    0.0000 </r>
       <r>    9.6287    0.0000 </r>
       <r>    9.6287    0.0000 </r>
       <r>   10.1859    0.0000 </r>
       <r>   10.1859    0.0000 </r>
       <r>   10.5594    0.0000 </r>
       <r>   10.5594    0.0000 </r>
       <r>   11.2428    0.0000 </r>
       <r>   11.2428    0.0000 </r>
       <r>   11.6325    0.0000 </r>
       <r>   11.6325    0.0000 </r>
       <r>   13.2151    0.0000 </r>
       <r>   13.2151    0.0000 </r>
       <r>   15.2740    0.0000 </r>
       <r>   15.2740    0.0000 </r>
       <r>   15.7355    0.0000 </r>
       <r>   15.7355    0.0000 </r>
       <r>   16.0883    0.0000 </r>
       <r>   16.0883    0.0000 </r>
       <r>   17.0489    0.0000 </r>
       <r>   17.0489    0.0000 </r>
      </set>
      <set comment="kpoint 16">
       <r>  -15.4001    1.0000 </r>
       <r>  -15.3964    1.0000 </r>
       <r>  -15.3958    1.0000 </r>
       <r>  -15.3928    1.0000 </r>
       <r>  -15.3886    1.0000 </r>
       <r>  -15.3874    1.0000 </r>
       <r>  -15.3859    1.0000 </r>
       <r>  -15.3852    1.0000 </r>
       <r>  -15.3836    1.0000 </r>
       <r>  -15.3763    1.0000 </r>
       <r>  -15.3707    1.0000 </r>
       <r>  -15.3621    1.0000 </r>
       <r>  -15.3598    1.0000 </r>
       <r>  -15.3524    1.0000 </r>
       <r>  -15.3395    1.0000 </r>
       <r>  -15.3378    1.0000 </r>
       <r>  -15.3308    1.0000 </r>
       <r>  -15.3238    1.0000 </r>
       <r>  -15.3143    1.0000 </r>
       <r>  -15.3126    1.0000 </r>
       <r>   -7.5868    1.0000 </r>
       <r>   -7.2990    1.0000 </r>
       <r>   -6.8823    1.0000 </r>
       <r>   -6.6229    1.0000 </r>
       <r>   -2.1494    1.0000 </r>
       <r>   -1.3816    1.0000 </r>
       <r>   -1.2832    1.0000 </r>
       <r>   -0.7007    1.0000 </r>
       <r>    1.2266    1.0000 </r>
       <r>    2.7052    1.0000 </r>
       <r>    2.9595    1.0000 </r>
       <r>    3.1432    1.0000 </r>
       <r>    3.2359    1.0000 </r>
       <r>    3.4971    1.0000 </r>
       <r>    4.1050    1.0000 </r>
       <r>    4.2176    1.0000 </r>
       <r>    4.5888    1.0000 </r>
       <r>    4.9676    1.0000 </r>
       <r>    5.1177    1.0000 </r>
       <r>    5.7483    1.0000 </r>
       <r>    6.3230    0.0000 </r>
       <r>    7.0894    0.0000 </r>
       <r>    7.5416    0.0000 </r>
       <r>    7.6115    0.0000 </r>
       <r>    7.8350    0.0000 </r>
       <r>    8.3624    0.0000 </r>
       <r>    8.4200    0.0000 </r>
       <r>    9.2802    0.0000 </r>
       <r>    9.6860    0.0000 </r>
       <r>    9.9018    0.0000 </r>
       <r>   10.7450    0.0000 </r>
       <r>   11.1233    0.0000 </r>
       <r>   12.1158    0.0000 </r>
       <r>   12.6835    0.0000 </r>
       <r>   12.8275    0.0000 </r>
       <r>   13.1252    0.0000 </r>
       <r>   14.0079    0.0000 </r>
       <r>   14.1033    0.0000 </r>
       <r>   14.1578    0.0000 </r>
       <r>   14.6567    0.0000 </r>
       <r>   15.3640    0.0000 </r>
       <r>   15.4868    0.0000 </r>
       <r>   15.8739    0.0000 </r>
       <r>   16.4871    0.0000 </r>
      </set>
      <set comment="kpoint 17">
       <r>  -15.4033    1.0000 </r>
       <r>  -15.3993    1.0000 </r>
       <r>  -15.3962    1.0000 </r>
       <r>  -15.3941    1.0000 </r>
       <r>  -15.3883    1.0000 </r>
       <r>  -15.3866    1.0000 </r>
       <r>  -15.3854    1.0000 </r>
       <r>  -15.3838    1.0000 </r>
       <r>  -15.3827    1.0000 </r>
       <r>  -15.3764    1.0000 </r>
       <r>  -15.3700    1.0000 </r>
       <r>  -15.3623    1.0000 </r>
       <r>  -15.3585    1.0000 </r>
       <r>  -15.3516    1.0000 </r>
       <r>  -15.3390    1.0000 </r>
       <r>  -15.3374    1.0000 </r>
       <r>  -15.3309    1.0000 </r>
       <r>  -15.3244    1.0000 </r>
       <r>  -15.3141    1.0000 </r>
       <r>  -15.3126    1.0000 </r>
       <r>   -7.5235    1.0000 </r>
       <r>   -7.2438    1.0000 </r>
       <r>   -6.8577    1.0000 </r>
       <r>   -6.6089    1.0000 </r>
       <r>   -2.1057    1.0000 </r>
       <r>   -1.2890    1.0000 </r>
       <r>   -1.2229    1.0000 </r>
       <r>   -0.7374    1.0000 </r>
       <r>    1.3141    1.0000 </r>
       <r>    1.8192    1.0000 </r>
       <r>    2.2071    1.0000 </r>
       <r>    2.9685    1.0000 </r>
       <r>    3.4373    1.0000 </r>
       <r>    3.4921    1.0000 </r>
       <r>    4.0343    1.0000 </r>
       <r>    4.0600    1.0000 </r>
       <r>    4.6506    1.0000 </r>
       <r>    5.0353    1.0000 </r>
       <r>    5.1284    1.0000 </r>
       <r>    5.2316    1.0000 </r>
       <r>    6.9057    0.0000 </r>
       <r>    7.0019    0.0000 </r>
       <r>    7.0800    0.0000 </r>
       <r>    7.4325    0.0000 </r>
       <r>    8.4790    0.0000 </r>
       <r>    8.8419    0.0000 </r>
       <r>    9.0732    0.0000 </r>
       <r>    9.4182    0.0000 </r>
       <r>   10.1423    0.0000 </r>
       <r>   10.5867    0.0000 </r>
       <r>   10.8562    0.0000 </r>
       <r>   11.0051    0.0000 </r>
       <r>   11.7087    0.0000 </r>
       <r>   12.9118    0.0000 </r>
       <r>   13.0034    0.0000 </r>
       <r>   13.1697    0.0000 </r>
       <r>   13.8123    0.0000 </r>
       <r>   14.1436    0.0000 </r>
       <r>   14.2826    0.0000 </r>
       <r>   14.7258    0.0000 </r>
       <r>   15.3087    0.0000 </r>
       <r>   16.0188    0.0000 </r>
       <r>   16.4399    0.0000 </r>
       <r>   16.5729    0.0000 </r>
      </set>
      <set comment="kpoint 18">
       <r>  -15.4089    1.0000 </r>
       <r>  -15.4050    1.0000 </r>
       <r>  -15.3991    1.0000 </r>
       <r>  -15.3979    1.0000 </r>
       <r>  -15.3886    1.0000 </r>
       <r>  -15.3855    1.0000 </r>
       <r>  -15.3837    1.0000 </r>
       <r>  -15.3806    1.0000 </r>
       <r>  -15.3806    1.0000 </r>
       <r>  -15.3772    1.0000 </r>
       <r>  -15.3682    1.0000 </r>
       <r>  -15.3622    1.0000 </r>
       <r>  -15.3549    1.0000 </r>
       <r>  -15.3500    1.0000 </r>
       <r>  -15.3376    1.0000 </r>
       <r>  -15.3362    1.0000 </r>
       <r>  -15.3307    1.0000 </r>
       <r>  -15.3256    1.0000 </r>
       <r>  -15.3136    1.0000 </r>
       <r>  -15.3124    1.0000 </r>
       <r>   -7.3502    1.0000 </r>
       <r>   -7.0933    1.0000 </r>
       <r>   -6.8096    1.0000 </r>
       <r>   -6.5872    1.0000 </r>
       <r>   -2.0034    1.0000 </r>
       <r>   -1.1492    1.0000 </r>
       <r>   -1.0381    1.0000 </r>
       <r>   -0.8165    1.0000 </r>
       <r>    1.0293    1.0000 </r>
       <r>    1.4388    1.0000 </r>
       <r>    1.5428    1.0000 </r>
       <r>    2.2935    1.0000 </r>
       <r>    2.5770    1.0000 </r>
       <r>    3.4016    1.0000 </r>
       <r>    3.4963    1.0000 </r>
       <r>    3.9388    1.0000 </r>
       <r>    4.2841    1.0000 </r>
       <r>    4.3766    1.0000 </r>
       <r>    4.7344    1.0000 </r>
       <r>    5.2774    1.0000 </r>
       <r>    6.4095    0.0000 </r>
       <r>    7.8235    0.0000 </r>
       <r>    8.2171    0.0000 </r>
       <r>    8.5427    0.0000 </r>
       <r>    8.8383    0.0000 </r>
       <r>    9.3041    0.0000 </r>
       <r>    9.8008    0.0000 </r>
       <r>   10.2586    0.0000 </r>
       <r>   10.6156    0.0000 </r>
       <r>   10.7489    0.0000 </r>
       <r>   11.3978    0.0000 </r>
       <r>   11.5208    0.0000 </r>
       <r>   11.7520    0.0000 </r>
       <r>   11.8087    0.0000 </r>
       <r>   13.2793    0.0000 </r>
       <r>   14.0080    0.0000 </r>
       <r>   14.0756    0.0000 </r>
       <r>   14.1956    0.0000 </r>
       <r>   14.9147    0.0000 </r>
       <r>   15.2609    0.0000 </r>
       <r>   15.9051    0.0000 </r>
       <r>   15.9404    0.0000 </r>
       <r>   16.1497    0.0000 </r>
       <r>   16.7089    0.0000 </r>
      </set>
      <set comment="kpoint 19">
       <r>  -15.4132    1.0000 </r>
       <r>  -15.4109    1.0000 </r>
       <r>  -15.4025    1.0000 </r>
       <r>  -15.4020    1.0000 </r>
       <r>  -15.3881    1.0000 </r>
       <r>  -15.3860    1.0000 </r>
       <r>  -15.3816    1.0000 </r>
       <r>  -15.3794    1.0000 </r>
       <r>  -15.3779    1.0000 </r>
       <r>  -15.3776    1.0000 </r>
       <r>  -15.3659    1.0000 </r>
       <r>  -15.3625    1.0000 </r>
       <r>  -15.3511    1.0000 </r>
       <r>  -15.3488    1.0000 </r>
       <r>  -15.3359    1.0000 </r>
       <r>  -15.3351    1.0000 </r>
       <r>  -15.3298    1.0000 </r>
       <r>  -15.3269    1.0000 </r>
       <r>  -15.3130    1.0000 </r>
       <r>  -15.3123    1.0000 </r>
       <r>   -7.1186    1.0000 </r>
       <r>   -6.8935    1.0000 </r>
       <r>   -6.8061    1.0000 </r>
       <r>   -6.6073    1.0000 </r>
       <r>   -1.8844    1.0000 </r>
       <r>   -1.3864    1.0000 </r>
       <r>   -0.7514    1.0000 </r>
       <r>   -0.7167    1.0000 </r>
       <r>    0.7302    1.0000 </r>
       <r>    1.1315    1.0000 </r>
       <r>    1.5533    1.0000 </r>
       <r>    1.8476    1.0000 </r>
       <r>    2.1914    1.0000 </r>
       <r>    2.6755    1.0000 </r>
       <r>    2.9381    1.0000 </r>
       <r>    3.4723    1.0000 </r>
       <r>    3.6055    1.0000 </r>
       <r>    4.1056    1.0000 </r>
       <r>    4.6506    1.0000 </r>
       <r>    4.7986    1.0000 </r>
       <r>    6.8445    0.0000 </r>
       <r>    8.4440    0.0000 </r>
       <r>    8.9461    0.0000 </r>
       <r>    9.1944    0.0000 </r>
       <r>    9.9137    0.0000 </r>
       <r>    9.9280    0.0000 </r>
       <r>   10.3663    0.0000 </r>
       <r>   10.6766    0.0000 </r>
       <r>   10.7343    0.0000 </r>
       <r>   10.9570    0.0000 </r>
       <r>   11.5028    0.0000 </r>
       <r>   11.6370    0.0000 </r>
       <r>   11.8457    0.0000 </r>
       <r>   12.1850    0.0000 </r>
       <r>   12.7358    0.0000 </r>
       <r>   13.4296    0.0000 </r>
       <r>   15.1695    0.0000 </r>
       <r>   15.3299    0.0000 </r>
       <r>   15.7507    0.0000 </r>
       <r>   15.8180    0.0000 </r>
       <r>   16.0708    0.0000 </r>
       <r>   16.5646    0.0000 </r>
       <r>   16.8645    0.0000 </r>
       <r>   17.1880    0.0000 </r>
      </set>
      <set comment="kpoint 20">
       <r>  -15.4141    1.0000 </r>
       <r>  -15.4141    1.0000 </r>
       <r>  -15.4038    1.0000 </r>
       <r>  -15.4038    1.0000 </r>
       <r>  -15.3871    1.0000 </r>
       <r>  -15.3871    1.0000 </r>
       <r>  -15.3803    1.0000 </r>
       <r>  -15.3803    1.0000 </r>
       <r>  -15.3770    1.0000 </r>
       <r>  -15.3770    1.0000 </r>
       <r>  -15.3638    1.0000 </r>
       <r>  -15.3638    1.0000 </r>
       <r>  -15.3489    1.0000 </r>
       <r>  -15.3489    1.0000 </r>
       <r>  -15.3349    1.0000 </r>
       <r>  -15.3349    1.0000 </r>
       <r>  -15.3282    1.0000 </r>
       <r>  -15.3282    1.0000 </r>
       <r>  -15.3125    1.0000 </r>
       <r>  -15.3125    1.0000 </r>
       <r>   -6.9115    1.0000 </r>
       <r>   -6.9115    1.0000 </r>
       <r>   -6.7120    1.0000 </r>
       <r>   -6.7120    1.0000 </r>
       <r>   -1.6955    1.0000 </r>
       <r>   -1.6955    1.0000 </r>
       <r>   -0.6418    1.0000 </r>
       <r>   -0.6418    1.0000 </r>
       <r>    0.9924    1.0000 </r>
       <r>    0.9924    1.0000 </r>
       <r>    1.4186    1.0000 </r>
       <r>    1.4186    1.0000 </r>
       <r>    2.2877    1.0000 </r>
       <r>    2.2877    1.0000 </r>
       <r>    2.9911    1.0000 </r>
       <r>    2.9911    1.0000 </r>
       <r>    3.6491    1.0000 </r>
       <r>    3.6491    1.0000 </r>
       <r>    4.6328    1.0000 </r>
       <r>    4.6328    1.0000 </r>
       <r>    7.6133    0.0000 </r>
       <r>    7.6133    0.0000 </r>
       <r>    9.5181    0.0000 </r>
       <r>    9.5181    0.0000 </r>
       <r>   10.3860    0.0000 </r>
       <r>   10.3860    0.0000 </r>
       <r>   10.7576    0.0000 </r>
       <r>   10.7576    0.0000 </r>
       <r>   10.8760    0.0000 </r>
       <r>   10.8760    0.0000 </r>
       <r>   11.7014    0.0000 </r>
       <r>   11.7014    0.0000 </r>
       <r>   11.9917    0.0000 </r>
       <r>   11.9917    0.0000 </r>
       <r>   12.7747    0.0000 </r>
       <r>   12.7747    0.0000 </r>
       <r>   15.8775    0.0000 </r>
       <r>   15.8775    0.0000 </r>
       <r>   16.4510    0.0000 </r>
       <r>   16.4510    0.0000 </r>
       <r>   16.6446    0.0000 </r>
       <r>   16.6446    0.0000 </r>
       <r>   17.2962    0.0000 </r>
       <r>   17.2962    0.0000 </r>
      </set>
      <set comment="kpoint 21">
       <r>  -15.4023    1.0000 </r>
       <r>  -15.4010    1.0000 </r>
       <r>  -15.3969    1.0000 </r>
       <r>  -15.3951    1.0000 </r>
       <r>  -15.3863    1.0000 </r>
       <r>  -15.3861    1.0000 </r>
       <r>  -15.3853    1.0000 </r>
       <r>  -15.3836    1.0000 </r>
       <r>  -15.3775    1.0000 </r>
       <r>  -15.3708    1.0000 </r>
       <r>  -15.3693    1.0000 </r>
       <r>  -15.3681    1.0000 </r>
       <r>  -15.3529    1.0000 </r>
       <r>  -15.3481    1.0000 </r>
       <r>  -15.3457    1.0000 </r>
       <r>  -15.3438    1.0000 </r>
       <r>  -15.3242    1.0000 </r>
       <r>  -15.3195    1.0000 </r>
       <r>  -15.3179    1.0000 </r>
       <r>  -15.3160    1.0000 </r>
       <r>   -7.2123    1.0000 </r>
       <r>   -7.0518    1.0000 </r>
       <r>   -6.8954    1.0000 </r>
       <r>   -6.8625    1.0000 </r>
       <r>   -2.2124    1.0000 </r>
       <r>   -1.9173    1.0000 </r>
       <r>   -1.4620    1.0000 </r>
       <r>   -1.1976    1.0000 </r>
       <r>    1.7699    1.0000 </r>
       <r>    2.3703    1.0000 </r>
       <r>    3.3398    1.0000 </r>
       <r>    3.5496    1.0000 </r>
       <r>    3.6779    1.0000 </r>
       <r>    3.7531    1.0000 </r>
       <r>    3.8190    1.0000 </r>
       <r>    4.3375    1.0000 </r>
       <r>    4.9221    1.0000 </r>
       <r>    4.9398    1.0000 </r>
       <r>    5.0319    1.0000 </r>
       <r>    5.1636    1.0000 </r>
       <r>    6.8140    0.0000 </r>
       <r>    6.8974    0.0000 </r>
       <r>    7.0193    0.0000 </r>
       <r>    7.3829    0.0000 </r>
       <r>    7.4342    0.0000 </r>
       <r>    7.6488    0.0000 </r>
       <r>    8.1882    0.0000 </r>
       <r>    8.5804    0.0000 </r>
       <r>    8.9508    0.0000 </r>
       <r>    9.1372    0.0000 </r>
       <r>   10.9651    0.0000 </r>
       <r>   11.1382    0.0000 </r>
       <r>   12.7624    0.0000 </r>
       <r>   12.9554    0.0000 </r>
       <r>   13.3717    0.0000 </r>
       <r>   13.5819    0.0000 </r>
       <r>   14.4721    0.0000 </r>
       <r>   14.8977    0.0000 </r>
       <r>   15.1352    0.0000 </r>
       <r>   15.6629    0.0000 </r>
       <r>   15.7391    0.0000 </r>
       <r>   16.2632    0.0000 </r>
       <r>   16.5632    0.0000 </r>
       <r>   16.7152    0.0000 </r>
      </set>
      <set comment="kpoint 22">
       <r>  -15.4053    1.0000 </r>
       <r>  -15.4038    1.0000 </r>
       <r>  -15.3983    1.0000 </r>
       <r>  -15.3971    1.0000 </r>
       <r>  -15.3866    1.0000 </r>
       <r>  -15.3859    1.0000 </r>
       <r>  -15.3836    1.0000 </r>
       <r>  -15.3827    1.0000 </r>
       <r>  -15.3763    1.0000 </r>
       <r>  -15.3708    1.0000 </r>
       <r>  -15.3689    1.0000 </r>
       <r>  -15.3676    1.0000 </r>
       <r>  -15.3521    1.0000 </r>
       <r>  -15.3484    1.0000 </r>
       <r>  -15.3439    1.0000 </r>
       <r>  -15.3429    1.0000 </r>
       <r>  -15.3244    1.0000 </r>
       <r>  -15.3206    1.0000 </r>
       <r>  -15.3171    1.0000 </r>
       <r>  -15.3159    1.0000 </r>
       <r>   -7.1614    1.0000 </r>
       <r>   -7.0076    1.0000 </r>
       <r>   -6.8633    1.0000 </r>
       <r>   -6.8294    1.0000 </r>
       <r>   -2.1161    1.0000 </r>
       <r>   -1.8184    1.0000 </r>
       <r>   -1.3769    1.0000 </r>
       <r>   -1.1538    1.0000 </r>
       <r>    1.8085    1.0000 </r>
       <r>    2.1370    1.0000 </r>
       <r>    2.3865    1.0000 </r>
       <r>    2.9428    1.0000 </r>
       <r>    3.2144    1.0000 </r>
       <r>    3.2487    1.0000 </r>
       <r>    4.2263    1.0000 </r>
       <r>    4.3136    1.0000 </r>
       <r>    4.3319    1.0000 </r>
       <r>    4.5812    1.0000 </r>
       <r>    5.1671    1.0000 </r>
       <r>    5.2224    1.0000 </r>
       <r>    6.6372    0.0000 </r>
       <r>    6.6379    0.0000 </r>
       <r>    7.2935    0.0000 </r>
       <r>    7.5882    0.0000 </r>
       <r>    8.3971    0.0000 </r>
       <r>    8.5297    0.0000 </r>
       <r>    8.8455    0.0000 </r>
       <r>    9.2889    0.0000 </r>
       <r>    9.4113    0.0000 </r>
       <r>   10.0491    0.0000 </r>
       <r>   10.7886    0.0000 </r>
       <r>   10.9072    0.0000 </r>
       <r>   11.8452    0.0000 </r>
       <r>   12.1964    0.0000 </r>
       <r>   14.0422    0.0000 </r>
       <r>   14.4199    0.0000 </r>
       <r>   14.6805    0.0000 </r>
       <r>   14.9235    0.0000 </r>
       <r>   15.1767    0.0000 </r>
       <r>   15.3318    0.0000 </r>
       <r>   15.7983    0.0000 </r>
       <r>   16.2209    0.0000 </r>
       <r>   16.4887    0.0000 </r>
       <r>   16.5402    0.0000 </r>
      </set>
      <set comment="kpoint 23">
       <r>  -15.4116    1.0000 </r>
       <r>  -15.4102    1.0000 </r>
       <r>  -15.4024    1.0000 </r>
       <r>  -15.4019    1.0000 </r>
       <r>  -15.3864    1.0000 </r>
       <r>  -15.3854    1.0000 </r>
       <r>  -15.3810    1.0000 </r>
       <r>  -15.3810    1.0000 </r>
       <r>  -15.3742    1.0000 </r>
       <r>  -15.3710    1.0000 </r>
       <r>  -15.3681    1.0000 </r>
       <r>  -15.3666    1.0000 </r>
       <r>  -15.3498    1.0000 </r>
       <r>  -15.3476    1.0000 </r>
       <r>  -15.3408    1.0000 </r>
       <r>  -15.3406    1.0000 </r>
       <r>  -15.3247    1.0000 </r>
       <r>  -15.3220    1.0000 </r>
       <r>  -15.3160    1.0000 </r>
       <r>  -15.3155    1.0000 </r>
       <r>   -7.0274    1.0000 </r>
       <r>   -6.8934    1.0000 </r>
       <r>   -6.7886    1.0000 </r>
       <r>   -6.7501    1.0000 </r>
       <r>   -1.8454    1.0000 </r>
       <r>   -1.5416    1.0000 </r>
       <r>   -1.1451    1.0000 </r>
       <r>   -1.0572    1.0000 </r>
       <r>    1.2341    1.0000 </r>
       <r>    1.7286    1.0000 </r>
       <r>    1.7345    1.0000 </r>
       <r>    1.9870    1.0000 </r>
       <r>    2.4681    1.0000 </r>
       <r>    2.9332    1.0000 </r>
       <r>    3.3319    1.0000 </r>
       <r>    3.5619    1.0000 </r>
       <r>    3.5988    1.0000 </r>
       <r>    4.0682    1.0000 </r>
       <r>    4.8258    1.0000 </r>
       <r>    5.0027    1.0000 </r>
       <r>    6.7535    0.0000 </r>
       <r>    7.4678    0.0000 </r>
       <r>    8.5740    0.0000 </r>
       <r>    8.9232    0.0000 </r>
       <r>    9.4945    0.0000 </r>
       <r>    9.6026    0.0000 </r>
       <r>   10.0201    0.0000 </r>
       <r>   10.2248    0.0000 </r>
       <r>   10.3388    0.0000 </r>
       <r>   10.6128    0.0000 </r>
       <r>   10.7886    0.0000 </r>
       <r>   11.4306    0.0000 </r>
       <r>   11.4883    0.0000 </r>
       <r>   11.5537    0.0000 </r>
       <r>   13.3698    0.0000 </r>
       <r>   13.6394    0.0000 </r>
       <r>   15.2059    0.0000 </r>
       <r>   15.4315    0.0000 </r>
       <r>   15.6454    0.0000 </r>
       <r>   16.2867    0.0000 </r>
       <r>   16.3948    0.0000 </r>
       <r>   16.6807    0.0000 </r>
       <r>   16.9549    0.0000 </r>
       <r>   17.1718    0.0000 </r>
      </set>
      <set comment="kpoint 24">
       <r>  -15.4172    1.0000 </r>
       <r>  -15.4163    1.0000 </r>
       <r>  -15.4068    1.0000 </r>
       <r>  -15.4066    1.0000 </r>
       <r>  -15.3862    1.0000 </r>
       <r>  -15.3854    1.0000 </r>
       <r>  -15.3792    1.0000 </r>
       <r>  -15.3789    1.0000 </r>
       <r>  -15.3726    1.0000 </r>
       <r>  -15.3713    1.0000 </r>
       <r>  -15.3672    1.0000 </r>
       <r>  -15.3661    1.0000 </r>
       <r>  -15.3471    1.0000 </r>
       <r>  -15.3462    1.0000 </r>
       <r>  -15.3383    1.0000 </r>
       <r>  -15.3382    1.0000 </r>
       <r>  -15.3243    1.0000 </r>
       <r>  -15.3229    1.0000 </r>
       <r>  -15.3153    1.0000 </r>
       <r>  -15.3151    1.0000 </r>
       <r>   -6.8649    1.0000 </r>
       <r>   -6.7605    1.0000 </r>
       <r>   -6.7291    1.0000 </r>
       <r>   -6.6786    1.0000 </r>
       <r>   -1.4795    1.0000 </r>
       <r>   -1.2102    1.0000 </r>
       <r>   -0.9536    1.0000 </r>
       <r>   -0.8629    1.0000 </r>
       <r>    0.6157    1.0000 </r>
       <r>    1.0072    1.0000 </r>
       <r>    1.2530    1.0000 </r>
       <r>    1.5476    1.0000 </r>
       <r>    2.0493    1.0000 </r>
       <r>    2.2225    1.0000 </r>
       <r>    2.7116    1.0000 </r>
       <r>    3.1509    1.0000 </r>
       <r>    3.2985    1.0000 </r>
       <r>    3.4360    1.0000 </r>
       <r>    4.5122    1.0000 </r>
       <r>    4.5592    1.0000 </r>
       <r>    7.5217    0.0000 </r>
       <r>    8.2821    0.0000 </r>
       <r>    9.0686    0.0000 </r>
       <r>    9.3926    0.0000 </r>
       <r>   10.2542    0.0000 </r>
       <r>   10.3072    0.0000 </r>
       <r>   10.4240    0.0000 </r>
       <r>   10.8133    0.0000 </r>
       <r>   10.8228    0.0000 </r>
       <r>   11.3267    0.0000 </r>
       <r>   11.7977    0.0000 </r>
       <r>   11.9254    0.0000 </r>
       <r>   12.0704    0.0000 </r>
       <r>   12.4264    0.0000 </r>
       <r>   12.7994    0.0000 </r>
       <r>   13.0758    0.0000 </r>
       <r>   15.5887    0.0000 </r>
       <r>   15.7522    0.0000 </r>
       <r>   16.6769    0.0000 </r>
       <r>   16.7487    0.0000 </r>
       <r>   16.9843    0.0000 </r>
       <r>   17.1400    0.0000 </r>
       <r>   17.5984    0.0000 </r>
       <r>   17.6352    0.0000 </r>
      </set>
      <set comment="kpoint 25">
       <r>  -15.4191    1.0000 </r>
       <r>  -15.4191    1.0000 </r>
       <r>  -15.4086    1.0000 </r>
       <r>  -15.4086    1.0000 </r>
       <r>  -15.3858    1.0000 </r>
       <r>  -15.3858    1.0000 </r>
       <r>  -15.3783    1.0000 </r>
       <r>  -15.3783    1.0000 </r>
       <r>  -15.3718    1.0000 </r>
       <r>  -15.3718    1.0000 </r>
       <r>  -15.3664    1.0000 </r>
       <r>  -15.3664    1.0000 </r>
       <r>  -15.3456    1.0000 </r>
       <r>  -15.3456    1.0000 </r>
       <r>  -15.3373    1.0000 </r>
       <r>  -15.3373    1.0000 </r>
       <r>  -15.3236    1.0000 </r>
       <r>  -15.3236    1.0000 </r>
       <r>  -15.3150    1.0000 </r>
       <r>  -15.3150    1.0000 </r>
       <r>   -6.7488    1.0000 </r>
       <r>   -6.7488    1.0000 </r>
       <r>   -6.6754    1.0000 </r>
       <r>   -6.6754    1.0000 </r>
       <r>   -1.2054    1.0000 </r>
       <r>   -1.2054    1.0000 </r>
       <r>   -0.7649    1.0000 </r>
       <r>   -0.7649    1.0000 </r>
       <r>    0.5455    1.0000 </r>
       <r>    0.5455    1.0000 </r>
       <r>    1.1564    1.0000 </r>
       <r>    1.1564    1.0000 </r>
       <r>    1.9193    1.0000 </r>
       <r>    1.9193    1.0000 </r>
       <r>    2.6464    1.0000 </r>
       <r>    2.6464    1.0000 </r>
       <r>    3.3502    1.0000 </r>
       <r>    3.3502    1.0000 </r>
       <r>    4.3827    1.0000 </r>
       <r>    4.3827    1.0000 </r>
       <r>    8.2310    0.0000 </r>
       <r>    8.2310    0.0000 </r>
       <r>    9.0950    0.0000 </r>
       <r>    9.0950    0.0000 </r>
       <r>   10.3539    0.0000 </r>
       <r>   10.3539    0.0000 </r>
       <r>   10.7961    0.0000 </r>
       <r>   10.7961    0.0000 </r>
       <r>   11.6944    0.0000 </r>
       <r>   11.6944    0.0000 </r>
       <r>   12.3608    0.0000 </r>
       <r>   12.3608    0.0000 </r>
       <r>   12.6730    0.0000 </r>
       <r>   12.6730    0.0000 </r>
       <r>   12.8546    0.0000 </r>
       <r>   12.8546    0.0000 </r>
       <r>   15.9917    0.0000 </r>
       <r>   15.9917    0.0000 </r>
       <r>   16.6915    0.0000 </r>
       <r>   16.6915    0.0000 </r>
       <r>   16.9475    0.0000 </r>
       <r>   16.9475    0.0000 </r>
       <r>   17.7994    0.0000 </r>
       <r>   17.8009    0.0000 </r>
      </set>
      <set comment="kpoint 26">
       <r>  -15.4127    1.0000 </r>
       <r>  -15.4038    1.0000 </r>
       <r>  -15.3946    1.0000 </r>
       <r>  -15.3918    1.0000 </r>
       <r>  -15.3882    1.0000 </r>
       <r>  -15.3862    1.0000 </r>
       <r>  -15.3857    1.0000 </r>
       <r>  -15.3814    1.0000 </r>
       <r>  -15.3774    1.0000 </r>
       <r>  -15.3760    1.0000 </r>
       <r>  -15.3755    1.0000 </r>
       <r>  -15.3737    1.0000 </r>
       <r>  -15.3624    1.0000 </r>
       <r>  -15.3598    1.0000 </r>
       <r>  -15.3405    1.0000 </r>
       <r>  -15.3366    1.0000 </r>
       <r>  -15.3288    1.0000 </r>
       <r>  -15.3258    1.0000 </r>
       <r>  -15.3096    1.0000 </r>
       <r>  -15.3049    1.0000 </r>
       <r>   -8.1121    1.0000 </r>
       <r>   -7.9233    1.0000 </r>
       <r>   -6.9053    1.0000 </r>
       <r>   -6.6208    1.0000 </r>
       <r>   -1.3210    1.0000 </r>
       <r>   -0.8763    1.0000 </r>
       <r>    0.7223    1.0000 </r>
       <r>    0.8384    1.0000 </r>
       <r>    1.2113    1.0000 </r>
       <r>    2.0423    1.0000 </r>
       <r>    2.4147    1.0000 </r>
       <r>    2.5346    1.0000 </r>
       <r>    2.6679    1.0000 </r>
       <r>    3.0314    1.0000 </r>
       <r>    3.6888    1.0000 </r>
       <r>    3.7069    1.0000 </r>
       <r>    3.7212    1.0000 </r>
       <r>    4.0719    1.0000 </r>
       <r>    5.2448    1.0000 </r>
       <r>    5.3145    1.0000 </r>
       <r>    7.6388    0.0000 </r>
       <r>    8.4651    0.0000 </r>
       <r>    8.5508    0.0000 </r>
       <r>    9.0526    0.0000 </r>
       <r>    9.4965    0.0000 </r>
       <r>    9.6405    0.0000 </r>
       <r>    9.9014    0.0000 </r>
       <r>   10.1104    0.0000 </r>
       <r>   10.6541    0.0000 </r>
       <r>   10.8313    0.0000 </r>
       <r>   11.3381    0.0000 </r>
       <r>   11.3791    0.0000 </r>
       <r>   11.6316    0.0000 </r>
       <r>   11.8804    0.0000 </r>
       <r>   12.2093    0.0000 </r>
       <r>   12.4660    0.0000 </r>
       <r>   13.0203    0.0000 </r>
       <r>   13.4091    0.0000 </r>
       <r>   13.9249    0.0000 </r>
       <r>   14.3330    0.0000 </r>
       <r>   14.5154    0.0000 </r>
       <r>   14.5323    0.0000 </r>
       <r>   14.8479    0.0000 </r>
       <r>   14.8566    0.0000 </r>
      </set>
      <set comment="kpoint 27">
       <r>  -15.4116    1.0000 </r>
       <r>  -15.4034    1.0000 </r>
       <r>  -15.3934    1.0000 </r>
       <r>  -15.3909    1.0000 </r>
       <r>  -15.3892    1.0000 </r>
       <r>  -15.3873    1.0000 </r>
       <r>  -15.3860    1.0000 </r>
       <r>  -15.3818    1.0000 </r>
       <r>  -15.3777    1.0000 </r>
       <r>  -15.3759    1.0000 </r>
       <r>  -15.3749    1.0000 </r>
       <r>  -15.3719    1.0000 </r>
       <r>  -15.3616    1.0000 </r>
       <r>  -15.3598    1.0000 </r>
       <r>  -15.3406    1.0000 </r>
       <r>  -15.3366    1.0000 </r>
       <r>  -15.3291    1.0000 </r>
       <r>  -15.3261    1.0000 </r>
       <r>  -15.3095    1.0000 </r>
       <r>  -15.3051    1.0000 </r>
       <r>   -8.0392    1.0000 </r>
       <r>   -7.8540    1.0000 </r>
       <r>   -6.8908    1.0000 </r>
       <r>   -6.6224    1.0000 </r>
       <r>   -1.5867    1.0000 </r>
       <r>   -1.1000    1.0000 </r>
       <r>    0.2730    1.0000 </r>
       <r>    0.5007    1.0000 </r>
       <r>    1.2629    1.0000 </r>
       <r>    2.2019    1.0000 </r>
       <r>    2.5247    1.0000 </r>
       <r>    2.7731    1.0000 </r>
       <r>    2.8216    1.0000 </r>
       <r>    3.2144    1.0000 </r>
       <r>    3.7805    1.0000 </r>
       <r>    3.8875    1.0000 </r>
       <r>    4.1293    1.0000 </r>
       <r>    4.2491    1.0000 </r>
       <r>    5.1329    1.0000 </r>
       <r>    5.3152    1.0000 </r>
       <r>    7.5984    0.0000 </r>
       <r>    8.3074    0.0000 </r>
       <r>    8.7450    0.0000 </r>
       <r>    9.0000    0.0000 </r>
       <r>    9.0025    0.0000 </r>
       <r>    9.3193    0.0000 </r>
       <r>    9.4355    0.0000 </r>
       <r>    9.9327    0.0000 </r>
       <r>   10.4817    0.0000 </r>
       <r>   10.8567    0.0000 </r>
       <r>   10.9989    0.0000 </r>
       <r>   11.2868    0.0000 </r>
       <r>   11.3767    0.0000 </r>
       <r>   11.5360    0.0000 </r>
       <r>   12.1365    0.0000 </r>
       <r>   12.6658    0.0000 </r>
       <r>   12.9729    0.0000 </r>
       <r>   13.4768    0.0000 </r>
       <r>   13.9358    0.0000 </r>
       <r>   14.1444    0.0000 </r>
       <r>   15.0337    0.0000 </r>
       <r>   15.2465    0.0000 </r>
       <r>   15.4225    0.0000 </r>
       <r>   15.5196    0.0000 </r>
      </set>
      <set comment="kpoint 28">
       <r>  -15.4089    1.0000 </r>
       <r>  -15.4024    1.0000 </r>
       <r>  -15.3916    1.0000 </r>
       <r>  -15.3910    1.0000 </r>
       <r>  -15.3901    1.0000 </r>
       <r>  -15.3891    1.0000 </r>
       <r>  -15.3865    1.0000 </r>
       <r>  -15.3833    1.0000 </r>
       <r>  -15.3782    1.0000 </r>
       <r>  -15.3766    1.0000 </r>
       <r>  -15.3718    1.0000 </r>
       <r>  -15.3677    1.0000 </r>
       <r>  -15.3606    1.0000 </r>
       <r>  -15.3593    1.0000 </r>
       <r>  -15.3405    1.0000 </r>
       <r>  -15.3369    1.0000 </r>
       <r>  -15.3294    1.0000 </r>
       <r>  -15.3270    1.0000 </r>
       <r>  -15.3090    1.0000 </r>
       <r>  -15.3057    1.0000 </r>
       <r>   -7.8339    1.0000 </r>
       <r>   -7.6600    1.0000 </r>
       <r>   -6.8771    1.0000 </r>
       <r>   -6.6517    1.0000 </r>
       <r>   -2.0940    1.0000 </r>
       <r>   -1.6061    1.0000 </r>
       <r>   -0.4965    1.0000 </r>
       <r>   -0.1443    1.0000 </r>
       <r>    1.4540    1.0000 </r>
       <r>    2.4965    1.0000 </r>
       <r>    2.8388    1.0000 </r>
       <r>    3.0714    1.0000 </r>
       <r>    3.3130    1.0000 </r>
       <r>    3.6188    1.0000 </r>
       <r>    3.9558    1.0000 </r>
       <r>    4.2509    1.0000 </r>
       <r>    4.5062    1.0000 </r>
       <r>    4.7567    1.0000 </r>
       <r>    5.0972    1.0000 </r>
       <r>    5.3967    1.0000 </r>
       <r>    7.4721    0.0000 </r>
       <r>    7.7984    0.0000 </r>
       <r>    8.0801    0.0000 </r>
       <r>    8.2991    0.0000 </r>
       <r>    8.5206    0.0000 </r>
       <r>    8.6419    0.0000 </r>
       <r>    9.1186    0.0000 </r>
       <r>    9.8449    0.0000 </r>
       <r>    9.8673    0.0000 </r>
       <r>   10.3663    0.0000 </r>
       <r>   10.6903    0.0000 </r>
       <r>   10.8401    0.0000 </r>
       <r>   11.4186    0.0000 </r>
       <r>   11.6849    0.0000 </r>
       <r>   12.6069    0.0000 </r>
       <r>   13.1175    0.0000 </r>
       <r>   13.2985    0.0000 </r>
       <r>   13.8884    0.0000 </r>
       <r>   14.1997    0.0000 </r>
       <r>   14.2192    0.0000 </r>
       <r>   15.2429    0.0000 </r>
       <r>   15.6549    0.0000 </r>
       <r>   16.4090    0.0000 </r>
       <r>   16.5488    0.0000 </r>
      </set>
      <set comment="kpoint 29">
       <r>  -15.4056    1.0000 </r>
       <r>  -15.4018    1.0000 </r>
       <r>  -15.3938    1.0000 </r>
       <r>  -15.3929    1.0000 </r>
       <r>  -15.3893    1.0000 </r>
       <r>  -15.3881    1.0000 </r>
       <r>  -15.3871    1.0000 </r>
       <r>  -15.3854    1.0000 </r>
       <r>  -15.3781    1.0000 </r>
       <r>  -15.3771    1.0000 </r>
       <r>  -15.3676    1.0000 </r>
       <r>  -15.3642    1.0000 </r>
       <r>  -15.3602    1.0000 </r>
       <r>  -15.3583    1.0000 </r>
       <r>  -15.3395    1.0000 </r>
       <r>  -15.3373    1.0000 </r>
       <r>  -15.3293    1.0000 </r>
       <r>  -15.3280    1.0000 </r>
       <r>  -15.3083    1.0000 </r>
       <r>  -15.3065    1.0000 </r>
       <r>   -7.5436    1.0000 </r>
       <r>   -7.3948    1.0000 </r>
       <r>   -6.9292    1.0000 </r>
       <r>   -6.7621    1.0000 </r>
       <r>   -2.4387    1.0000 </r>
       <r>   -2.1055    1.0000 </r>
       <r>   -1.0385    1.0000 </r>
       <r>   -0.7707    1.0000 </r>
       <r>    1.8760    1.0000 </r>
       <r>    2.8121    1.0000 </r>
       <r>    3.2758    1.0000 </r>
       <r>    3.2960    1.0000 </r>
       <r>    3.4920    1.0000 </r>
       <r>    3.9414    1.0000 </r>
       <r>    4.0732    1.0000 </r>
       <r>    4.2781    1.0000 </r>
       <r>    4.8137    1.0000 </r>
       <r>    4.9757    1.0000 </r>
       <r>    5.6264    1.0000 </r>
       <r>    5.8228    1.0000 </r>
       <r>    6.8904    0.0000 </r>
       <r>    7.2968    0.0000 </r>
       <r>    7.3975    0.0000 </r>
       <r>    7.7337    0.0000 </r>
       <r>    7.7741    0.0000 </r>
       <r>    8.1566    0.0000 </r>
       <r>    8.6094    0.0000 </r>
       <r>    9.0593    0.0000 </r>
       <r>    9.4128    0.0000 </r>
       <r>    9.4646    0.0000 </r>
       <r>   10.9335    0.0000 </r>
       <r>   11.2006    0.0000 </r>
       <r>   12.5584    0.0000 </r>
       <r>   12.7947    0.0000 </r>
       <r>   13.2018    0.0000 </r>
       <r>   13.5642    0.0000 </r>
       <r>   13.8661    0.0000 </r>
       <r>   14.3119    0.0000 </r>
       <r>   14.5797    0.0000 </r>
       <r>   14.5911    0.0000 </r>
       <r>   15.3842    0.0000 </r>
       <r>   15.5679    0.0000 </r>
       <r>   15.5824    0.0000 </r>
       <r>   16.3882    0.0000 </r>
      </set>
      <set comment="kpoint 30">
       <r>  -15.4029    1.0000 </r>
       <r>  -15.4029    1.0000 </r>
       <r>  -15.3944    1.0000 </r>
       <r>  -15.3944    1.0000 </r>
       <r>  -15.3883    1.0000 </r>
       <r>  -15.3883    1.0000 </r>
       <r>  -15.3869    1.0000 </r>
       <r>  -15.3869    1.0000 </r>
       <r>  -15.3776    1.0000 </r>
       <r>  -15.3776    1.0000 </r>
       <r>  -15.3644    1.0000 </r>
       <r>  -15.3644    1.0000 </r>
       <r>  -15.3588    1.0000 </r>
       <r>  -15.3588    1.0000 </r>
       <r>  -15.3382    1.0000 </r>
       <r>  -15.3382    1.0000 </r>
       <r>  -15.3287    1.0000 </r>
       <r>  -15.3287    1.0000 </r>
       <r>  -15.3074    1.0000 </r>
       <r>  -15.3074    1.0000 </r>
       <r>   -7.2892    1.0000 </r>
       <r>   -7.2892    1.0000 </r>
       <r>   -6.9439    1.0000 </r>
       <r>   -6.9439    1.0000 </r>
       <r>   -2.4298    1.0000 </r>
       <r>   -2.4298    1.0000 </r>
       <r>   -1.1250    1.0000 </r>
       <r>   -1.1250    1.0000 </r>
       <r>    2.4448    1.0000 </r>
       <r>    2.4448    1.0000 </r>
       <r>    3.5814    1.0000 </r>
       <r>    3.5814    1.0000 </r>
       <r>    3.7010    1.0000 </r>
       <r>    3.7010    1.0000 </r>
       <r>    4.0928    1.0000 </r>
       <r>    4.0928    1.0000 </r>
       <r>    5.3307    1.0000 </r>
       <r>    5.3307    1.0000 </r>
       <r>    5.7091    1.0000 </r>
       <r>    5.7091    1.0000 </r>
       <r>    6.9302    0.0000 </r>
       <r>    6.9302    0.0000 </r>
       <r>    7.3028    0.0000 </r>
       <r>    7.3028    0.0000 </r>
       <r>    7.5991    0.0000 </r>
       <r>    7.5991    0.0000 </r>
       <r>    8.8786    0.0000 </r>
       <r>    8.8786    0.0000 </r>
       <r>    8.8813    0.0000 </r>
       <r>    8.8813    0.0000 </r>
       <r>   11.2130    0.0000 </r>
       <r>   11.2130    0.0000 </r>
       <r>   13.4984    0.0000 </r>
       <r>   13.4984    0.0000 </r>
       <r>   14.1195    0.0000 </r>
       <r>   14.1195    0.0000 </r>
       <r>   14.2112    0.0000 </r>
       <r>   14.2112    0.0000 </r>
       <r>   14.5175    0.0000 </r>
       <r>   14.5175    0.0000 </r>
       <r>   15.7731    0.0000 </r>
       <r>   15.7731    0.0000 </r>
       <r>   15.7908    0.0000 </r>
       <r>   15.7908    0.0000 </r>
      </set>
      <set comment="kpoint 31">
       <r>  -15.4093    1.0000 </r>
       <r>  -15.4011    1.0000 </r>
       <r>  -15.3932    1.0000 </r>
       <r>  -15.3907    1.0000 </r>
       <r>  -15.3893    1.0000 </r>
       <r>  -15.3881    1.0000 </r>
       <r>  -15.3866    1.0000 </r>
       <r>  -15.3832    1.0000 </r>
       <r>  -15.3796    1.0000 </r>
       <r>  -15.3779    1.0000 </r>
       <r>  -15.3740    1.0000 </r>
       <r>  -15.3716    1.0000 </r>
       <r>  -15.3608    1.0000 </r>
       <r>  -15.3593    1.0000 </r>
       <r>  -15.3391    1.0000 </r>
       <r>  -15.3357    1.0000 </r>
       <r>  -15.3292    1.0000 </r>
       <r>  -15.3269    1.0000 </r>
       <r>  -15.3104    1.0000 </r>
       <r>  -15.3063    1.0000 </r>
       <r>   -8.0419    1.0000 </r>
       <r>   -7.8579    1.0000 </r>
       <r>   -6.8774    1.0000 </r>
       <r>   -6.6105    1.0000 </r>
       <r>   -1.4387    1.0000 </r>
       <r>   -1.0083    1.0000 </r>
       <r>    0.4456    1.0000 </r>
       <r>    0.4550    1.0000 </r>
       <r>    1.2286    1.0000 </r>
       <r>    2.1060    1.0000 </r>
       <r>    2.3324    1.0000 </r>
       <r>    2.6515    1.0000 </r>
       <r>    2.8497    1.0000 </r>
       <r>    3.1418    1.0000 </r>
       <r>    3.6674    1.0000 </r>
       <r>    3.7689    1.0000 </r>
       <r>    4.0674    1.0000 </r>
       <r>    4.1105    1.0000 </r>
       <r>    5.2728    1.0000 </r>
       <r>    5.3065    1.0000 </r>
       <r>    7.7332    0.0000 </r>
       <r>    8.4462    0.0000 </r>
       <r>    8.6754    0.0000 </r>
       <r>    8.9372    0.0000 </r>
       <r>    9.0864    0.0000 </r>
       <r>    9.4167    0.0000 </r>
       <r>    9.4203    0.0000 </r>
       <r>    9.9545    0.0000 </r>
       <r>   10.5574    0.0000 </r>
       <r>   11.0304    0.0000 </r>
       <r>   11.0387    0.0000 </r>
       <r>   11.3101    0.0000 </r>
       <r>   11.4982    0.0000 </r>
       <r>   11.6290    0.0000 </r>
       <r>   11.8313    0.0000 </r>
       <r>   12.2287    0.0000 </r>
       <r>   12.5767    0.0000 </r>
       <r>   13.5790    0.0000 </r>
       <r>   13.8634    0.0000 </r>
       <r>   14.3764    0.0000 </r>
       <r>   15.2724    0.0000 </r>
       <r>   15.2880    0.0000 </r>
       <r>   15.3368    0.0000 </r>
       <r>   15.4469    0.0000 </r>
      </set>
      <set comment="kpoint 32">
       <r>  -15.4085    1.0000 </r>
       <r>  -15.4008    1.0000 </r>
       <r>  -15.3920    1.0000 </r>
       <r>  -15.3906    1.0000 </r>
       <r>  -15.3897    1.0000 </r>
       <r>  -15.3891    1.0000 </r>
       <r>  -15.3867    1.0000 </r>
       <r>  -15.3837    1.0000 </r>
       <r>  -15.3799    1.0000 </r>
       <r>  -15.3784    1.0000 </r>
       <r>  -15.3727    1.0000 </r>
       <r>  -15.3700    1.0000 </r>
       <r>  -15.3604    1.0000 </r>
       <r>  -15.3591    1.0000 </r>
       <r>  -15.3392    1.0000 </r>
       <r>  -15.3356    1.0000 </r>
       <r>  -15.3296    1.0000 </r>
       <r>  -15.3273    1.0000 </r>
       <r>  -15.3102    1.0000 </r>
       <r>  -15.3064    1.0000 </r>
       <r>   -7.9699    1.0000 </r>
       <r>   -7.7896    1.0000 </r>
       <r>   -6.8626    1.0000 </r>
       <r>   -6.6106    1.0000 </r>
       <r>   -1.6361    1.0000 </r>
       <r>   -1.1615    1.0000 </r>
       <r>    0.1027    1.0000 </r>
       <r>    0.2695    1.0000 </r>
       <r>    1.2958    1.0000 </r>
       <r>    2.0284    1.0000 </r>
       <r>    2.2451    1.0000 </r>
       <r>    2.5776    1.0000 </r>
       <r>    3.0838    1.0000 </r>
       <r>    3.4283    1.0000 </r>
       <r>    3.5823    1.0000 </r>
       <r>    3.7402    1.0000 </r>
       <r>    4.4939    1.0000 </r>
       <r>    4.7391    1.0000 </r>
       <r>    5.1694    1.0000 </r>
       <r>    5.3284    1.0000 </r>
       <r>    7.6626    0.0000 </r>
       <r>    7.9227    0.0000 </r>
       <r>    8.3065    0.0000 </r>
       <r>    8.7524    0.0000 </r>
       <r>    8.9142    0.0000 </r>
       <r>    9.2019    0.0000 </r>
       <r>    9.6445    0.0000 </r>
       <r>    9.9752    0.0000 </r>
       <r>   10.3061    0.0000 </r>
       <r>   10.4894    0.0000 </r>
       <r>   10.8861    0.0000 </r>
       <r>   10.9939    0.0000 </r>
       <r>   11.7598    0.0000 </r>
       <r>   12.0227    0.0000 </r>
       <r>   12.1394    0.0000 </r>
       <r>   12.5187    0.0000 </r>
       <r>   12.9711    0.0000 </r>
       <r>   13.7355    0.0000 </r>
       <r>   14.0776    0.0000 </r>
       <r>   14.6223    0.0000 </r>
       <r>   14.8127    0.0000 </r>
       <r>   15.2052    0.0000 </r>
       <r>   15.5422    0.0000 </r>
       <r>   15.7701    0.0000 </r>
      </set>
      <set comment="kpoint 33">
       <r>  -15.4064    1.0000 </r>
       <r>  -15.4002    1.0000 </r>
       <r>  -15.3937    1.0000 </r>
       <r>  -15.3925    1.0000 </r>
       <r>  -15.3888    1.0000 </r>
       <r>  -15.3879    1.0000 </r>
       <r>  -15.3873    1.0000 </r>
       <r>  -15.3848    1.0000 </r>
       <r>  -15.3804    1.0000 </r>
       <r>  -15.3790    1.0000 </r>
       <r>  -15.3699    1.0000 </r>
       <r>  -15.3663    1.0000 </r>
       <r>  -15.3598    1.0000 </r>
       <r>  -15.3579    1.0000 </r>
       <r>  -15.3390    1.0000 </r>
       <r>  -15.3356    1.0000 </r>
       <r>  -15.3302    1.0000 </r>
       <r>  -15.3282    1.0000 </r>
       <r>  -15.3097    1.0000 </r>
       <r>  -15.3068    1.0000 </r>
       <r>   -7.7678    1.0000 </r>
       <r>   -7.5990    1.0000 </r>
       <r>   -6.8471    1.0000 </r>
       <r>   -6.6349    1.0000 </r>
       <r>   -2.0520    1.0000 </r>
       <r>   -1.5684    1.0000 </r>
       <r>   -0.5153    1.0000 </r>
       <r>   -0.2098    1.0000 </r>
       <r>    1.5013    1.0000 </r>
       <r>    2.0449    1.0000 </r>
       <r>    2.2655    1.0000 </r>
       <r>    2.9115    1.0000 </r>
       <r>    3.0885    1.0000 </r>
       <r>    3.4483    1.0000 </r>
       <r>    4.0422    1.0000 </r>
       <r>    4.2013    1.0000 </r>
       <r>    4.9359    1.0000 </r>
       <r>    5.0694    1.0000 </r>
       <r>    5.1773    1.0000 </r>
       <r>    5.3800    1.0000 </r>
       <r>    7.2751    0.0000 </r>
       <r>    7.4340    0.0000 </r>
       <r>    7.8642    0.0000 </r>
       <r>    8.0414    0.0000 </r>
       <r>    8.6647    0.0000 </r>
       <r>    9.0136    0.0000 </r>
       <r>    9.3510    0.0000 </r>
       <r>    9.5122    0.0000 </r>
       <r>   10.1581    0.0000 </r>
       <r>   10.3075    0.0000 </r>
       <r>   10.8502    0.0000 </r>
       <r>   10.9455    0.0000 </r>
       <r>   12.0097    0.0000 </r>
       <r>   12.1016    0.0000 </r>
       <r>   12.9058    0.0000 </r>
       <r>   12.9903    0.0000 </r>
       <r>   13.4096    0.0000 </r>
       <r>   13.8825    0.0000 </r>
       <r>   14.1684    0.0000 </r>
       <r>   14.7417    0.0000 </r>
       <r>   14.9069    0.0000 </r>
       <r>   15.5173    0.0000 </r>
       <r>   15.8900    0.0000 </r>
       <r>   16.2285    0.0000 </r>
      </set>
      <set comment="kpoint 34">
       <r>  -15.4038    1.0000 </r>
       <r>  -15.3998    1.0000 </r>
       <r>  -15.3968    1.0000 </r>
       <r>  -15.3954    1.0000 </r>
       <r>  -15.3885    1.0000 </r>
       <r>  -15.3884    1.0000 </r>
       <r>  -15.3863    1.0000 </r>
       <r>  -15.3849    1.0000 </r>
       <r>  -15.3804    1.0000 </r>
       <r>  -15.3795    1.0000 </r>
       <r>  -15.3665    1.0000 </r>
       <r>  -15.3636    1.0000 </r>
       <r>  -15.3586    1.0000 </r>
       <r>  -15.3567    1.0000 </r>
       <r>  -15.3380    1.0000 </r>
       <r>  -15.3358    1.0000 </r>
       <r>  -15.3303    1.0000 </r>
       <r>  -15.3291    1.0000 </r>
       <r>  -15.3089    1.0000 </r>
       <r>  -15.3074    1.0000 </r>
       <r>   -7.4838    1.0000 </r>
       <r>   -7.3402    1.0000 </r>
       <r>   -6.8941    1.0000 </r>
       <r>   -6.7359    1.0000 </r>
       <r>   -2.3542    1.0000 </r>
       <r>   -2.0269    1.0000 </r>
       <r>   -0.9806    1.0000 </r>
       <r>   -0.7371    1.0000 </r>
       <r>    1.8732    1.0000 </r>
       <r>    2.3385    1.0000 </r>
       <r>    2.6151    1.0000 </r>
       <r>    3.0276    1.0000 </r>
       <r>    3.3302    1.0000 </r>
       <r>    3.4444    1.0000 </r>
       <r>    3.8539    1.0000 </r>
       <r>    4.3256    1.0000 </r>
       <r>    4.9512    1.0000 </r>
       <r>    5.1409    1.0000 </r>
       <r>    5.2880    1.0000 </r>
       <r>    5.3824    1.0000 </r>
       <r>    7.0933    0.0000 </r>
       <r>    7.3519    0.0000 </r>
       <r>    7.5825    0.0000 </r>
       <r>    7.9295    0.0000 </r>
       <r>    8.2322    0.0000 </r>
       <r>    8.6571    0.0000 </r>
       <r>    8.7434    0.0000 </r>
       <r>    9.0362    0.0000 </r>
       <r>   10.0406    0.0000 </r>
       <r>   10.1985    0.0000 </r>
       <r>   10.8214    0.0000 </r>
       <r>   11.0905    0.0000 </r>
       <r>   12.6015    0.0000 </r>
       <r>   12.8860    0.0000 </r>
       <r>   13.1229    0.0000 </r>
       <r>   13.3967    0.0000 </r>
       <r>   13.9316    0.0000 </r>
       <r>   14.2792    0.0000 </r>
       <r>   14.4535    0.0000 </r>
       <r>   14.6436    0.0000 </r>
       <r>   15.3028    0.0000 </r>
       <r>   15.6860    0.0000 </r>
       <r>   15.9453    0.0000 </r>
       <r>   16.6486    0.0000 </r>
      </set>
      <set comment="kpoint 35">
       <r>  -15.4013    1.0000 </r>
       <r>  -15.4013    1.0000 </r>
       <r>  -15.3973    1.0000 </r>
       <r>  -15.3973    1.0000 </r>
       <r>  -15.3890    1.0000 </r>
       <r>  -15.3890    1.0000 </r>
       <r>  -15.3852    1.0000 </r>
       <r>  -15.3852    1.0000 </r>
       <r>  -15.3800    1.0000 </r>
       <r>  -15.3800    1.0000 </r>
       <r>  -15.3639    1.0000 </r>
       <r>  -15.3639    1.0000 </r>
       <r>  -15.3570    1.0000 </r>
       <r>  -15.3570    1.0000 </r>
       <r>  -15.3367    1.0000 </r>
       <r>  -15.3367    1.0000 </r>
       <r>  -15.3298    1.0000 </r>
       <r>  -15.3298    1.0000 </r>
       <r>  -15.3081    1.0000 </r>
       <r>  -15.3081    1.0000 </r>
       <r>   -7.2373    1.0000 </r>
       <r>   -7.2373    1.0000 </r>
       <r>   -6.9070    1.0000 </r>
       <r>   -6.9070    1.0000 </r>
       <r>   -2.3391    1.0000 </r>
       <r>   -2.3391    1.0000 </r>
       <r>   -1.0537    1.0000 </r>
       <r>   -1.0537    1.0000 </r>
       <r>    2.3433    1.0000 </r>
       <r>    2.3433    1.0000 </r>
       <r>    2.9726    1.0000 </r>
       <r>    2.9726    1.0000 </r>
       <r>    3.3151    1.0000 </r>
       <r>    3.3151    1.0000 </r>
       <r>    3.9584    1.0000 </r>
       <r>    3.9584    1.0000 </r>
       <r>    5.0287    1.0000 </r>
       <r>    5.0287    1.0000 </r>
       <r>    5.3718    1.0000 </r>
       <r>    5.3718    1.0000 </r>
       <r>    7.2395    0.0000 </r>
       <r>    7.2395    0.0000 </r>
       <r>    7.6474    0.0000 </r>
       <r>    7.6474    0.0000 </r>
       <r>    8.2516    0.0000 </r>
       <r>    8.2516    0.0000 </r>
       <r>    8.9115    0.0000 </r>
       <r>    8.9115    0.0000 </r>
       <r>    9.7861    0.0000 </r>
       <r>    9.7861    0.0000 </r>
       <r>   11.0647    0.0000 </r>
       <r>   11.0647    0.0000 </r>
       <r>   12.8196    0.0000 </r>
       <r>   12.8196    0.0000 </r>
       <r>   13.9309    0.0000 </r>
       <r>   13.9309    0.0000 </r>
       <r>   14.3085    0.0000 </r>
       <r>   14.3085    0.0000 </r>
       <r>   15.2148    0.0000 </r>
       <r>   15.2148    0.0000 </r>
       <r>   15.7486    0.0000 </r>
       <r>   15.7486    0.0000 </r>
       <r>   15.9291    0.0000 </r>
       <r>   15.9291    0.0000 </r>
      </set>
      <set comment="kpoint 36">
       <r>  -15.4013    1.0000 </r>
       <r>  -15.3977    1.0000 </r>
       <r>  -15.3918    1.0000 </r>
       <r>  -15.3904    1.0000 </r>
       <r>  -15.3891    1.0000 </r>
       <r>  -15.3882    1.0000 </r>
       <r>  -15.3875    1.0000 </r>
       <r>  -15.3866    1.0000 </r>
       <r>  -15.3830    1.0000 </r>
       <r>  -15.3827    1.0000 </r>
       <r>  -15.3706    1.0000 </r>
       <r>  -15.3677    1.0000 </r>
       <r>  -15.3586    1.0000 </r>
       <r>  -15.3575    1.0000 </r>
       <r>  -15.3358    1.0000 </r>
       <r>  -15.3355    1.0000 </r>
       <r>  -15.3303    1.0000 </r>
       <r>  -15.3289    1.0000 </r>
       <r>  -15.3121    1.0000 </r>
       <r>  -15.3094    1.0000 </r>
       <r>   -7.8396    1.0000 </r>
       <r>   -7.6718    1.0000 </r>
       <r>   -6.8164    1.0000 </r>
       <r>   -6.6042    1.0000 </r>
       <r>   -1.7318    1.0000 </r>
       <r>   -1.3429    1.0000 </r>
       <r>   -0.3395    1.0000 </r>
       <r>   -0.1699    1.0000 </r>
       <r>    1.3709    1.0000 </r>
       <r>    2.3042    1.0000 </r>
       <r>    2.4994    1.0000 </r>
       <r>    2.7731    1.0000 </r>
       <r>    3.1872    1.0000 </r>
       <r>    3.3805    1.0000 </r>
       <r>    3.8065    1.0000 </r>
       <r>    3.9090    1.0000 </r>
       <r>    4.2049    1.0000 </r>
       <r>    4.5048    1.0000 </r>
       <r>    5.2587    1.0000 </r>
       <r>    5.4042    1.0000 </r>
       <r>    7.3233    0.0000 </r>
       <r>    8.0127    0.0000 </r>
       <r>    8.0454    0.0000 </r>
       <r>    8.4883    0.0000 </r>
       <r>    8.6419    0.0000 </r>
       <r>    9.1882    0.0000 </r>
       <r>    9.2751    0.0000 </r>
       <r>    9.8891    0.0000 </r>
       <r>   10.0628    0.0000 </r>
       <r>   10.4670    0.0000 </r>
       <r>   10.6177    0.0000 </r>
       <r>   10.6558    0.0000 </r>
       <r>   11.2842    0.0000 </r>
       <r>   11.4456    0.0000 </r>
       <r>   12.3690    0.0000 </r>
       <r>   12.3829    0.0000 </r>
       <r>   12.9031    0.0000 </r>
       <r>   13.4687    0.0000 </r>
       <r>   14.5383    0.0000 </r>
       <r>   14.7470    0.0000 </r>
       <r>   15.8035    0.0000 </r>
       <r>   15.9434    0.0000 </r>
       <r>   16.0125    0.0000 </r>
       <r>   16.4128    0.0000 </r>
      </set>
      <set comment="kpoint 37">
       <r>  -15.4020    1.0000 </r>
       <r>  -15.3983    1.0000 </r>
       <r>  -15.3934    1.0000 </r>
       <r>  -15.3906    1.0000 </r>
       <r>  -15.3896    1.0000 </r>
       <r>  -15.3878    1.0000 </r>
       <r>  -15.3873    1.0000 </r>
       <r>  -15.3854    1.0000 </r>
       <r>  -15.3835    1.0000 </r>
       <r>  -15.3822    1.0000 </r>
       <r>  -15.3698    1.0000 </r>
       <r>  -15.3665    1.0000 </r>
       <r>  -15.3586    1.0000 </r>
       <r>  -15.3566    1.0000 </r>
       <r>  -15.3360    1.0000 </r>
       <r>  -15.3351    1.0000 </r>
       <r>  -15.3306    1.0000 </r>
       <r>  -15.3295    1.0000 </r>
       <r>  -15.3119    1.0000 </r>
       <r>  -15.3094    1.0000 </r>
       <r>   -7.7709    1.0000 </r>
       <r>   -7.6070    1.0000 </r>
       <r>   -6.8001    1.0000 </r>
       <r>   -6.5992    1.0000 </r>
       <r>   -1.7867    1.0000 </r>
       <r>   -1.3560    1.0000 </r>
       <r>   -0.4046    1.0000 </r>
       <r>   -0.2795    1.0000 </r>
       <r>    1.4299    1.0000 </r>
       <r>    1.8118    1.0000 </r>
       <r>    2.1351    1.0000 </r>
       <r>    2.6463    1.0000 </r>
       <r>    3.0092    1.0000 </r>
       <r>    3.3800    1.0000 </r>
       <r>    3.9157    1.0000 </r>
       <r>    4.0071    1.0000 </r>
       <r>    4.7238    1.0000 </r>
       <r>    4.8836    1.0000 </r>
       <r>    5.2723    1.0000 </r>
       <r>    5.3780    1.0000 </r>
       <r>    7.1325    0.0000 </r>
       <r>    7.3863    0.0000 </r>
       <r>    8.0524    0.0000 </r>
       <r>    8.2637    0.0000 </r>
       <r>    8.7463    0.0000 </r>
       <r>    9.0478    0.0000 </r>
       <r>    9.4640    0.0000 </r>
       <r>    9.6414    0.0000 </r>
       <r>   10.0651    0.0000 </r>
       <r>   10.4231    0.0000 </r>
       <r>   10.7011    0.0000 </r>
       <r>   10.9884    0.0000 </r>
       <r>   11.8435    0.0000 </r>
       <r>   12.2764    0.0000 </r>
       <r>   12.7061    0.0000 </r>
       <r>   12.7213    0.0000 </r>
       <r>   13.1198    0.0000 </r>
       <r>   13.7688    0.0000 </r>
       <r>   14.3602    0.0000 </r>
       <r>   14.6416    0.0000 </r>
       <r>   15.1757    0.0000 </r>
       <r>   15.5714    0.0000 </r>
       <r>   15.7683    0.0000 </r>
       <r>   16.0078    0.0000 </r>
      </set>
      <set comment="kpoint 38">
       <r>  -15.4040    1.0000 </r>
       <r>  -15.4000    1.0000 </r>
       <r>  -15.3970    1.0000 </r>
       <r>  -15.3940    1.0000 </r>
       <r>  -15.3885    1.0000 </r>
       <r>  -15.3871    1.0000 </r>
       <r>  -15.3864    1.0000 </r>
       <r>  -15.3838    1.0000 </r>
       <r>  -15.3828    1.0000 </r>
       <r>  -15.3818    1.0000 </r>
       <r>  -15.3678    1.0000 </r>
       <r>  -15.3642    1.0000 </r>
       <r>  -15.3573    1.0000 </r>
       <r>  -15.3547    1.0000 </r>
       <r>  -15.3356    1.0000 </r>
       <r>  -15.3342    1.0000 </r>
       <r>  -15.3312    1.0000 </r>
       <r>  -15.3307    1.0000 </r>
       <r>  -15.3113    1.0000 </r>
       <r>  -15.3094    1.0000 </r>
       <r>   -7.5799    1.0000 </r>
       <r>   -7.4281    1.0000 </r>
       <r>   -6.7773    1.0000 </r>
       <r>   -6.6063    1.0000 </r>
       <r>   -1.9520    1.0000 </r>
       <r>   -1.4904    1.0000 </r>
       <r>   -0.6428    1.0000 </r>
       <r>   -0.4639    1.0000 </r>
       <r>    1.3742    1.0000 </r>
       <r>    1.4955    1.0000 </r>
       <r>    1.9120    1.0000 </r>
       <r>    2.5373    1.0000 </r>
       <r>    2.5786    1.0000 </r>
       <r>    3.2001    1.0000 </r>
       <r>    4.1270    1.0000 </r>
       <r>    4.3842    1.0000 </r>
       <r>    4.4630    1.0000 </r>
       <r>    4.6138    1.0000 </r>
       <r>    5.2661    1.0000 </r>
       <r>    5.4145    1.0000 </r>
       <r>    7.2729    0.0000 </r>
       <r>    7.6643    0.0000 </r>
       <r>    7.7546    0.0000 </r>
       <r>    8.1914    0.0000 </r>
       <r>    8.4754    0.0000 </r>
       <r>    8.9128    0.0000 </r>
       <r>    9.3368    0.0000 </r>
       <r>    9.9123    0.0000 </r>
       <r>   10.4200    0.0000 </r>
       <r>   10.7802    0.0000 </r>
       <r>   11.0429    0.0000 </r>
       <r>   11.1725    0.0000 </r>
       <r>   12.2136    0.0000 </r>
       <r>   13.0061    0.0000 </r>
       <r>   13.3311    0.0000 </r>
       <r>   13.4087    0.0000 </r>
       <r>   13.6615    0.0000 </r>
       <r>   13.9371    0.0000 </r>
       <r>   14.2074    0.0000 </r>
       <r>   14.6567    0.0000 </r>
       <r>   14.8630    0.0000 </r>
       <r>   15.2697    0.0000 </r>
       <r>   15.9715    0.0000 </r>
       <r>   16.1066    0.0000 </r>
      </set>
      <set comment="kpoint 39">
       <r>  -15.4057    1.0000 </r>
       <r>  -15.4032    1.0000 </r>
       <r>  -15.3995    1.0000 </r>
       <r>  -15.3976    1.0000 </r>
       <r>  -15.3881    1.0000 </r>
       <r>  -15.3870    1.0000 </r>
       <r>  -15.3856    1.0000 </r>
       <r>  -15.3832    1.0000 </r>
       <r>  -15.3814    1.0000 </r>
       <r>  -15.3806    1.0000 </r>
       <r>  -15.3656    1.0000 </r>
       <r>  -15.3632    1.0000 </r>
       <r>  -15.3545    1.0000 </r>
       <r>  -15.3530    1.0000 </r>
       <r>  -15.3346    1.0000 </r>
       <r>  -15.3332    1.0000 </r>
       <r>  -15.3321    1.0000 </r>
       <r>  -15.3317    1.0000 </r>
       <r>  -15.3105    1.0000 </r>
       <r>  -15.3095    1.0000 </r>
       <r>   -7.3171    1.0000 </r>
       <r>   -7.1901    1.0000 </r>
       <r>   -6.8068    1.0000 </r>
       <r>   -6.6763    1.0000 </r>
       <r>   -2.1130    1.0000 </r>
       <r>   -1.8070    1.0000 </r>
       <r>   -0.8483    1.0000 </r>
       <r>   -0.6889    1.0000 </r>
       <r>    1.4116    1.0000 </r>
       <r>    1.5516    1.0000 </r>
       <r>    2.1610    1.0000 </r>
       <r>    2.3159    1.0000 </r>
       <r>    2.5530    1.0000 </r>
       <r>    3.2655    1.0000 </r>
       <r>    3.7009    1.0000 </r>
       <r>    3.8823    1.0000 </r>
       <r>    4.1410    1.0000 </r>
       <r>    4.2096    1.0000 </r>
       <r>    4.9659    1.0000 </r>
       <r>    5.2044    1.0000 </r>
       <r>    7.4430    0.0000 </r>
       <r>    7.9989    0.0000 </r>
       <r>    8.2180    0.0000 </r>
       <r>    8.3805    0.0000 </r>
       <r>    8.9838    0.0000 </r>
       <r>    9.2190    0.0000 </r>
       <r>    9.4237    0.0000 </r>
       <r>    9.9265    0.0000 </r>
       <r>   10.4571    0.0000 </r>
       <r>   10.7879    0.0000 </r>
       <r>   11.1537    0.0000 </r>
       <r>   11.2929    0.0000 </r>
       <r>   12.1989    0.0000 </r>
       <r>   12.6548    0.0000 </r>
       <r>   13.2320    0.0000 </r>
       <r>   13.8128    0.0000 </r>
       <r>   14.0015    0.0000 </r>
       <r>   14.3793    0.0000 </r>
       <r>   14.9436    0.0000 </r>
       <r>   15.1249    0.0000 </r>
       <r>   15.4633    0.0000 </r>
       <r>   15.6039    0.0000 </r>
       <r>   16.5798    0.0000 </r>
       <r>   16.9964    0.0000 </r>
      </set>
      <set comment="kpoint 40">
       <r>  -15.4057    1.0000 </r>
       <r>  -15.4057    1.0000 </r>
       <r>  -15.3997    1.0000 </r>
       <r>  -15.3997    1.0000 </r>
       <r>  -15.3875    1.0000 </r>
       <r>  -15.3875    1.0000 </r>
       <r>  -15.3843    1.0000 </r>
       <r>  -15.3843    1.0000 </r>
       <r>  -15.3803    1.0000 </r>
       <r>  -15.3803    1.0000 </r>
       <r>  -15.3638    1.0000 </r>
       <r>  -15.3638    1.0000 </r>
       <r>  -15.3527    1.0000 </r>
       <r>  -15.3527    1.0000 </r>
       <r>  -15.3332    1.0000 </r>
       <r>  -15.3332    1.0000 </r>
       <r>  -15.3323    1.0000 </r>
       <r>  -15.3323    1.0000 </r>
       <r>  -15.3099    1.0000 </r>
       <r>  -15.3099    1.0000 </r>
       <r>   -7.0962    1.0000 </r>
       <r>   -7.0962    1.0000 </r>
       <r>   -6.8137    1.0000 </r>
       <r>   -6.8137    1.0000 </r>
       <r>   -2.0751    1.0000 </r>
       <r>   -2.0751    1.0000 </r>
       <r>   -0.8681    1.0000 </r>
       <r>   -0.8681    1.0000 </r>
       <r>    1.7743    1.0000 </r>
       <r>    1.7743    1.0000 </r>
       <r>    2.0029    1.0000 </r>
       <r>    2.0029    1.0000 </r>
       <r>    2.9391    1.0000 </r>
       <r>    2.9391    1.0000 </r>
       <r>    3.6567    1.0000 </r>
       <r>    3.6567    1.0000 </r>
       <r>    4.0309    1.0000 </r>
       <r>    4.0309    1.0000 </r>
       <r>    4.8160    1.0000 </r>
       <r>    4.8160    1.0000 </r>
       <r>    7.7852    0.0000 </r>
       <r>    7.7852    0.0000 </r>
       <r>    8.7627    0.0000 </r>
       <r>    8.7627    0.0000 </r>
       <r>    9.0246    0.0000 </r>
       <r>    9.0246    0.0000 </r>
       <r>    9.9035    0.0000 </r>
       <r>    9.9035    0.0000 </r>
       <r>   10.6488    0.0000 </r>
       <r>   10.6488    0.0000 </r>
       <r>   10.9786    0.0000 </r>
       <r>   10.9786    0.0000 </r>
       <r>   12.2921    0.0000 </r>
       <r>   12.2921    0.0000 </r>
       <r>   13.4987    0.0000 </r>
       <r>   13.4987    0.0000 </r>
       <r>   14.6851    0.0000 </r>
       <r>   14.6851    0.0000 </r>
       <r>   15.8806    0.0000 </r>
       <r>   15.8806    0.0000 </r>
       <r>   16.0218    0.0000 </r>
       <r>   16.0218    0.0000 </r>
       <r>   16.6331    0.0000 </r>
       <r>   16.6331    0.0000 </r>
      </set>
      <set comment="kpoint 41">
       <r>  -15.4001    1.0000 </r>
       <r>  -15.3984    1.0000 </r>
       <r>  -15.3949    1.0000 </r>
       <r>  -15.3927    1.0000 </r>
       <r>  -15.3866    1.0000 </r>
       <r>  -15.3865    1.0000 </r>
       <r>  -15.3856    1.0000 </r>
       <r>  -15.3854    1.0000 </r>
       <r>  -15.3836    1.0000 </r>
       <r>  -15.3797    1.0000 </r>
       <r>  -15.3683    1.0000 </r>
       <r>  -15.3652    1.0000 </r>
       <r>  -15.3566    1.0000 </r>
       <r>  -15.3536    1.0000 </r>
       <r>  -15.3393    1.0000 </r>
       <r>  -15.3386    1.0000 </r>
       <r>  -15.3287    1.0000 </r>
       <r>  -15.3253    1.0000 </r>
       <r>  -15.3139    1.0000 </r>
       <r>  -15.3131    1.0000 </r>
       <r>   -7.5336    1.0000 </r>
       <r>   -7.3985    1.0000 </r>
       <r>   -6.7888    1.0000 </r>
       <r>   -6.6679    1.0000 </r>
       <r>   -2.0151    1.0000 </r>
       <r>   -1.6529    1.0000 </r>
       <r>   -1.1445    1.0000 </r>
       <r>   -0.8484    1.0000 </r>
       <r>    1.7197    1.0000 </r>
       <r>    2.6648    1.0000 </r>
       <r>    2.8435    1.0000 </r>
       <r>    3.0778    1.0000 </r>
       <r>    3.2873    1.0000 </r>
       <r>    3.7150    1.0000 </r>
       <r>    3.9660    1.0000 </r>
       <r>    4.0265    1.0000 </r>
       <r>    4.3176    1.0000 </r>
       <r>    4.5109    1.0000 </r>
       <r>    5.3016    1.0000 </r>
       <r>    5.6029    1.0000 </r>
       <r>    6.6106    0.0000 </r>
       <r>    7.1305    0.0000 </r>
       <r>    7.8328    0.0000 </r>
       <r>    7.8686    0.0000 </r>
       <r>    8.3376    0.0000 </r>
       <r>    8.5554    0.0000 </r>
       <r>    8.5580    0.0000 </r>
       <r>    9.1047    0.0000 </r>
       <r>    9.3359    0.0000 </r>
       <r>    9.9587    0.0000 </r>
       <r>   10.0700    0.0000 </r>
       <r>   10.5037    0.0000 </r>
       <r>   12.4115    0.0000 </r>
       <r>   12.7502    0.0000 </r>
       <r>   12.7551    0.0000 </r>
       <r>   13.4040    0.0000 </r>
       <r>   13.7992    0.0000 </r>
       <r>   14.1149    0.0000 </r>
       <r>   14.4988    0.0000 </r>
       <r>   15.1012    0.0000 </r>
       <r>   15.1859    0.0000 </r>
       <r>   15.4070    0.0000 </r>
       <r>   16.3724    0.0000 </r>
       <r>   16.4837    0.0000 </r>
      </set>
      <set comment="kpoint 42">
       <r>  -15.4025    1.0000 </r>
       <r>  -15.3998    1.0000 </r>
       <r>  -15.3972    1.0000 </r>
       <r>  -15.3946    1.0000 </r>
       <r>  -15.3871    1.0000 </r>
       <r>  -15.3858    1.0000 </r>
       <r>  -15.3846    1.0000 </r>
       <r>  -15.3838    1.0000 </r>
       <r>  -15.3827    1.0000 </r>
       <r>  -15.3791    1.0000 </r>
       <r>  -15.3679    1.0000 </r>
       <r>  -15.3649    1.0000 </r>
       <r>  -15.3557    1.0000 </r>
       <r>  -15.3528    1.0000 </r>
       <r>  -15.3390    1.0000 </r>
       <r>  -15.3382    1.0000 </r>
       <r>  -15.3288    1.0000 </r>
       <r>  -15.3257    1.0000 </r>
       <r>  -15.3137    1.0000 </r>
       <r>  -15.3130    1.0000 </r>
       <r>   -7.4719    1.0000 </r>
       <r>   -7.3409    1.0000 </r>
       <r>   -6.7674    1.0000 </r>
       <r>   -6.6519    1.0000 </r>
       <r>   -1.9615    1.0000 </r>
       <r>   -1.5811    1.0000 </r>
       <r>   -1.0974    1.0000 </r>
       <r>   -0.8525    1.0000 </r>
       <r>    1.7080    1.0000 </r>
       <r>    1.9029    1.0000 </r>
       <r>    2.3588    1.0000 </r>
       <r>    2.8233    1.0000 </r>
       <r>    3.1573    1.0000 </r>
       <r>    3.4068    1.0000 </r>
       <r>    3.8690    1.0000 </r>
       <r>    4.2204    1.0000 </r>
       <r>    4.5981    1.0000 </r>
       <r>    4.6546    1.0000 </r>
       <r>    5.0650    1.0000 </r>
       <r>    5.1901    1.0000 </r>
       <r>    7.1459    0.0000 </r>
       <r>    7.2161    0.0000 </r>
       <r>    7.5628    0.0000 </r>
       <r>    7.7777    0.0000 </r>
       <r>    8.5202    0.0000 </r>
       <r>    8.8071    0.0000 </r>
       <r>    8.9366    0.0000 </r>
       <r>    9.3757    0.0000 </r>
       <r>    9.7536    0.0000 </r>
       <r>   10.2166    0.0000 </r>
       <r>   10.5469    0.0000 </r>
       <r>   10.7617    0.0000 </r>
       <r>   12.2645    0.0000 </r>
       <r>   12.8859    0.0000 </r>
       <r>   13.1824    0.0000 </r>
       <r>   13.5465    0.0000 </r>
       <r>   13.8619    0.0000 </r>
       <r>   13.9015    0.0000 </r>
       <r>   14.2871    0.0000 </r>
       <r>   14.9450    0.0000 </r>
       <r>   15.2980    0.0000 </r>
       <r>   15.4476    0.0000 </r>
       <r>   16.5019    0.0000 </r>
       <r>   16.6819    0.0000 </r>
      </set>
      <set comment="kpoint 43">
       <r>  -15.4074    1.0000 </r>
       <r>  -15.4044    1.0000 </r>
       <r>  -15.4015    1.0000 </r>
       <r>  -15.3990    1.0000 </r>
       <r>  -15.3875    1.0000 </r>
       <r>  -15.3861    1.0000 </r>
       <r>  -15.3818    1.0000 </r>
       <r>  -15.3813    1.0000 </r>
       <r>  -15.3803    1.0000 </r>
       <r>  -15.3778    1.0000 </r>
       <r>  -15.3671    1.0000 </r>
       <r>  -15.3643    1.0000 </r>
       <r>  -15.3530    1.0000 </r>
       <r>  -15.3508    1.0000 </r>
       <r>  -15.3380    1.0000 </r>
       <r>  -15.3373    1.0000 </r>
       <r>  -15.3288    1.0000 </r>
       <r>  -15.3264    1.0000 </r>
       <r>  -15.3133    1.0000 </r>
       <r>  -15.3127    1.0000 </r>
       <r>   -7.3038    1.0000 </r>
       <r>   -7.1850    1.0000 </r>
       <r>   -6.7262    1.0000 </r>
       <r>   -6.6247    1.0000 </r>
       <r>   -1.8457    1.0000 </r>
       <r>   -1.4458    1.0000 </r>
       <r>   -0.9772    1.0000 </r>
       <r>   -0.8582    1.0000 </r>
       <r>    1.1515    1.0000 </r>
       <r>    1.3592    1.0000 </r>
       <r>    2.1127    1.0000 </r>
       <r>    2.2396    1.0000 </r>
       <r>    2.4308    1.0000 </r>
       <r>    3.0958    1.0000 </r>
       <r>    3.6055    1.0000 </r>
       <r>    3.8502    1.0000 </r>
       <r>    3.9702    1.0000 </r>
       <r>    4.2941    1.0000 </r>
       <r>    4.7972    1.0000 </r>
       <r>    5.2172    1.0000 </r>
       <r>    7.3083    0.0000 </r>
       <r>    7.8788    0.0000 </r>
       <r>    8.2370    0.0000 </r>
       <r>    8.4324    0.0000 </r>
       <r>    8.7723    0.0000 </r>
       <r>    8.9607    0.0000 </r>
       <r>    9.7468    0.0000 </r>
       <r>   10.0120    0.0000 </r>
       <r>   10.1890    0.0000 </r>
       <r>   10.4781    0.0000 </r>
       <r>   11.4432    0.0000 </r>
       <r>   11.6695    0.0000 </r>
       <r>   12.1646    0.0000 </r>
       <r>   12.6588    0.0000 </r>
       <r>   13.3297    0.0000 </r>
       <r>   13.9507    0.0000 </r>
       <r>   14.1896    0.0000 </r>
       <r>   14.2981    0.0000 </r>
       <r>   14.6394    0.0000 </r>
       <r>   14.8929    0.0000 </r>
       <r>   15.4084    0.0000 </r>
       <r>   16.0010    0.0000 </r>
       <r>   16.1370    0.0000 </r>
       <r>   16.5245    0.0000 </r>
      </set>
      <set comment="kpoint 44">
       <r>  -15.4115    1.0000 </r>
       <r>  -15.4097    1.0000 </r>
       <r>  -15.4050    1.0000 </r>
       <r>  -15.4036    1.0000 </r>
       <r>  -15.3875    1.0000 </r>
       <r>  -15.3866    1.0000 </r>
       <r>  -15.3799    1.0000 </r>
       <r>  -15.3794    1.0000 </r>
       <r>  -15.3781    1.0000 </r>
       <r>  -15.3771    1.0000 </r>
       <r>  -15.3660    1.0000 </r>
       <r>  -15.3642    1.0000 </r>
       <r>  -15.3497    1.0000 </r>
       <r>  -15.3485    1.0000 </r>
       <r>  -15.3368    1.0000 </r>
       <r>  -15.3363    1.0000 </r>
       <r>  -15.3285    1.0000 </r>
       <r>  -15.3271    1.0000 </r>
       <r>  -15.3128    1.0000 </r>
       <r>  -15.3124    1.0000 </r>
       <r>   -7.0825    1.0000 </r>
       <r>   -6.9870    1.0000 </r>
       <r>   -6.7194    1.0000 </r>
       <r>   -6.6370    1.0000 </r>
       <r>   -1.7601    1.0000 </r>
       <r>   -1.5032    1.0000 </r>
       <r>   -0.7977    1.0000 </r>
       <r>   -0.7681    1.0000 </r>
       <r>    0.8556    1.0000 </r>
       <r>    1.0848    1.0000 </r>
       <r>    1.6621    1.0000 </r>
       <r>    1.8976    1.0000 </r>
       <r>    2.1916    1.0000 </r>
       <r>    2.6193    1.0000 </r>
       <r>    2.8483    1.0000 </r>
       <r>    3.4510    1.0000 </r>
       <r>    3.7079    1.0000 </r>
       <r>    4.0728    1.0000 </r>
       <r>    4.4424    1.0000 </r>
       <r>    4.7823    1.0000 </r>
       <r>    7.6143    0.0000 </r>
       <r>    8.2594    0.0000 </r>
       <r>    8.8621    0.0000 </r>
       <r>    9.0654    0.0000 </r>
       <r>    9.1497    0.0000 </r>
       <r>    9.5609    0.0000 </r>
       <r>   10.5398    0.0000 </r>
       <r>   10.6287    0.0000 </r>
       <r>   10.7477    0.0000 </r>
       <r>   10.9190    0.0000 </r>
       <r>   11.9287    0.0000 </r>
       <r>   11.9981    0.0000 </r>
       <r>   12.1393    0.0000 </r>
       <r>   12.3536    0.0000 </r>
       <r>   13.1491    0.0000 </r>
       <r>   13.4843    0.0000 </r>
       <r>   14.9754    0.0000 </r>
       <r>   15.3642    0.0000 </r>
       <r>   15.5154    0.0000 </r>
       <r>   15.5360    0.0000 </r>
       <r>   16.0086    0.0000 </r>
       <r>   16.1827    0.0000 </r>
       <r>   16.4203    0.0000 </r>
       <r>   16.7509    0.0000 </r>
      </set>
      <set comment="kpoint 45">
       <r>  -15.4125    1.0000 </r>
       <r>  -15.4125    1.0000 </r>
       <r>  -15.4060    1.0000 </r>
       <r>  -15.4060    1.0000 </r>
       <r>  -15.3872    1.0000 </r>
       <r>  -15.3872    1.0000 </r>
       <r>  -15.3790    1.0000 </r>
       <r>  -15.3790    1.0000 </r>
       <r>  -15.3771    1.0000 </r>
       <r>  -15.3771    1.0000 </r>
       <r>  -15.3648    1.0000 </r>
       <r>  -15.3648    1.0000 </r>
       <r>  -15.3479    1.0000 </r>
       <r>  -15.3479    1.0000 </r>
       <r>  -15.3360    1.0000 </r>
       <r>  -15.3360    1.0000 </r>
       <r>  -15.3277    1.0000 </r>
       <r>  -15.3277    1.0000 </r>
       <r>  -15.3124    1.0000 </r>
       <r>  -15.3124    1.0000 </r>
       <r>   -6.9101    1.0000 </r>
       <r>   -6.9101    1.0000 </r>
       <r>   -6.7139    1.0000 </r>
       <r>   -6.7139    1.0000 </r>
       <r>   -1.6697    1.0000 </r>
       <r>   -1.6697    1.0000 </r>
       <r>   -0.6962    1.0000 </r>
       <r>   -0.6962    1.0000 </r>
       <r>    1.0718    1.0000 </r>
       <r>    1.0718    1.0000 </r>
       <r>    1.3495    1.0000 </r>
       <r>    1.3495    1.0000 </r>
       <r>    2.3328    1.0000 </r>
       <r>    2.3328    1.0000 </r>
       <r>    2.9331    1.0000 </r>
       <r>    2.9331    1.0000 </r>
       <r>    3.7756    1.0000 </r>
       <r>    3.7756    1.0000 </r>
       <r>    4.5069    1.0000 </r>
       <r>    4.5069    1.0000 </r>
       <r>    7.8736    0.0000 </r>
       <r>    7.8736    0.0000 </r>
       <r>    9.1550    0.0000 </r>
       <r>    9.1550    0.0000 </r>
       <r>   10.0931    0.0000 </r>
       <r>   10.0931    0.0000 </r>
       <r>   10.3131    0.0000 </r>
       <r>   10.3131    0.0000 </r>
       <r>   11.4725    0.0000 </r>
       <r>   11.4725    0.0000 </r>
       <r>   11.8650    0.0000 </r>
       <r>   11.8650    0.0000 </r>
       <r>   12.2812    0.0000 </r>
       <r>   12.2812    0.0000 </r>
       <r>   13.2056    0.0000 </r>
       <r>   13.2056    0.0000 </r>
       <r>   15.1106    0.0000 </r>
       <r>   15.1106    0.0000 </r>
       <r>   16.3754    0.0000 </r>
       <r>   16.3754    0.0000 </r>
       <r>   16.6348    0.0000 </r>
       <r>   16.6348    0.0000 </r>
       <r>   17.1833    0.0000 </r>
       <r>   17.1833    0.0000 </r>
      </set>
      <set comment="kpoint 46">
       <r>  -15.4014    1.0000 </r>
       <r>  -15.3996    1.0000 </r>
       <r>  -15.3988    1.0000 </r>
       <r>  -15.3968    1.0000 </r>
       <r>  -15.3859    1.0000 </r>
       <r>  -15.3856    1.0000 </r>
       <r>  -15.3855    1.0000 </r>
       <r>  -15.3843    1.0000 </r>
       <r>  -15.3752    1.0000 </r>
       <r>  -15.3723    1.0000 </r>
       <r>  -15.3684    1.0000 </r>
       <r>  -15.3680    1.0000 </r>
       <r>  -15.3517    1.0000 </r>
       <r>  -15.3493    1.0000 </r>
       <r>  -15.3455    1.0000 </r>
       <r>  -15.3445    1.0000 </r>
       <r>  -15.3230    1.0000 </r>
       <r>  -15.3206    1.0000 </r>
       <r>  -15.3175    1.0000 </r>
       <r>  -15.3165    1.0000 </r>
       <r>   -7.1798    1.0000 </r>
       <r>   -7.1029    1.0000 </r>
       <r>   -6.8769    1.0000 </r>
       <r>   -6.8638    1.0000 </r>
       <r>   -2.0632    1.0000 </r>
       <r>   -1.7605    1.0000 </r>
       <r>   -1.6989    1.0000 </r>
       <r>   -1.4058    1.0000 </r>
       <r>    2.2362    1.0000 </r>
       <r>    2.7922    1.0000 </r>
       <r>    3.1656    1.0000 </r>
       <r>    3.4140    1.0000 </r>
       <r>    3.4204    1.0000 </r>
       <r>    3.8366    1.0000 </r>
       <r>    3.8517    1.0000 </r>
       <r>    3.8834    1.0000 </r>
       <r>    4.5595    1.0000 </r>
       <r>    4.7358    1.0000 </r>
       <r>    5.1088    1.0000 </r>
       <r>    5.2301    1.0000 </r>
       <r>    6.8355    0.0000 </r>
       <r>    7.0453    0.0000 </r>
       <r>    7.3340    0.0000 </r>
       <r>    7.5359    0.0000 </r>
       <r>    7.8355    0.0000 </r>
       <r>    8.0285    0.0000 </r>
       <r>    8.0302    0.0000 </r>
       <r>    8.3578    0.0000 </r>
       <r>    8.9676    0.0000 </r>
       <r>    9.3913    0.0000 </r>
       <r>   10.2168    0.0000 </r>
       <r>   10.3891    0.0000 </r>
       <r>   13.2161    0.0000 </r>
       <r>   13.5576    0.0000 </r>
       <r>   13.9538    0.0000 </r>
       <r>   14.0025    0.0000 </r>
       <r>   14.4502    0.0000 </r>
       <r>   14.5286    0.0000 </r>
       <r>   14.7261    0.0000 </r>
       <r>   15.1481    0.0000 </r>
       <r>   15.7844    0.0000 </r>
       <r>   15.8032    0.0000 </r>
       <r>   16.0331    0.0000 </r>
       <r>   16.3294    0.0000 </r>
      </set>
      <set comment="kpoint 47">
       <r>  -15.4040    1.0000 </r>
       <r>  -15.4023    1.0000 </r>
       <r>  -15.4005    1.0000 </r>
       <r>  -15.3988    1.0000 </r>
       <r>  -15.3859    1.0000 </r>
       <r>  -15.3856    1.0000 </r>
       <r>  -15.3840    1.0000 </r>
       <r>  -15.3836    1.0000 </r>
       <r>  -15.3744    1.0000 </r>
       <r>  -15.3719    1.0000 </r>
       <r>  -15.3682    1.0000 </r>
       <r>  -15.3677    1.0000 </r>
       <r>  -15.3507    1.0000 </r>
       <r>  -15.3487    1.0000 </r>
       <r>  -15.3445    1.0000 </r>
       <r>  -15.3437    1.0000 </r>
       <r>  -15.3230    1.0000 </r>
       <r>  -15.3209    1.0000 </r>
       <r>  -15.3172    1.0000 </r>
       <r>  -15.3164    1.0000 </r>
       <r>   -7.1304    1.0000 </r>
       <r>   -7.0568    1.0000 </r>
       <r>   -6.8448    1.0000 </r>
       <r>   -6.8311    1.0000 </r>
       <r>   -1.9681    1.0000 </r>
       <r>   -1.6769    1.0000 </r>
       <r>   -1.6047    1.0000 </r>
       <r>   -1.3442    1.0000 </r>
       <r>    2.1495    1.0000 </r>
       <r>    2.2913    1.0000 </r>
       <r>    2.6050    1.0000 </r>
       <r>    2.8689    1.0000 </r>
       <r>    3.0499    1.0000 </r>
       <r>    3.4526    1.0000 </r>
       <r>    3.6391    1.0000 </r>
       <r>    4.0167    1.0000 </r>
       <r>    4.4348    1.0000 </r>
       <r>    4.7303    1.0000 </r>
       <r>    4.7631    1.0000 </r>
       <r>    5.0307    1.0000 </r>
       <r>    7.1138    0.0000 </r>
       <r>    7.1790    0.0000 </r>
       <r>    7.3421    0.0000 </r>
       <r>    7.6073    0.0000 </r>
       <r>    8.4267    0.0000 </r>
       <r>    8.6932    0.0000 </r>
       <r>    8.8672    0.0000 </r>
       <r>    9.2470    0.0000 </r>
       <r>    9.3250    0.0000 </r>
       <r>    9.9341    0.0000 </r>
       <r>   10.2190    0.0000 </r>
       <r>   10.3090    0.0000 </r>
       <r>   12.4575    0.0000 </r>
       <r>   12.8383    0.0000 </r>
       <r>   13.8594    0.0000 </r>
       <r>   14.2619    0.0000 </r>
       <r>   14.6447    0.0000 </r>
       <r>   14.8523    0.0000 </r>
       <r>   14.9516    0.0000 </r>
       <r>   15.5105    0.0000 </r>
       <r>   15.8973    0.0000 </r>
       <r>   16.0055    0.0000 </r>
       <r>   16.4971    0.0000 </r>
       <r>   16.8043    0.0000 </r>
      </set>
      <set comment="kpoint 48">
       <r>  -15.4097    1.0000 </r>
       <r>  -15.4082    1.0000 </r>
       <r>  -15.4050    1.0000 </r>
       <r>  -15.4038    1.0000 </r>
       <r>  -15.3859    1.0000 </r>
       <r>  -15.3851    1.0000 </r>
       <r>  -15.3823    1.0000 </r>
       <r>  -15.3819    1.0000 </r>
       <r>  -15.3726    1.0000 </r>
       <r>  -15.3710    1.0000 </r>
       <r>  -15.3676    1.0000 </r>
       <r>  -15.3669    1.0000 </r>
       <r>  -15.3483    1.0000 </r>
       <r>  -15.3470    1.0000 </r>
       <r>  -15.3423    1.0000 </r>
       <r>  -15.3417    1.0000 </r>
       <r>  -15.3230    1.0000 </r>
       <r>  -15.3214    1.0000 </r>
       <r>  -15.3167    1.0000 </r>
       <r>  -15.3162    1.0000 </r>
       <r>   -7.0008    1.0000 </r>
       <r>   -6.9374    1.0000 </r>
       <r>   -6.7690    1.0000 </r>
       <r>   -6.7533    1.0000 </r>
       <r>   -1.7064    1.0000 </r>
       <r>   -1.4524    1.0000 </r>
       <r>   -1.3442    1.0000 </r>
       <r>   -1.1841    1.0000 </r>
       <r>    1.3601    1.0000 </r>
       <r>    1.6127    1.0000 </r>
       <r>    1.9173    1.0000 </r>
       <r>    2.1083    1.0000 </r>
       <r>    2.4678    1.0000 </r>
       <r>    2.9447    1.0000 </r>
       <r>    3.1248    1.0000 </r>
       <r>    3.5682    1.0000 </r>
       <r>    3.7551    1.0000 </r>
       <r>    4.1351    1.0000 </r>
       <r>    4.3931    1.0000 </r>
       <r>    4.7889    1.0000 </r>
       <r>    7.5392    0.0000 </r>
       <r>    7.9158    0.0000 </r>
       <r>    8.4595    0.0000 </r>
       <r>    8.7517    0.0000 </r>
       <r>    9.0874    0.0000 </r>
       <r>    9.1909    0.0000 </r>
       <r>    9.6423    0.0000 </r>
       <r>    9.7751    0.0000 </r>
       <r>   10.4090    0.0000 </r>
       <r>   10.6529    0.0000 </r>
       <r>   11.0426    0.0000 </r>
       <r>   11.4010    0.0000 </r>
       <r>   12.0894    0.0000 </r>
       <r>   12.2566    0.0000 </r>
       <r>   13.5150    0.0000 </r>
       <r>   13.6174    0.0000 </r>
       <r>   14.9270    0.0000 </r>
       <r>   15.2643    0.0000 </r>
       <r>   15.4173    0.0000 </r>
       <r>   15.9975    0.0000 </r>
       <r>   16.3492    0.0000 </r>
       <r>   16.5254    0.0000 </r>
       <r>   16.9282    0.0000 </r>
       <r>   17.2072    0.0000 </r>
      </set>
      <set comment="kpoint 49">
       <r>  -15.4148    1.0000 </r>
       <r>  -15.4140    1.0000 </r>
       <r>  -15.4095    1.0000 </r>
       <r>  -15.4088    1.0000 </r>
       <r>  -15.3859    1.0000 </r>
       <r>  -15.3852    1.0000 </r>
       <r>  -15.3812    1.0000 </r>
       <r>  -15.3808    1.0000 </r>
       <r>  -15.3710    1.0000 </r>
       <r>  -15.3702    1.0000 </r>
       <r>  -15.3667    1.0000 </r>
       <r>  -15.3662    1.0000 </r>
       <r>  -15.3454    1.0000 </r>
       <r>  -15.3449    1.0000 </r>
       <r>  -15.3400    1.0000 </r>
       <r>  -15.3397    1.0000 </r>
       <r>  -15.3227    1.0000 </r>
       <r>  -15.3219    1.0000 </r>
       <r>  -15.3163    1.0000 </r>
       <r>  -15.3160    1.0000 </r>
       <r>   -6.8462    1.0000 </r>
       <r>   -6.8003    1.0000 </r>
       <r>   -6.7030    1.0000 </r>
       <r>   -6.6839    1.0000 </r>
       <r>   -1.3855    1.0000 </r>
       <r>   -1.2236    1.0000 </r>
       <r>   -1.0157    1.0000 </r>
       <r>   -0.9472    1.0000 </r>
       <r>    0.7831    1.0000 </r>
       <r>    1.1319    1.0000 </r>
       <r>    1.1929    1.0000 </r>
       <r>    1.6146    1.0000 </r>
       <r>    1.8434    1.0000 </r>
       <r>    2.2208    1.0000 </r>
       <r>    2.3632    1.0000 </r>
       <r>    2.8474    1.0000 </r>
       <r>    3.6682    1.0000 </r>
       <r>    3.9803    1.0000 </r>
       <r>    4.3650    1.0000 </r>
       <r>    4.5325    1.0000 </r>
       <r>    7.8600    0.0000 </r>
       <r>    8.1858    0.0000 </r>
       <r>    8.6037    0.0000 </r>
       <r>    8.9003    0.0000 </r>
       <r>    9.9670    0.0000 </r>
       <r>   10.0247    0.0000 </r>
       <r>   10.4428    0.0000 </r>
       <r>   10.5678    0.0000 </r>
       <r>   11.5603    0.0000 </r>
       <r>   11.8238    0.0000 </r>
       <r>   12.1404    0.0000 </r>
       <r>   12.1536    0.0000 </r>
       <r>   12.2542    0.0000 </r>
       <r>   12.5027    0.0000 </r>
       <r>   13.1607    0.0000 </r>
       <r>   13.2894    0.0000 </r>
       <r>   15.1569    0.0000 </r>
       <r>   15.3631    0.0000 </r>
       <r>   16.1601    0.0000 </r>
       <r>   16.3589    0.0000 </r>
       <r>   16.8104    0.0000 </r>
       <r>   16.9259    0.0000 </r>
       <r>   17.1080    0.0000 </r>
       <r>   17.1544    0.0000 </r>
      </set>
      <set comment="kpoint 50">
       <r>  -15.4166    1.0000 </r>
       <r>  -15.4166    1.0000 </r>
       <r>  -15.4111    1.0000 </r>
       <r>  -15.4111    1.0000 </r>
       <r>  -15.3856    1.0000 </r>
       <r>  -15.3856    1.0000 </r>
       <r>  -15.3806    1.0000 </r>
       <r>  -15.3806    1.0000 </r>
       <r>  -15.3701    1.0000 </r>
       <r>  -15.3701    1.0000 </r>
       <r>  -15.3661    1.0000 </r>
       <r>  -15.3661    1.0000 </r>
       <r>  -15.3441    1.0000 </r>
       <r>  -15.3441    1.0000 </r>
       <r>  -15.3389    1.0000 </r>
       <r>  -15.3389    1.0000 </r>
       <r>  -15.3223    1.0000 </r>
       <r>  -15.3223    1.0000 </r>
       <r>  -15.3160    1.0000 </r>
       <r>  -15.3160    1.0000 </r>
       <r>   -6.7479    1.0000 </r>
       <r>   -6.7479    1.0000 </r>
       <r>   -6.6763    1.0000 </r>
       <r>   -6.6763    1.0000 </r>
       <r>   -1.2012    1.0000 </r>
       <r>   -1.2012    1.0000 </r>
       <r>   -0.7998    1.0000 </r>
       <r>   -0.7998    1.0000 </r>
       <r>    0.7402    1.0000 </r>
       <r>    0.7402    1.0000 </r>
       <r>    1.1585    1.0000 </r>
       <r>    1.1585    1.0000 </r>
       <r>    1.7418    1.0000 </r>
       <r>    1.7418    1.0000 </r>
       <r>    2.2720    1.0000 </r>
       <r>    2.2720    1.0000 </r>
       <r>    3.8714    1.0000 </r>
       <r>    3.8714    1.0000 </r>
       <r>    4.4087    1.0000 </r>
       <r>    4.4087    1.0000 </r>
       <r>    8.0493    0.0000 </r>
       <r>    8.0493    0.0000 </r>
       <r>    8.5931    0.0000 </r>
       <r>    8.5931    0.0000 </r>
       <r>   10.6163    0.0000 </r>
       <r>   10.6163    0.0000 </r>
       <r>   10.7969    0.0000 </r>
       <r>   10.7969    0.0000 </r>
       <r>   12.2067    0.0000 </r>
       <r>   12.2067    0.0000 </r>
       <r>   12.5003    0.0000 </r>
       <r>   12.5003    0.0000 </r>
       <r>   12.6111    0.0000 </r>
       <r>   12.6111    0.0000 </r>
       <r>   13.1792    0.0000 </r>
       <r>   13.1792    0.0000 </r>
       <r>   15.4273    0.0000 </r>
       <r>   15.4273    0.0000 </r>
       <r>   16.3614    0.0000 </r>
       <r>   16.3614    0.0000 </r>
       <r>   16.9427    0.0000 </r>
       <r>   16.9427    0.0000 </r>
       <r>   17.1585    0.0000 </r>
       <r>   17.1585    0.0000 </r>
      </set>
     </set>
    </set>
   </array>
  </eigenvalues>
  <separator name="orbital magnetization" >
   <v name="MAGDIPOLOUT">      0.00000000      0.00000000      0.00000000</v>
  </separator>
  <dos>
   <i name="efermi">      5.97182255 </i>
   <total>
    <array>
     <dimension dim="1">gridpoints</dimension>
     <dimension dim="2">spin</dimension>
     <field>energy</field>
     <field>total</field>
     <field>integrated</field>
     <set>
      <set comment="spin 1">
       <r>   -17.0801     0.0000     0.0000 </r>
       <r>   -16.9583     0.0000     0.0000 </r>
       <r>   -16.8365     0.0000     0.0000 </r>
       <r>   -16.7147     0.0000     0.0000 </r>
       <r>   -16.5929     0.0000     0.0000 </r>
       <r>   -16.4711     0.0000     0.0000 </r>
       <r>   -16.3492     0.0000     0.0000 </r>
       <r>   -16.2274     0.0000     0.0000 </r>
       <r>   -16.1056     0.0000     0.0000 </r>
       <r>   -15.9838     0.0000     0.0000 </r>
       <r>   -15.8620     0.0000     0.0000 </r>
       <r>   -15.7402     0.0000     0.0000 </r>
       <r>   -15.6184     0.0000     0.0000 </r>
       <r>   -15.4966     0.0000     0.0000 </r>
       <r>   -15.3748   153.6475    18.7153 </r>
       <r>   -15.2530    66.1340    40.0000 </r>
       <r>   -15.1312     0.0000    40.0000 </r>
       <r>   -15.0094     0.0000    40.0000 </r>
       <r>   -14.8876     0.0000    40.0000 </r>
       <r>   -14.7658     0.0000    40.0000 </r>
       <r>   -14.6440     0.0000    40.0000 </r>
       <r>   -14.5221     0.0000    40.0000 </r>
       <r>   -14.4003     0.0000    40.0000 </r>
       <r>   -14.2785     0.0000    40.0000 </r>
       <r>   -14.1567     0.0000    40.0000 </r>
       <r>   -14.0349     0.0000    40.0000 </r>
       <r>   -13.9131     0.0000    40.0000 </r>
       <r>   -13.7913     0.0000    40.0000 </r>
       <r>   -13.6695     0.0000    40.0000 </r>
       <r>   -13.5477     0.0000    40.0000 </r>
       <r>   -13.4259     0.0000    40.0000 </r>
       <r>   -13.3041     0.0000    40.0000 </r>
       <r>   -13.1823     0.0000    40.0000 </r>
       <r>   -13.0605     0.0000    40.0000 </r>
       <r>   -12.9387     0.0000    40.0000 </r>
       <r>   -12.8169     0.0000    40.0000 </r>
       <r>   -12.6950     0.0000    40.0000 </r>
       <r>   -12.5732     0.0000    40.0000 </r>
       <r>   -12.4514     0.0000    40.0000 </r>
       <r>   -12.3296     0.0000    40.0000 </r>
       <r>   -12.2078     0.0000    40.0000 </r>
       <r>   -12.0860     0.0000    40.0000 </r>
       <r>   -11.9642     0.0000    40.0000 </r>
       <r>   -11.8424     0.0000    40.0000 </r>
       <r>   -11.7206     0.0000    40.0000 </r>
       <r>   -11.5988     0.0000    40.0000 </r>
       <r>   -11.4770     0.0000    40.0000 </r>
       <r>   -11.3552     0.0000    40.0000 </r>
       <r>   -11.2334     0.0000    40.0000 </r>
       <r>   -11.1116     0.0000    40.0000 </r>
       <r>   -10.9898     0.0000    40.0000 </r>
       <r>   -10.8679     0.0000    40.0000 </r>
       <r>   -10.7461     0.0000    40.0000 </r>
       <r>   -10.6243     0.0000    40.0000 </r>
       <r>   -10.5025     0.0000    40.0000 </r>
       <r>   -10.3807     0.0000    40.0000 </r>
       <r>   -10.2589     0.0000    40.0000 </r>
       <r>   -10.1371     0.0000    40.0000 </r>
       <r>   -10.0153     0.0000    40.0000 </r>
       <r>    -9.8935     0.0000    40.0000 </r>
       <r>    -9.7717     0.0000    40.0000 </r>
       <r>    -9.6499     0.0000    40.0000 </r>
       <r>    -9.5281     0.0000    40.0000 </r>
       <r>    -9.4063     0.0000    40.0000 </r>
       <r>    -9.2845     0.0000    40.0000 </r>
       <r>    -9.1627     0.0000    40.0000 </r>
       <r>    -9.0408     0.0000    40.0000 </r>
       <r>    -8.9190     0.0000    40.0000 </r>
       <r>    -8.7972     0.0000    40.0000 </r>
       <r>    -8.6754     0.0000    40.0000 </r>
       <r>    -8.5536     0.0000    40.0000 </r>
       <r>    -8.4318     0.0000    40.0000 </r>
       <r>    -8.3100     0.0000    40.0000 </r>
       <r>    -8.1882     0.0209    40.0025 </r>
       <r>    -8.0664     0.4562    40.0648 </r>
       <r>    -7.9446     0.6082    40.2500 </r>
       <r>    -7.8228     1.9069    40.5193 </r>
       <r>    -7.7010     1.5744    40.7936 </r>
       <r>    -7.5792     2.4357    41.1671 </r>
       <r>    -7.4574     2.7957    41.5998 </r>
       <r>    -7.3356     2.1366    41.9454 </r>
       <r>    -7.2137     1.8881    42.4152 </r>
       <r>    -7.0919     2.5720    42.9614 </r>
       <r>    -6.9701     2.9370    43.6078 </r>
       <r>    -6.8483     7.6258    44.7900 </r>
       <r>    -6.7265     7.5503    46.2252 </r>
       <r>    -6.6047     8.4630    47.5771 </r>
       <r>    -6.4829     1.8977    47.9997 </r>
       <r>    -6.3611     0.0000    48.0000 </r>
       <r>    -6.2393     0.0000    48.0000 </r>
       <r>    -6.1175     0.0000    48.0000 </r>
       <r>    -5.9957     0.0000    48.0000 </r>
       <r>    -5.8739     0.0000    48.0000 </r>
       <r>    -5.7521     0.0000    48.0000 </r>
       <r>    -5.6303     0.0000    48.0000 </r>
       <r>    -5.5085     0.0000    48.0000 </r>
       <r>    -5.3866     0.0000    48.0000 </r>
       <r>    -5.2648     0.0000    48.0000 </r>
       <r>    -5.1430     0.0000    48.0000 </r>
       <r>    -5.0212     0.0000    48.0000 </r>
       <r>    -4.8994     0.0000    48.0000 </r>
       <r>    -4.7776     0.0000    48.0000 </r>
       <r>    -4.6558     0.0000    48.0000 </r>
       <r>    -4.5340     0.0000    48.0000 </r>
       <r>    -4.4122     0.0000    48.0000 </r>
       <r>    -4.2904     0.0000    48.0000 </r>
       <r>    -4.1686     0.0000    48.0000 </r>
       <r>    -4.0468     0.0000    48.0000 </r>
       <r>    -3.9250     0.0000    48.0000 </r>
       <r>    -3.8032     0.0000    48.0000 </r>
       <r>    -3.6814     0.0000    48.0000 </r>
       <r>    -3.5595     0.0000    48.0000 </r>
       <r>    -3.4377     0.0000    48.0000 </r>
       <r>    -3.3159     0.0000    48.0000 </r>
       <r>    -3.1941     0.0000    48.0000 </r>
       <r>    -3.0723     0.0000    48.0000 </r>
       <r>    -2.9505     0.0000    48.0000 </r>
       <r>    -2.8287     0.0000    48.0000 </r>
       <r>    -2.7069     0.0000    48.0000 </r>
       <r>    -2.5851     0.1186    48.0144 </r>
       <r>    -2.4633     0.4561    48.0741 </r>
       <r>    -2.3415     1.1128    48.2837 </r>
       <r>    -2.2197     0.7296    48.4222 </r>
       <r>    -2.0979     2.2759    48.7217 </r>
       <r>    -1.9761     1.9163    49.1038 </r>
       <r>    -1.8543     0.9979    49.4919 </r>
       <r>    -1.7324     2.7232    49.9613 </r>
       <r>    -1.6106     2.6329    50.4503 </r>
       <r>    -1.4888     1.8921    50.8971 </r>
       <r>    -1.3670     2.5900    51.3803 </r>
       <r>    -1.2452     0.6090    51.7131 </r>
       <r>    -1.1234     3.3709    52.3087 </r>
       <r>    -1.0016     3.2362    52.8479 </r>
       <r>    -0.8798     1.6163    53.2617 </r>
       <r>    -0.7580     3.3459    54.1205 </r>
       <r>    -0.6362     2.1103    54.5811 </r>
       <r>    -0.5144     1.7040    54.8094 </r>
       <r>    -0.3926     1.6565    55.0814 </r>
       <r>    -0.2708     1.1632    55.2621 </r>
       <r>    -0.1490     1.3691    55.4723 </r>
       <r>    -0.0272     0.3041    55.5370 </r>
       <r>     0.0947     0.4575    55.5928 </r>
       <r>     0.2165     0.0000    55.6574 </r>
       <r>     0.3383     1.2163    55.8056 </r>
       <r>     0.4601     0.6865    55.8892 </r>
       <r>     0.5819     0.3041    55.9907 </r>
       <r>     0.7037     0.0007    56.0279 </r>
       <r>     0.8255     0.9170    56.2691 </r>
       <r>     0.9473     0.6270    56.4653 </r>
       <r>     1.0691     1.1340    56.6659 </r>
       <r>     1.1909     2.8876    57.1388 </r>
       <r>     1.3127     1.9491    57.5059 </r>
       <r>     1.4345     4.1811    58.1297 </r>
       <r>     1.5563     2.7352    58.5461 </r>
       <r>     1.6781     1.8180    58.8789 </r>
       <r>     1.7999     2.3441    59.3133 </r>
       <r>     1.9218     4.2343    59.9695 </r>
       <r>     2.0436     2.9152    60.4199 </r>
       <r>     2.1654     3.9295    61.0064 </r>
       <r>     2.2872     4.4674    61.7756 </r>
       <r>     2.4090     4.1166    62.5107 </r>
       <r>     2.5308     2.3902    62.9948 </r>
       <r>     2.6526     4.8651    63.7593 </r>
       <r>     2.7744     1.7063    64.0967 </r>
       <r>     2.8962     4.3177    64.7296 </r>
       <r>     3.0180     4.5538    65.5362 </r>
       <r>     3.1398     3.2179    66.0957 </r>
       <r>     3.2616     3.0642    66.6881 </r>
       <r>     3.3834     3.7283    67.4356 </r>
       <r>     3.5052     5.7938    68.4557 </r>
       <r>     3.6270     4.3250    69.0176 </r>
       <r>     3.7489     3.8909    69.8536 </r>
       <r>     3.8707     3.0592    70.4930 </r>
       <r>     3.9925     4.0846    71.3031 </r>
       <r>     4.1143     5.6163    72.2952 </r>
       <r>     4.2361     2.8609    72.9411 </r>
       <r>     4.3579     4.1403    73.5506 </r>
       <r>     4.4797     2.8970    74.2140 </r>
       <r>     4.6015     2.1838    74.8493 </r>
       <r>     4.7233     2.0968    75.2554 </r>
       <r>     4.8451     4.6992    76.2020 </r>
       <r>     4.9669     2.4602    76.5775 </r>
       <r>     5.0887     4.1269    77.2805 </r>
       <r>     5.2105     4.3358    78.0096 </r>
       <r>     5.3323     5.5600    79.0198 </r>
       <r>     5.4541     3.8378    79.6527 </r>
       <r>     5.5760     0.6298    79.7619 </r>
       <r>     5.6978     0.6248    79.8909 </r>
       <r>     5.8196     0.2511    79.9565 </r>
       <r>     5.9414     0.1520    80.0000 </r>
       <r>     6.0632     0.0000    80.0000 </r>
       <r>     6.1850     0.0000    80.0000 </r>
       <r>     6.3068     0.0018    80.0002 </r>
       <r>     6.4286     0.3046    80.0834 </r>
       <r>     6.5504     0.6020    80.1752 </r>
       <r>     6.6722     1.0205    80.3002 </r>
       <r>     6.7940     1.1858    80.4685 </r>
       <r>     6.9158     1.3524    80.7110 </r>
       <r>     7.0376     0.4977    80.8477 </r>
       <r>     7.1594     3.7838    81.4331 </r>
       <r>     7.2812     2.6943    81.9300 </r>
       <r>     7.4031     2.9690    82.5561 </r>
       <r>     7.5249     1.3641    82.9347 </r>
       <r>     7.6467     3.6713    83.6231 </r>
       <r>     7.7685     1.6343    84.0602 </r>
       <r>     7.8903     4.0669    84.8750 </r>
       <r>     8.0121     1.0590    85.2679 </r>
       <r>     8.1339     0.4563    85.6945 </r>
       <r>     8.2557     4.6469    86.2975 </r>
       <r>     8.3775     2.7807    86.8480 </r>
       <r>     8.4993     4.2387    87.5070 </r>
       <r>     8.6211     3.3686    88.1603 </r>
       <r>     8.7429     2.5339    88.6327 </r>
       <r>     8.8647     3.2231    89.4759 </r>
       <r>     8.9865     6.2218    90.5264 </r>
       <r>     9.1083     4.9364    91.4531 </r>
       <r>     9.2302     3.5428    92.0241 </r>
       <r>     9.3520     5.0447    92.7163 </r>
       <r>     9.4738     3.4186    93.3238 </r>
       <r>     9.5956     1.3857    93.6688 </r>
       <r>     9.7174     2.7366    94.1111 </r>
       <r>     9.8392     1.7811    94.4947 </r>
       <r>     9.9610     5.1735    95.2228 </r>
       <r>    10.0828     3.6906    95.8755 </r>
       <r>    10.2046     2.5111    96.2781 </r>
       <r>    10.3264     4.4349    97.0495 </r>
       <r>    10.4482     3.6450    97.7310 </r>
       <r>    10.5700     3.0504    98.4456 </r>
       <r>    10.6918     4.9498    99.2048 </r>
       <r>    10.8136     5.6603    99.9950 </r>
       <r>    10.9354     3.1297   100.6590 </r>
       <r>    11.0572     5.2323   101.5077 </r>
       <r>    11.1791     1.8683   101.8942 </r>
       <r>    11.3009     1.8937   102.2121 </r>
       <r>    11.4227     2.9757   102.6773 </r>
       <r>    11.5445     2.6923   103.2446 </r>
       <r>    11.6663     1.8696   103.6629 </r>
       <r>    11.7881     2.2563   104.1359 </r>
       <r>    11.9099     2.5913   104.6119 </r>
       <r>    12.0317     2.8261   105.0850 </r>
       <r>    12.1535     4.4880   105.6856 </r>
       <r>    12.2753     5.1923   106.4750 </r>
       <r>    12.3971     1.9838   106.9176 </r>
       <r>    12.5189     2.5840   107.3610 </r>
       <r>    12.6407     2.2222   107.7059 </r>
       <r>    12.7625     3.6065   108.4115 </r>
       <r>    12.8843     2.2903   108.8438 </r>
       <r>    13.0062     3.3851   109.5142 </r>
       <r>    13.1280     2.4355   109.8800 </r>
       <r>    13.2498     3.8863   110.5937 </r>
       <r>    13.3716     2.2336   110.9850 </r>
       <r>    13.4934     1.8006   111.5064 </r>
       <r>    13.6152     2.5850   111.9908 </r>
       <r>    13.7370     1.2319   112.2612 </r>
       <r>    13.8588     2.2905   112.6864 </r>
       <r>    13.9806     4.8280   113.5881 </r>
       <r>    14.1024     1.6027   114.0841 </r>
       <r>    14.2242     4.1695   114.7486 </r>
       <r>    14.3460     3.4669   115.2556 </r>
       <r>    14.4678     1.9275   115.7440 </r>
       <r>    14.5896     2.7628   116.1513 </r>
       <r>    14.7114     4.7319   116.8264 </r>
       <r>    14.8333     1.7093   117.2638 </r>
       <r>    14.9551     4.1424   118.0046 </r>
       <r>    15.0769     1.0654   118.2409 </r>
       <r>    15.1987     3.8277   118.8551 </r>
       <r>    15.3205     5.0754   119.6553 </r>
       <r>    15.4423     5.8119   120.5227 </r>
       <r>    15.5641     4.7265   121.2609 </r>
       <r>    15.6859     1.4291   121.6926 </r>
       <r>    15.8077     4.8452   122.4791 </r>
       <r>    15.9295     3.3498   122.9451 </r>
       <r>    16.0513     5.7911   123.8721 </r>
       <r>    16.1731     2.6166   124.2817 </r>
       <r>    16.2949     2.3256   124.6351 </r>
       <r>    16.4167     4.3076   125.2099 </r>
       <r>    16.5385     3.3473   125.7596 </r>
       <r>    16.6604     2.2516   126.2743 </r>
       <r>    16.7822     1.5826   126.6557 </r>
       <r>    16.9040     0.9025   126.9247 </r>
       <r>    17.0258     1.5205   127.3334 </r>
       <r>    17.1476     1.0073   127.4931 </r>
       <r>    17.2694     0.6082   127.8519 </r>
       <r>    17.3912     0.0000   127.8889 </r>
       <r>    17.5130     0.0000   127.8889 </r>
       <r>    17.6348     0.4499   127.9437 </r>
       <r>    17.7566     0.0000   127.9630 </r>
       <r>    17.8784     0.3041   128.0000 </r>
       <r>    18.0002     0.0000   128.0000 </r>
       <r>    18.1220     0.0000   128.0000 </r>
       <r>    18.2438     0.0000   128.0000 </r>
       <r>    18.3656     0.0000   128.0000 </r>
       <r>    18.4875     0.0000   128.0000 </r>
       <r>    18.6093     0.0000   128.0000 </r>
       <r>    18.7311     0.0000   128.0000 </r>
       <r>    18.8529     0.0000   128.0000 </r>
       <r>    18.9747     0.0000   128.0000 </r>
       <r>    19.0965     0.0000   128.0000 </r>
       <r>    19.2183     0.0000   128.0000 </r>
       <r>    19.3401     0.0000   128.0000 </r>
       <r>    19.4619     0.0000   128.0000 </r>
      </set>
     </set>
    </array>
   </total>
  </dos>
 </calculation>
 <structure name="finalpos" >
  <crystal>
   <varray name="basis" >
    <v>       4.34539863       0.00000000       0.00000000 </v>
    <v>       0.00000000       4.11936655       0.00000000 </v>
    <v>       0.00000000       0.00000000      11.35478920 </v>
   </varray>
   <i name="volume">    203.25401695 </i>
   <varray name="rec_basis" >
    <v>       0.23012848       0.00000000       0.00000000 </v>
    <v>       0.00000000       0.24275577       0.00000000 </v>
    <v>       0.00000000       0.00000000       0.08806857 </v>
   </varray>
  </crystal>
  <varray name="positions" >
   <v>       0.09914209       0.25000000       0.11561694 </v>
   <v>       0.40085791       0.25000000       0.61561694 </v>
   <v>       0.59914209       0.75000000       0.38438306 </v>
   <v>       0.90085791       0.75000000       0.88438306 </v>
   <v>       0.02604419       0.25000000       0.35634181 </v>
   <v>       0.47395581       0.25000000       0.85634181 </v>
   <v>       0.52604419       0.75000000       0.14365819 </v>
   <v>       0.97395581       0.75000000       0.64365819 </v>
  </varray>
 </structure>
</modeling>
