<?xml version="1.0" encoding="ISO-8859-1"?>
<modeling>
 <generator>
  <i name="program" type="string">vasp </i>
  <i name="version" type="string">6.2.0  </i>
  <i name="subversion" type="string">18Jan21 (build Mar  1 2021 20:13:55) complex                          parallel </i>
  <i name="platform" type="string">HPECrayEX_GCC </i>
  <i name="date" type="string">2026 03 07 </i>
  <i name="time" type="string">08:15:35 </i>
 </generator>
 <incar>
  <i type="string" name="SYSTEM">Pnma SnSe</i>
  <i type="string" name="PREC">Accurate</i>
  <i type="string" name="ALGO">Normal</i>
  <i type="logical" name="ADDGRID"> T  </i>
  <i type="int" name="NELM">   250</i>
  <i type="int" name="NELMIN">     5</i>
  <i name="EDIFF">      0.00000001</i>
  <i type="int" name="NSW">     0</i>
  <i type="int" name="ISIF">     2</i>
  <i name="ENCUT">    700.00000000</i>
  <i type="logical" name="LREAL"> F  </i>
  <i type="int" name="ISMEAR">     0</i>
  <i name="SIGMA">      0.01000000</i>
  <i type="logical" name="LWAVE"> F  </i>
  <i type="logical" name="LCHARG"> F  </i>
  <i type="logical" name="LASPH"> T  </i>
  <i type="string" name="GGA">PS</i>
  <i type="logical" name="LEPSILON"> T  </i>
  <i type="int" name="IVDW">    11</i>
 </incar>
 <primitive_cell>
  <structure name="primitive_cell" >
   <crystal>
    <varray name="basis" >
     <v>       4.34539863       0.00000000       0.00000000 </v>
     <v>       0.00000000       4.11936655       0.00000000 </v>
     <v>       0.00000000       0.00000000      11.35478920 </v>
    </varray>
    <i name="volume">    203.25401695 </i>
    <varray name="rec_basis" >
     <v>       0.23012848       0.00000000       0.00000000 </v>
     <v>       0.00000000       0.24275577       0.00000000 </v>
     <v>       0.00000000       0.00000000       0.08806857 </v>
    </varray>
   </crystal>
   <varray name="positions" >
    <v>       0.09903631       0.24930268       0.11539711 </v>
    <v>       0.40096369       0.25069732       0.61539711 </v>
    <v>       0.59903631       0.74930268       0.38460289 </v>
    <v>       0.90096369       0.75069732       0.88460289 </v>
    <v>       0.02605052       0.25106527       0.35675466 </v>
    <v>       0.47394948       0.24893473       0.85675466 </v>
    <v>       0.52605052       0.75106527       0.14324534 </v>
    <v>       0.97394948       0.74893473       0.64324534 </v>
   </varray>
  </structure>
  <varray name="primitive_index" >
   <v type="int" >        1 </v>
   <v type="int" >        2 </v>
   <v type="int" >        3 </v>
   <v type="int" >        4 </v>
   <v type="int" >        5 </v>
   <v type="int" >        6 </v>
   <v type="int" >        7 </v>
   <v type="int" >        8 </v>
  </varray>
 </primitive_cell>
 <kpoints>
  <generation param="Gamma">
   <v type="int" name="divisions">       8        9        3 </v>
   <v name="usershift">      0.00000000       0.00000000       0.00000000 </v>
   <v name="genvec1">      0.12500000       0.00000000       0.00000000 </v>
   <v name="genvec2">      0.00000000       0.11111111       0.00000000 </v>
   <v name="genvec3">      0.00000000       0.00000000       0.33333333 </v>
   <v name="shift">      0.00000000       0.00000000       0.00000000 </v>
  </generation>
  <varray name="kpointlist" >
   <v>       0.00000000       0.00000000       0.00000000 </v>
   <v>       0.12500000       0.00000000       0.00000000 </v>
   <v>       0.25000000       0.00000000       0.00000000 </v>
   <v>       0.37500000       0.00000000       0.00000000 </v>
   <v>       0.50000000       0.00000000       0.00000000 </v>
   <v>       0.00000000       0.11111111       0.00000000 </v>
   <v>       0.12500000       0.11111111       0.00000000 </v>
   <v>      -0.12500000       0.11111111       0.00000000 </v>
   <v>       0.25000000       0.11111111       0.00000000 </v>
   <v>      -0.25000000       0.11111111       0.00000000 </v>
   <v>       0.37500000       0.11111111       0.00000000 </v>
   <v>      -0.37500000       0.11111111       0.00000000 </v>
   <v>       0.50000000       0.11111111       0.00000000 </v>
   <v>       0.00000000       0.22222222       0.00000000 </v>
   <v>       0.12500000       0.22222222       0.00000000 </v>
   <v>      -0.12500000       0.22222222       0.00000000 </v>
   <v>       0.25000000       0.22222222       0.00000000 </v>
   <v>      -0.25000000       0.22222222       0.00000000 </v>
   <v>       0.37500000       0.22222222       0.00000000 </v>
   <v>      -0.37500000       0.22222222       0.00000000 </v>
   <v>       0.50000000       0.22222222       0.00000000 </v>
   <v>       0.00000000       0.33333333       0.00000000 </v>
   <v>       0.12500000       0.33333333       0.00000000 </v>
   <v>      -0.12500000       0.33333333       0.00000000 </v>
   <v>       0.25000000       0.33333333       0.00000000 </v>
   <v>      -0.25000000       0.33333333       0.00000000 </v>
   <v>       0.37500000       0.33333333       0.00000000 </v>
   <v>      -0.37500000       0.33333333       0.00000000 </v>
   <v>       0.50000000       0.33333333       0.00000000 </v>
   <v>       0.00000000       0.44444444       0.00000000 </v>
   <v>       0.12500000       0.44444444       0.00000000 </v>
   <v>      -0.12500000       0.44444444       0.00000000 </v>
   <v>       0.25000000       0.44444444       0.00000000 </v>
   <v>      -0.25000000       0.44444444       0.00000000 </v>
   <v>       0.37500000       0.44444444       0.00000000 </v>
   <v>      -0.37500000       0.44444444       0.00000000 </v>
   <v>       0.50000000       0.44444444       0.00000000 </v>
   <v>       0.00000000       0.00000000       0.33333333 </v>
   <v>       0.12500000       0.00000000       0.33333333 </v>
   <v>       0.25000000       0.00000000       0.33333333 </v>
   <v>       0.37500000       0.00000000       0.33333333 </v>
   <v>       0.50000000       0.00000000       0.33333333 </v>
   <v>       0.00000000       0.11111111       0.33333333 </v>
   <v>       0.12500000       0.11111111       0.33333333 </v>
   <v>      -0.12500000       0.11111111      -0.33333333 </v>
   <v>       0.25000000       0.11111111       0.33333333 </v>
   <v>      -0.25000000       0.11111111      -0.33333333 </v>
   <v>       0.37500000       0.11111111       0.33333333 </v>
   <v>      -0.37500000       0.11111111      -0.33333333 </v>
   <v>       0.50000000       0.11111111       0.33333333 </v>
   <v>       0.00000000       0.22222222       0.33333333 </v>
   <v>       0.12500000       0.22222222       0.33333333 </v>
   <v>      -0.12500000       0.22222222      -0.33333333 </v>
   <v>       0.25000000       0.22222222       0.33333333 </v>
   <v>      -0.25000000       0.22222222      -0.33333333 </v>
   <v>       0.37500000       0.22222222       0.33333333 </v>
   <v>      -0.37500000       0.22222222      -0.33333333 </v>
   <v>       0.50000000       0.22222222       0.33333333 </v>
   <v>       0.00000000       0.33333333       0.33333333 </v>
   <v>       0.12500000       0.33333333       0.33333333 </v>
   <v>      -0.12500000       0.33333333      -0.33333333 </v>
   <v>       0.25000000       0.33333333       0.33333333 </v>
   <v>      -0.25000000       0.33333333      -0.33333333 </v>
   <v>       0.37500000       0.33333333       0.33333333 </v>
   <v>      -0.37500000       0.33333333      -0.33333333 </v>
   <v>       0.50000000       0.33333333       0.33333333 </v>
   <v>       0.00000000       0.44444444       0.33333333 </v>
   <v>       0.12500000       0.44444444       0.33333333 </v>
   <v>      -0.12500000       0.44444444      -0.33333333 </v>
   <v>       0.25000000       0.44444444       0.33333333 </v>
   <v>      -0.25000000       0.44444444      -0.33333333 </v>
   <v>       0.37500000       0.44444444       0.33333333 </v>
   <v>      -0.37500000       0.44444444      -0.33333333 </v>
   <v>       0.50000000       0.44444444       0.33333333 </v>
  </varray>
  <varray name="weights" >
   <v>       0.00462963 </v>
   <v>       0.00925926 </v>
   <v>       0.00925926 </v>
   <v>       0.00925926 </v>
   <v>       0.00462963 </v>
   <v>       0.00925926 </v>
   <v>       0.00925926 </v>
   <v>       0.00925926 </v>
   <v>       0.00925926 </v>
   <v>       0.00925926 </v>
   <v>       0.00925926 </v>
   <v>       0.00925926 </v>
   <v>       0.00925926 </v>
   <v>       0.00925926 </v>
   <v>       0.00925926 </v>
   <v>       0.00925926 </v>
   <v>       0.00925926 </v>
   <v>       0.00925926 </v>
   <v>       0.00925926 </v>
   <v>       0.00925926 </v>
   <v>       0.00925926 </v>
   <v>       0.00925926 </v>
   <v>       0.00925926 </v>
   <v>       0.00925926 </v>
   <v>       0.00925926 </v>
   <v>       0.00925926 </v>
   <v>       0.00925926 </v>
   <v>       0.00925926 </v>
   <v>       0.00925926 </v>
   <v>       0.00925926 </v>
   <v>       0.00925926 </v>
   <v>       0.00925926 </v>
   <v>       0.00925926 </v>
   <v>       0.00925926 </v>
   <v>       0.00925926 </v>
   <v>       0.00925926 </v>
   <v>       0.00925926 </v>
   <v>       0.00925926 </v>
   <v>       0.01851852 </v>
   <v>       0.01851852 </v>
   <v>       0.01851852 </v>
   <v>       0.00925926 </v>
   <v>       0.01851852 </v>
   <v>       0.01851852 </v>
   <v>       0.01851852 </v>
   <v>       0.01851852 </v>
   <v>       0.01851852 </v>
   <v>       0.01851852 </v>
   <v>       0.01851852 </v>
   <v>       0.01851852 </v>
   <v>       0.01851852 </v>
   <v>       0.01851852 </v>
   <v>       0.01851852 </v>
   <v>       0.01851852 </v>
   <v>       0.01851852 </v>
   <v>       0.01851852 </v>
   <v>       0.01851852 </v>
   <v>       0.01851852 </v>
   <v>       0.01851852 </v>
   <v>       0.01851852 </v>
   <v>       0.01851852 </v>
   <v>       0.01851852 </v>
   <v>       0.01851852 </v>
   <v>       0.01851852 </v>
   <v>       0.01851852 </v>
   <v>       0.01851852 </v>
   <v>       0.01851852 </v>
   <v>       0.01851852 </v>
   <v>       0.01851852 </v>
   <v>       0.01851852 </v>
   <v>       0.01851852 </v>
   <v>       0.01851852 </v>
   <v>       0.01851852 </v>
   <v>       0.01851852 </v>
  </varray>
 </kpoints>
 <parameters>
  <separator name="general" >
   <i type="string" name="SYSTEM">Pnma SnSe</i>
   <i type="logical" name="LCOMPAT"> F  </i>
  </separator>
  <separator name="electronic" >
   <i type="string" name="PREC">accura</i>
   <i name="ENMAX">    700.00000000</i>
   <i name="ENAUG">    446.84200000</i>
   <i name="EDIFF">      0.00000001</i>
   <i type="int" name="IALGO">    38</i>
   <i type="int" name="IWAVPR">    10</i>
   <i type="int" name="NBANDS">    64</i>
   <i type="int" name="NBANDSLOW">    -1</i>
   <i type="int" name="NBANDSHIGH">    -1</i>
   <i name="NELECT">     80.00000000</i>
   <i type="int" name="TURBO">     0</i>
   <i type="int" name="IRESTART">     0</i>
   <i type="int" name="NREBOOT">     0</i>
   <i type="int" name="NMIN">     0</i>
   <i name="EREF">      0.00000000</i>
   <separator name="electronic smearing" >
    <i type="int" name="ISMEAR">     0</i>
    <i name="SIGMA">      0.01000000</i>
    <i name="KSPACING">      0.50000000</i>
    <i type="logical" name="KGAMMA"> T  </i>
    <i type="logical" name="KBLOWUP"> T  </i>
   </separator>
   <separator name="electronic projectors" >
    <i type="logical" name="LREAL"> F  </i>
    <v name="ROPT">      0.00000000      0.00000000</v>
    <i type="int" name="LMAXPAW">  -100</i>
    <i type="int" name="LMAXMIX">     2</i>
    <i type="logical" name="NLSPLINE"> F  </i>
   </separator>
   <separator name="electronic startup" >
    <i type="int" name="ISTART">     0</i>
    <i type="int" name="ICHARG">     2</i>
    <i type="int" name="INIWAV">     1</i>
   </separator>
   <separator name="electronic spin" >
    <i type="int" name="ISPIN">     1</i>
    <i type="logical" name="LNONCOLLINEAR"> F  </i>
    <v name="MAGMOM">      1.00000000      1.00000000      1.00000000      1.00000000      1.00000000      1.00000000      1.00000000      1.00000000</v>
    <i name="NUPDOWN">     -1.00000000</i>
    <i type="logical" name="LSORBIT"> F  </i>
    <v name="SAXIS">      0.00000000      0.00000000      1.00000000</v>
    <i type="logical" name="LSPIRAL"> F  </i>
    <v name="QSPIRAL">      0.00000000      0.00000000      0.00000000</v>
    <i type="logical" name="LZEROZ"> F  </i>
   </separator>
   <separator name="electronic exchange-correlation" >
    <i type="logical" name="LASPH"> T  </i>
    <i type="logical" name="LMETAGGA"> F  </i>
   </separator>
   <separator name="electronic convergence" >
    <i type="int" name="NELM">   250</i>
    <i type="int" name="NELMDL">    -5</i>
    <i type="int" name="NELMIN">     5</i>
    <i name="ENINI">    700.00000000</i>
    <separator name="electronic convergence detail" >
     <i type="logical" name="LDIAG"> T  </i>
     <i type="logical" name="LSUBROT"> F  </i>
     <i name="WEIMIN">      0.00000000</i>
     <i name="EBREAK">      0.00000000</i>
     <i name="DEPER">      0.30000000</i>
     <i type="int" name="NRMM">     4</i>
     <i name="TIME">      0.40000000</i>
    </separator>
   </separator>
   <separator name="electronic mixer" >
    <i name="AMIX">      0.40000000</i>
    <i name="BMIX">      1.00000000</i>
    <i name="AMIN">      0.10000000</i>
    <i name="AMIX_MAG">      1.60000000</i>
    <i name="BMIX_MAG">      1.00000000</i>
    <separator name="electronic mixer details" >
     <i type="int" name="IMIX">     4</i>
     <i type="logical" name="MIXFIRST"> F  </i>
     <i type="int" name="MAXMIX">   -45</i>
     <i name="WC">    100.00000000</i>
     <i type="int" name="INIMIX">     1</i>
     <i type="int" name="MIXPRE">     1</i>
     <i type="int" name="MREMOVE">     5</i>
    </separator>
   </separator>
   <separator name="electronic dipolcorrection" >
    <i type="logical" name="LDIPOL"> F  </i>
    <i type="logical" name="LMONO"> F  </i>
    <i type="int" name="IDIPOL">     0</i>
    <i name="EPSILON">      1.00000000</i>
    <v name="DIPOL">   -100.00000000   -100.00000000   -100.00000000</v>
    <i name="EFIELD">      0.00000000</i>
   </separator>
  </separator>
  <separator name="grids" >
   <i type="int" name="NGX">    40</i>
   <i type="int" name="NGY">    36</i>
   <i type="int" name="NGZ">    98</i>
   <i type="int" name="NGXF">    80</i>
   <i type="int" name="NGYF">    72</i>
   <i type="int" name="NGZF">   196</i>
   <i type="logical" name="ADDGRID"> T  </i>
  </separator>
  <separator name="ionic" >
   <i type="int" name="NSW">     0</i>
   <i type="int" name="IBRION">    -1</i>
   <i type="int" name="MDALGO">     0</i>
   <i type="int" name="ISIF">     2</i>
   <i name="PSTRESS">      0.00000000</i>
   <i name="EDIFFG">      0.00000010</i>
   <i type="int" name="NFREE">     0</i>
   <i name="POTIM">      0.50000000</i>
   <i name="SMASS">     -3.00000000</i>
   <i name="SCALEE">      1.00000000</i>
  </separator>
  <separator name="ionic md" >
   <i name="TEBEG">      0.00010000</i>
   <i name="TEEND">      0.00010000</i>
   <i type="int" name="NBLOCK">     1</i>
   <i type="int" name="KBLOCK">     1</i>
   <i type="int" name="NPACO">   256</i>
   <i name="APACO">     16.00000000</i>
  </separator>
  <separator name="symmetry" >
   <i type="int" name="ISYM">     2</i>
   <i name="SYMPREC">      0.00001000</i>
  </separator>
  <separator name="dos" >
   <i type="int" name="LORBIT">     0</i>
   <v name="RWIGS">     -1.00000000     -1.00000000</v>
   <i type="int" name="NEDOS">   301</i>
   <i name="EMIN">     10.00000000</i>
   <i name="EMAX">    -10.00000000</i>
   <i name="EFERMI">      0.00000000</i>
  </separator>
  <separator name="writing" >
   <i type="int" name="NWRITE">     2</i>
   <i type="logical" name="LWAVE"> F  </i>
   <i type="logical" name="LDOWNSAMPLE"> F  </i>
   <i type="logical" name="LCHARG"> F  </i>
   <i type="logical" name="LPARD"> F  </i>
   <i type="logical" name="LVTOT"> F  </i>
   <i type="logical" name="LVHAR"> F  </i>
   <i type="logical" name="LELF"> F  </i>
   <i type="logical" name="LOPTICS"> F  </i>
   <v name="STM">      0.00000000      0.00000000      0.00000000      0.00000000      0.00000000      0.00000000      0.00000000</v>
  </separator>
  <separator name="performance" >
   <i type="int" name="NPAR">    32</i>
   <i type="int" name="NSIM">     4</i>
   <i type="int" name="NBLK">    -1</i>
   <i type="logical" name="LPLANE"> T  </i>
   <i type="logical" name="LSCALAPACK"> T  </i>
   <i type="logical" name="LSCAAWARE"> F  </i>
   <i type="logical" name="LSCALU"> F  </i>
   <i type="logical" name="LASYNC"> F  </i>
   <i type="logical" name="LORBITALREAL"> F  </i>
  </separator>
  <separator name="miscellaneous" >
   <i type="int" name="IDIOT">     3</i>
   <i type="int" name="PHON_NSTRUCT">    -1</i>
   <i type="logical" name="LMUSIC"> F  </i>
   <v name="POMASS">    118.71000000     78.96000000</v>
   <v name="DARWINR">      0.00000000      0.00000000</v>
   <v name="DARWINV">      1.00000000      1.00000000</v>
   <i type="logical" name="LCORR"> T  </i>
  </separator>
  <i type="logical" name="GGA_COMPAT"> T  </i>
  <i type="logical" name="LBERRY"> F  </i>
  <i type="int" name="ICORELEVEL">     0</i>
  <i type="logical" name="LDAU"> F  </i>
  <i type="int" name="I_CONSTRAINED_M">     0</i>
  <separator name="electronic exchange-correlation" >
   <i type="string" name="GGA">PS</i>
   <i type="int" name="VOSKOWN">     0</i>
   <i type="logical" name="LHFCALC"> F  </i>
   <i type="string" name="PRECFOCK"></i>
   <i type="logical" name="LSYMGRAD"> F  </i>
   <i type="logical" name="LHFONE"> F  </i>
   <i type="logical" name="LRHFCALC"> F  </i>
   <i type="logical" name="LTHOMAS"> F  </i>
   <i type="logical" name="LMODELHF"> F  </i>
   <i type="logical" name="LFOCKACE"> F  </i>
   <i name="ENCUT4O">     -1.00000000</i>
   <i type="int" name="EXXOEP">     0</i>
   <i type="int" name="FOURORBIT">     0</i>
   <i name="AEXX">      0.00000000</i>
   <i name="HFALPHA">      0.00000000</i>
   <i name="MCALPHA">      0.00000000</i>
   <i name="ALDAX">      1.00000000</i>
   <i name="AGGAX">      1.00000000</i>
   <i name="ALDAC">      1.00000000</i>
   <i name="AGGAC">      1.00000000</i>
   <i type="int" name="NKREDX">     1</i>
   <i type="int" name="NKREDY">     1</i>
   <i type="int" name="NKREDZ">     1</i>
   <i type="logical" name="SHIFTRED"> F  </i>
   <i type="logical" name="ODDONLY"> F  </i>
   <i type="logical" name="EVENONLY"> F  </i>
   <i type="int" name="LMAXFOCK">     0</i>
   <i type="int" name="NMAXFOCKAE">     0</i>
   <i type="logical" name="LFOCKAEDFT"> F  </i>
   <i name="HFSCREEN">      0.00000000</i>
   <i name="HFSCREENC">      0.00000000</i>
   <i type="int" name="NBANDSGWLOW">     0</i>
  </separator>
  <separator name="vdW DFT" >
   <i type="logical" name="LUSE_VDW"> F  </i>
   <i name="Zab_VDW">     -0.84910000</i>
   <i name="PARAM1">      0.12340000</i>
   <i name="PARAM2">      1.00000000</i>
   <i name="PARAM3">      0.00000000</i>
  </separator>
  <separator name="model GW" >
   <i type="int" name="MODEL_GW">     0</i>
   <i name="MODEL_EPS0">     15.24405127</i>
   <i name="MODEL_ALPHA">      1.00000000</i>
  </separator>
  <separator name="linear response parameters" >
   <i type="logical" name="LEPSILON"> T  </i>
   <i type="logical" name="LRPA"> F  </i>
   <i type="logical" name="LNABLA"> F  </i>
   <i type="logical" name="LVEL"> F  </i>
   <i type="int" name="KINTER">     0</i>
   <i name="CSHIFT">      0.10000000</i>
   <i name="OMEGAMAX">     -1.00000000</i>
   <i name="DEG_THRESHOLD">      0.00200000</i>
   <i name="RTIME">     -0.10000000</i>
   <i name="WPLASMAI">      0.00000000</i>
   <v name="DFIELD">      0.00000000      0.00000000      0.00000000</v>
   <v name="WPLASMA">      0.00000000      0.00000000      0.00000000      0.00000000      0.00000000      0.00000000      0.00000000      0.00000000      0.00000000</v>
  </separator>
  <separator name="orbital magnetization" >
   <i type="logical" name="NUCIND"> F  </i>
   <v name="MAGPOS">      0.00000000      0.00000000      0.00000000</v>
   <i type="logical" name="LNICSALL"> T  </i>
   <i type="logical" name="ORBITALMAG"> F  </i>
   <i type="logical" name="LMAGBLOCH"> F  </i>
   <i type="logical" name="LCHIMAG"> F  </i>
   <i type="logical" name="LGAUGE"> T  </i>
   <i type="int" name="MAGATOM">     0</i>
   <v name="MAGDIPOL">      0.00000000      0.00000000      0.00000000</v>
   <v name="AVECCONST">      0.00000000      0.00000000      0.00000000</v>
  </separator>
  <separator name="response functions" >
   <i type="logical" name="LFINITE_TEMPERATURE"> F  </i>
   <i type="logical" name="LADDER"> F  </i>
   <i type="logical" name="LRPAFORCE"> F  </i>
   <i type="logical" name="LFXC"> F  </i>
   <i type="logical" name="LHARTREE"> T  </i>
   <i type="int" name="IBSE">     0</i>
   <v type="int" name="KPOINT">    -1     0     0     0</v>
   <i type="logical" name="LTCTC"> F  </i>
   <i type="logical" name="LTCTE"> F  </i>
   <i type="logical" name="LTETE"> F  </i>
   <i type="logical" name="LTRIPLET"> F  </i>
   <i type="logical" name="LFXCEPS"> F  </i>
   <i type="logical" name="LFXHEG"> F  </i>
   <i type="int" name="NATURALO">     2</i>
   <i type="logical" name="LHOLEGF"> F  </i>
   <i type="logical" name="L2ORDER"> F  </i>
   <i type="logical" name="LDMP1"> F  </i>
   <i type="logical" name="LMP2LT"> F  </i>
   <i type="logical" name="LSMP2LT"> F  </i>
   <i type="logical" name="LGWLF"> F  </i>
   <i name="ENCUTGW">     -2.00000000</i>
   <i name="ENCUTGWSOFT">     -2.00000000</i>
   <i name="ENCUTLF">     -1.00000000</i>
   <i type="logical" name="LESF_SPLINES"> F  </i>
   <i type="int" name="LMAXMP2">    -1</i>
   <i name="SCISSOR">      0.00000000</i>
   <i type="int" name="NOMEGA">     0</i>
   <i type="int" name="NOMEGAR">     0</i>
   <i type="int" name="NBANDSGW">    -1</i>
   <i type="int" name="NBANDSO">    -1</i>
   <i type="int" name="NBANDSV">    -1</i>
   <i type="int" name="NELM">   250</i>
   <i type="int" name="NELMHF">     1</i>
   <i type="int" name="DIM">     3</i>
   <i type="int" name="IESPILON">     4</i>
   <i type="int" name="ANTIRES">     0</i>
   <i name="OMEGAMAX">    -30.00000000</i>
   <i name="OMEGAMIN">    -30.00000000</i>
   <i name="OMEGATL">   -200.00000000</i>
   <i type="int" name="OMEGAGRID">     0</i>
   <i name="CSHIFT">     -0.10000000</i>
   <i type="logical" name="LSELFENERGY"> F  </i>
   <i type="logical" name="LSPECTRAL"> F  </i>
   <i type="logical" name="LSPECTRALGW"> F  </i>
   <i type="logical" name="LSINGLES"> F  </i>
   <i type="logical" name="LFERMIGW"> F  </i>
   <i type="logical" name="ODDONLYGW"> F  </i>
   <i type="logical" name="EVENONLYGW"> F  </i>
   <i type="int" name="NKREDLFX">     1</i>
   <i type="int" name="NKREDLFY">     1</i>
   <i type="int" name="NKREDLFZ">     1</i>
   <i type="int" name="MAXMEM">  2800</i>
   <i type="int" name="TELESCOPE">     0</i>
   <i type="int" name="NTAUPAR">    -1</i>
   <i type="int" name="NOMEGAPAR">    -1</i>
   <i name="DAMP_NEWTON">      0.80000001</i>
   <i name="LAMBDA">      1.00000000</i>
  </separator>
  <separator name="External order field" >
   <i name="OFIELD_KAPPA">      0.00000000</i>
   <v name="OFIELD_K">      0.00000000      0.00000000      0.00000000</v>
   <i name="OFIELD_Q6_NEAR">      0.00000000</i>
   <i name="OFIELD_Q6_FAR">      0.00000000</i>
   <i name="OFIELD_A">      0.00000000</i>
  </separator>
 </parameters>
 <atominfo>
  <atoms>       8 </atoms>
  <types>       2 </types>
  <array name="atoms" >
   <dimension dim="1">ion</dimension>
   <field type="string">element</field>
   <field type="int">atomtype</field>
   <set>
    <rc><c>Sn</c><c>   1</c></rc>
    <rc><c>Sn</c><c>   1</c></rc>
    <rc><c>Sn</c><c>   1</c></rc>
    <rc><c>Sn</c><c>   1</c></rc>
    <rc><c>Se</c><c>   2</c></rc>
    <rc><c>Se</c><c>   2</c></rc>
    <rc><c>Se</c><c>   2</c></rc>
    <rc><c>Se</c><c>   2</c></rc>
   </set>
  </array>
  <array name="atomtypes" >
   <dimension dim="1">type</dimension>
   <field type="int">atomspertype</field>
   <field type="string">element</field>
   <field>mass</field>
   <field>valence</field>
   <field type="string">pseudopotential</field>
   <set>
    <rc><c>   4</c><c>Sn</c><c>    118.71000000</c><c>     14.00000000</c><c>  PAW_PBE Sn_d 06Sep2000                </c></rc>
    <rc><c>   4</c><c>Se</c><c>     78.96000000</c><c>      6.00000000</c><c>  PAW_PBE Se 06Sep2000                  </c></rc>
   </set>
  </array>
 </atominfo>
 <structure name="initialpos" >
  <crystal>
   <varray name="basis" >
    <v>       4.34539863       0.00000000       0.00000000 </v>
    <v>       0.00000000       4.11936655       0.00000000 </v>
    <v>       0.00000000       0.00000000      11.35478920 </v>
   </varray>
   <i name="volume">    203.25401695 </i>
   <varray name="rec_basis" >
    <v>       0.23012848       0.00000000       0.00000000 </v>
    <v>       0.00000000       0.24275577       0.00000000 </v>
    <v>       0.00000000       0.00000000       0.08806857 </v>
   </varray>
  </crystal>
  <varray name="positions" >
   <v>       0.09903631       0.24930268       0.11539711 </v>
   <v>       0.40096369       0.25069732       0.61539711 </v>
   <v>       0.59903631       0.74930268       0.38460289 </v>
   <v>       0.90096369       0.75069732       0.88460289 </v>
   <v>       0.02605052       0.25106527       0.35675466 </v>
   <v>       0.47394948       0.24893473       0.85675466 </v>
   <v>       0.52605052       0.75106527       0.14324534 </v>
   <v>       0.97394948       0.74893473       0.64324534 </v>
  </varray>
 </structure>
 <calculation>
  <scstep>
   <time name="dav">    1.93    0.97</time>
   <time name="total">    2.22    1.23</time>
   <energy>
    <i name="alphaZ">    217.43841536 </i>
    <i name="ewald">  -6082.71701271 </i>
    <i name="hartreedc">  -2322.11616496 </i>
    <i name="XCdc">    230.11274566 </i>
    <i name="pawpsdc">   7112.06264409 </i>
    <i name="pawaedc">  -7207.42447429 </i>
    <i name="eentropy">     -0.00007071 </i>
    <i name="bandstr">     40.65922509 </i>
    <i name="atom">   8598.20158228 </i>
    <i name="e_fr_energy">    586.21688980 </i>
    <i name="e_wo_entrp">    586.21696051 </i>
    <i name="e_0_energy">    586.21692516 </i>
   </energy>
  </scstep>
  <scstep>
   <time name="dav">    1.98    1.00</time>
   <time name="total">    1.99    1.00</time>
   <energy>
    <i name="e_fr_energy">     16.80579493 </i>
    <i name="e_wo_entrp">     16.80592976 </i>
    <i name="e_0_energy">     16.80586235 </i>
   </energy>
  </scstep>
  <scstep>
   <time name="dav">    3.21    1.61</time>
   <time name="total">    3.21    1.61</time>
   <energy>
    <i name="e_fr_energy">    -35.43594567 </i>
    <i name="e_wo_entrp">    -35.43594567 </i>
    <i name="e_0_energy">    -35.43594567 </i>
   </energy>
  </scstep>
  <scstep>
   <time name="dav">    2.25    1.20</time>
   <time name="total">    2.25    1.20</time>
   <energy>
    <i name="e_fr_energy">    -36.55524809 </i>
    <i name="e_wo_entrp">    -36.55524809 </i>
    <i name="e_0_energy">    -36.55524809 </i>
   </energy>
  </scstep>
  <scstep>
   <time name="dav">    3.63    1.83</time>
   <time name="total">    3.91    1.99</time>
   <energy>
    <i name="e_fr_energy">    -36.58333192 </i>
    <i name="e_wo_entrp">    -36.58333192 </i>
    <i name="e_0_energy">    -36.58333192 </i>
   </energy>
  </scstep>
  <scstep>
   <time name="dav">    3.18    1.60</time>
   <time name="total">    3.68    1.97</time>
   <energy>
    <i name="e_fr_energy">    -35.95345489 </i>
    <i name="e_wo_entrp">    -35.95345489 </i>
    <i name="e_0_energy">    -35.95345489 </i>
   </energy>
  </scstep>
  <scstep>
   <time name="dav">    3.17    1.59</time>
   <time name="total">    3.57    1.96</time>
   <energy>
    <i name="e_fr_energy">    -35.91883275 </i>
    <i name="e_wo_entrp">    -35.91883275 </i>
    <i name="e_0_energy">    -35.91883275 </i>
   </energy>
  </scstep>
  <scstep>
   <time name="dav">    2.41    1.21</time>
   <time name="total">    2.86    1.58</time>
   <energy>
    <i name="e_fr_energy">    -35.91376709 </i>
    <i name="e_wo_entrp">    -35.91376709 </i>
    <i name="e_0_energy">    -35.91376709 </i>
   </energy>
  </scstep>
  <scstep>
   <time name="dav">    3.16    1.58</time>
   <time name="total">    3.64    1.95</time>
   <energy>
    <i name="e_fr_energy">    -35.91380007 </i>
    <i name="e_wo_entrp">    -35.91380007 </i>
    <i name="e_0_energy">    -35.91380007 </i>
   </energy>
  </scstep>
  <scstep>
   <time name="dav">    2.27    1.14</time>
   <time name="total">    2.76    1.51</time>
   <energy>
    <i name="e_fr_energy">    -35.91380347 </i>
    <i name="e_wo_entrp">    -35.91380347 </i>
    <i name="e_0_energy">    -35.91380347 </i>
   </energy>
  </scstep>
  <scstep>
   <time name="dav">    3.26    1.64</time>
   <time name="total">    3.76    2.01</time>
   <energy>
    <i name="e_fr_energy">    -35.91381670 </i>
    <i name="e_wo_entrp">    -35.91381670 </i>
    <i name="e_0_energy">    -35.91381670 </i>
   </energy>
  </scstep>
  <scstep>
   <time name="dav">    2.42    1.21</time>
   <time name="total">    2.86    1.58</time>
   <energy>
    <i name="e_fr_energy">    -35.91381502 </i>
    <i name="e_wo_entrp">    -35.91381502 </i>
    <i name="e_0_energy">    -35.91381502 </i>
   </energy>
  </scstep>
  <scstep>
   <time name="dav">    3.17    1.59</time>
   <time name="total">    3.65    1.96</time>
   <energy>
    <i name="e_fr_energy">    -35.91381498 </i>
    <i name="e_wo_entrp">    -35.91381498 </i>
    <i name="e_0_energy">    -35.91381498 </i>
   </energy>
  </scstep>
  <scstep>
   <time name="dav">    2.45    1.23</time>
   <time name="total">    2.93    1.60</time>
   <energy>
    <i name="e_fr_energy">    -35.91381499 </i>
    <i name="e_wo_entrp">    -35.91381499 </i>
    <i name="e_0_energy">    -35.91381499 </i>
   </energy>
  </scstep>
  <scstep>
   <time name="dav">    2.72    1.37</time>
   <time name="total">    3.15    1.74</time>
   <energy>
    <i name="e_fr_energy">    -35.91381493 </i>
    <i name="e_wo_entrp">    -35.91381493 </i>
    <i name="e_0_energy">    -35.91381493 </i>
   </energy>
  </scstep>
  <scstep>
   <time name="dav">    1.79    0.90</time>
   <time name="total">    2.17    1.28</time>
   <energy>
    <i name="e_fr_energy">    -35.91381492 </i>
    <i name="e_wo_entrp">    -35.91381492 </i>
    <i name="e_0_energy">    -35.91381492 </i>
   </energy>
  </scstep>
  <scstep>
   <time name="dav">    1.98    0.99</time>
   <time name="total">    2.23    1.24</time>
   <energy>
    <i name="alphaZ">    217.43841536 </i>
    <i name="ewald">  -6082.71701271 </i>
    <i name="hartreedc">  -2303.87080048 </i>
    <i name="XCdc">    230.43079717 </i>
    <i name="pawpsdc">   8471.63473746 </i>
    <i name="pawaedc">  -8567.53405872 </i>
    <i name="eentropy">     -0.00000000 </i>
    <i name="bandstr">   -599.49747528 </i>
    <i name="atom">   8598.20158228 </i>
    <i name="e_fr_energy">    -35.91381492 </i>
    <i name="e_wo_entrp">    -35.91381492 </i>
    <i name="e_0_energy">    -35.91381492 </i>
   </energy>
  </scstep>
  <structure>
   <crystal>
    <varray name="basis" >
     <v>       4.34539863       0.00000000       0.00000000 </v>
     <v>       0.00000000       4.11936655       0.00000000 </v>
     <v>       0.00000000       0.00000000      11.35478920 </v>
    </varray>
    <i name="volume">    203.25401695 </i>
    <varray name="rec_basis" >
     <v>       0.23012848       0.00000000       0.00000000 </v>
     <v>       0.00000000       0.24275577       0.00000000 </v>
     <v>       0.00000000       0.00000000       0.08806857 </v>
    </varray>
   </crystal>
   <varray name="positions" >
    <v>       0.09903631       0.24930268       0.11539711 </v>
    <v>       0.40096369       0.25069732       0.61539711 </v>
    <v>       0.59903631       0.74930268       0.38460289 </v>
    <v>       0.90096369       0.75069732       0.88460289 </v>
    <v>       0.02605052       0.25106527       0.35675466 </v>
    <v>       0.47394948       0.24893473       0.85675466 </v>
    <v>       0.52605052       0.75106527       0.14324534 </v>
    <v>       0.97394948       0.74893473       0.64324534 </v>
   </varray>
  </structure>
  <varray name="forces" >
   <v>      -0.00799357       0.01566296       0.00375421 </v>
   <v>       0.00799357      -0.01566296       0.00375421 </v>
   <v>      -0.00799357       0.01566296      -0.00375421 </v>
   <v>       0.00799357      -0.01566296      -0.00375421 </v>
   <v>      -0.00325153      -0.01590873      -0.00293416 </v>
   <v>       0.00325153       0.01590873      -0.00293416 </v>
   <v>      -0.00325153      -0.01590873       0.00293416 </v>
   <v>       0.00325153       0.01590873       0.00293416 </v>
  </varray>
  <varray name="stress" >
   <v>       0.01558157      -0.82292023       0.00000000 </v>
   <v>      -0.82291918       0.04739169       0.00000000 </v>
   <v>       0.00000000       0.00000000      -0.51292841 </v>
  </varray>
  <energy>
   <i name="e_fr_energy">    -37.43169942 </i>
   <i name="e_wo_entrp">    -37.43169942 </i>
   <i name="e_0_energy">    -37.43169942 </i>
  </energy>
  <scstep>
   <time name="total">    1.38    0.71</time>
   <energy>
    <i name="e_fr_energy">   -132.66592129 </i>
    <i name="e_wo_entrp">   -132.66592129 </i>
    <i name="e_0_energy">   -132.66592129 </i>
   </energy>
  </scstep>
  <scstep>
   <time name="total">    1.81    0.95</time>
   <energy>
    <i name="e_fr_energy">   -259.13663855 </i>
    <i name="e_wo_entrp">   -259.13663855 </i>
    <i name="e_0_energy">   -259.13663855 </i>
   </energy>
  </scstep>
  <scstep>
   <time name="total">    1.83    1.00</time>
   <energy>
    <i name="e_fr_energy">   -259.95441525 </i>
    <i name="e_wo_entrp">   -259.95441525 </i>
    <i name="e_0_energy">   -259.95441525 </i>
   </energy>
  </scstep>
  <scstep>
   <time name="total">    1.50    0.81</time>
   <energy>
    <i name="e_fr_energy">   -260.10859459 </i>
    <i name="e_wo_entrp">   -260.10859459 </i>
    <i name="e_0_energy">   -260.10859459 </i>
   </energy>
  </scstep>
  <scstep>
   <time name="total">    1.57    0.86</time>
   <energy>
    <i name="e_fr_energy">   -260.11111839 </i>
    <i name="e_wo_entrp">   -260.11111839 </i>
    <i name="e_0_energy">   -260.11111839 </i>
   </energy>
  </scstep>
  <scstep>
   <time name="total">    1.60    0.83</time>
   <energy>
    <i name="e_fr_energy">   -260.11294547 </i>
    <i name="e_wo_entrp">   -260.11294547 </i>
    <i name="e_0_energy">   -260.11294547 </i>
   </energy>
  </scstep>
  <scstep>
   <time name="total">    1.66    0.86</time>
   <energy>
    <i name="e_fr_energy">   -260.11321623 </i>
    <i name="e_wo_entrp">   -260.11321623 </i>
    <i name="e_0_energy">   -260.11321623 </i>
   </energy>
  </scstep>
  <scstep>
   <time name="total">    1.76    0.88</time>
   <energy>
    <i name="e_fr_energy">   -260.11361905 </i>
    <i name="e_wo_entrp">   -260.11361905 </i>
    <i name="e_0_energy">   -260.11361905 </i>
   </energy>
  </scstep>
  <scstep>
   <time name="total">    1.85    0.94</time>
   <energy>
    <i name="e_fr_energy">   -260.11349642 </i>
    <i name="e_wo_entrp">   -260.11349642 </i>
    <i name="e_0_energy">   -260.11349642 </i>
   </energy>
  </scstep>
  <scstep>
   <time name="total">    1.79    0.91</time>
   <energy>
    <i name="e_fr_energy">   -260.11325051 </i>
    <i name="e_wo_entrp">   -260.11325051 </i>
    <i name="e_0_energy">   -260.11325051 </i>
   </energy>
  </scstep>
  <scstep>
   <time name="total">    1.73    0.88</time>
   <energy>
    <i name="e_fr_energy">   -260.11329648 </i>
    <i name="e_wo_entrp">   -260.11329648 </i>
    <i name="e_0_energy">   -260.11329648 </i>
   </energy>
  </scstep>
  <scstep>
   <time name="total">    1.70    0.87</time>
   <energy>
    <i name="e_fr_energy">   -260.11325911 </i>
    <i name="e_wo_entrp">   -260.11325911 </i>
    <i name="e_0_energy">   -260.11325911 </i>
   </energy>
  </scstep>
  <scstep>
   <time name="total">    1.68    0.85</time>
   <energy>
    <i name="e_fr_energy">   -260.11328209 </i>
    <i name="e_wo_entrp">   -260.11328209 </i>
    <i name="e_0_energy">   -260.11328209 </i>
   </energy>
  </scstep>
  <scstep>
   <time name="total">    1.41    0.71</time>
   <energy>
    <i name="e_fr_energy">   -130.08797405 </i>
    <i name="e_wo_entrp">   -130.08797405 </i>
    <i name="e_0_energy">   -130.08797405 </i>
   </energy>
  </scstep>
  <scstep>
   <time name="total">    1.81    0.95</time>
   <energy>
    <i name="e_fr_energy">   -258.99181167 </i>
    <i name="e_wo_entrp">   -258.99181167 </i>
    <i name="e_0_energy">   -258.99181167 </i>
   </energy>
  </scstep>
  <scstep>
   <time name="total">    1.83    0.98</time>
   <energy>
    <i name="e_fr_energy">   -259.82260918 </i>
    <i name="e_wo_entrp">   -259.82260918 </i>
    <i name="e_0_energy">   -259.82260918 </i>
   </energy>
  </scstep>
  <scstep>
   <time name="total">    1.51    0.82</time>
   <energy>
    <i name="e_fr_energy">   -259.95806583 </i>
    <i name="e_wo_entrp">   -259.95806583 </i>
    <i name="e_0_energy">   -259.95806583 </i>
   </energy>
  </scstep>
  <scstep>
   <time name="total">    1.57    0.84</time>
   <energy>
    <i name="e_fr_energy">   -259.96893937 </i>
    <i name="e_wo_entrp">   -259.96893937 </i>
    <i name="e_0_energy">   -259.96893937 </i>
   </energy>
  </scstep>
  <scstep>
   <time name="total">    1.65    0.83</time>
   <energy>
    <i name="e_fr_energy">   -259.97202526 </i>
    <i name="e_wo_entrp">   -259.97202526 </i>
    <i name="e_0_energy">   -259.97202526 </i>
   </energy>
  </scstep>
  <scstep>
   <time name="total">    1.77    0.89</time>
   <energy>
    <i name="e_fr_energy">   -259.97227683 </i>
    <i name="e_wo_entrp">   -259.97227683 </i>
    <i name="e_0_energy">   -259.97227683 </i>
   </energy>
  </scstep>
  <scstep>
   <time name="total">    1.78    0.89</time>
   <energy>
    <i name="e_fr_energy">   -259.97225609 </i>
    <i name="e_wo_entrp">   -259.97225609 </i>
    <i name="e_0_energy">   -259.97225609 </i>
   </energy>
  </scstep>
  <scstep>
   <time name="total">    1.88    0.94</time>
   <energy>
    <i name="e_fr_energy">   -259.97220946 </i>
    <i name="e_wo_entrp">   -259.97220946 </i>
    <i name="e_0_energy">   -259.97220946 </i>
   </energy>
  </scstep>
  <scstep>
   <time name="total">    1.83    0.93</time>
   <energy>
    <i name="e_fr_energy">   -259.97224002 </i>
    <i name="e_wo_entrp">   -259.97224002 </i>
    <i name="e_0_energy">   -259.97224002 </i>
   </energy>
  </scstep>
  <scstep>
   <time name="total">    1.76    0.90</time>
   <energy>
    <i name="e_fr_energy">   -259.97222418 </i>
    <i name="e_wo_entrp">   -259.97222418 </i>
    <i name="e_0_energy">   -259.97222418 </i>
   </energy>
  </scstep>
  <scstep>
   <time name="total">    1.69    0.88</time>
   <energy>
    <i name="e_fr_energy">   -259.97221673 </i>
    <i name="e_wo_entrp">   -259.97221673 </i>
    <i name="e_0_energy">   -259.97221673 </i>
   </energy>
  </scstep>
  <scstep>
   <time name="total">    1.63    0.82</time>
   <energy>
    <i name="e_fr_energy">   -259.97221257 </i>
    <i name="e_wo_entrp">   -259.97221257 </i>
    <i name="e_0_energy">   -259.97221257 </i>
   </energy>
  </scstep>
  <scstep>
   <time name="total">    1.32    0.67</time>
   <energy>
    <i name="e_fr_energy">   -129.30323566 </i>
    <i name="e_wo_entrp">   -129.30323566 </i>
    <i name="e_0_energy">   -129.30323566 </i>
   </energy>
  </scstep>
  <scstep>
   <time name="total">    1.79    0.96</time>
   <energy>
    <i name="e_fr_energy">   -263.66131252 </i>
    <i name="e_wo_entrp">   -263.66131252 </i>
    <i name="e_0_energy">   -263.66131252 </i>
   </energy>
  </scstep>
  <scstep>
   <time name="total">    1.76    0.98</time>
   <energy>
    <i name="e_fr_energy">   -264.69267440 </i>
    <i name="e_wo_entrp">   -264.69267440 </i>
    <i name="e_0_energy">   -264.69267440 </i>
   </energy>
  </scstep>
  <scstep>
   <time name="total">    1.48    0.82</time>
   <energy>
    <i name="e_fr_energy">   -264.98695426 </i>
    <i name="e_wo_entrp">   -264.98695426 </i>
    <i name="e_0_energy">   -264.98695426 </i>
   </energy>
  </scstep>
  <scstep>
   <time name="total">    1.59    0.87</time>
   <energy>
    <i name="e_fr_energy">   -264.98676559 </i>
    <i name="e_wo_entrp">   -264.98676559 </i>
    <i name="e_0_energy">   -264.98676559 </i>
   </energy>
  </scstep>
  <scstep>
   <time name="total">    1.59    0.86</time>
   <energy>
    <i name="e_fr_energy">   -264.99055745 </i>
    <i name="e_wo_entrp">   -264.99055745 </i>
    <i name="e_0_energy">   -264.99055745 </i>
   </energy>
  </scstep>
  <scstep>
   <time name="total">    1.74    0.88</time>
   <energy>
    <i name="e_fr_energy">   -264.99067102 </i>
    <i name="e_wo_entrp">   -264.99067102 </i>
    <i name="e_0_energy">   -264.99067102 </i>
   </energy>
  </scstep>
  <scstep>
   <time name="total">    1.79    0.90</time>
   <energy>
    <i name="e_fr_energy">   -264.99070621 </i>
    <i name="e_wo_entrp">   -264.99070621 </i>
    <i name="e_0_energy">   -264.99070621 </i>
   </energy>
  </scstep>
  <scstep>
   <time name="total">    1.82    0.91</time>
   <energy>
    <i name="e_fr_energy">   -264.99070519 </i>
    <i name="e_wo_entrp">   -264.99070519 </i>
    <i name="e_0_energy">   -264.99070519 </i>
   </energy>
  </scstep>
  <scstep>
   <time name="total">    1.80    0.90</time>
   <energy>
    <i name="e_fr_energy">   -264.99069460 </i>
    <i name="e_wo_entrp">   -264.99069460 </i>
    <i name="e_0_energy">   -264.99069460 </i>
   </energy>
  </scstep>
  <scstep>
   <time name="total">    1.72    0.86</time>
   <energy>
    <i name="e_fr_energy">   -264.99071629 </i>
    <i name="e_wo_entrp">   -264.99071629 </i>
    <i name="e_0_energy">   -264.99071629 </i>
   </energy>
  </scstep>
  <scstep>
   <time name="total">    1.69    0.86</time>
   <energy>
    <i name="e_fr_energy">   -264.99070981 </i>
    <i name="e_wo_entrp">   -264.99070981 </i>
    <i name="e_0_energy">   -264.99070981 </i>
   </energy>
  </scstep>
  <scstep>
   <time name="total">    1.69    0.86</time>
   <energy>
    <i name="e_fr_energy">   -264.99071834 </i>
    <i name="e_wo_entrp">   -264.99071834 </i>
    <i name="e_0_energy">   -264.99071834 </i>
   </energy>
  </scstep>
  <scstep>
   <time name="total">    2.03    1.31</time>
   <energy>
    <i name="e_fr_energy">     -2.31634246 </i>
    <i name="e_wo_entrp">     -2.31634246 </i>
    <i name="e_0_energy">     -2.31634246 </i>
   </energy>
  </scstep>
  <scstep>
   <time name="total">    2.52    1.51</time>
   <energy>
    <i name="e_fr_energy">    -13.86984503 </i>
    <i name="e_wo_entrp">    -13.86984503 </i>
    <i name="e_0_energy">    -13.86984503 </i>
   </energy>
  </scstep>
  <scstep>
   <time name="total">    2.57    1.57</time>
   <energy>
    <i name="e_fr_energy">    -13.94361868 </i>
    <i name="e_wo_entrp">    -13.94361868 </i>
    <i name="e_0_energy">    -13.94361868 </i>
   </energy>
  </scstep>
  <scstep>
   <time name="total">    2.61    1.58</time>
   <energy>
    <i name="e_fr_energy">    -13.94405215 </i>
    <i name="e_wo_entrp">    -13.94405215 </i>
    <i name="e_0_energy">    -13.94405215 </i>
   </energy>
  </scstep>
  <scstep>
   <time name="total">    2.58    1.59</time>
   <energy>
    <i name="e_fr_energy">    -13.94414296 </i>
    <i name="e_wo_entrp">    -13.94414296 </i>
    <i name="e_0_energy">    -13.94414296 </i>
   </energy>
  </scstep>
  <scstep>
   <time name="total">    2.59    1.57</time>
   <energy>
    <i name="e_fr_energy">    -13.94414698 </i>
    <i name="e_wo_entrp">    -13.94414698 </i>
    <i name="e_0_energy">    -13.94414698 </i>
   </energy>
  </scstep>
  <scstep>
   <time name="total">    2.67    1.60</time>
   <energy>
    <i name="e_fr_energy">    -13.94414827 </i>
    <i name="e_wo_entrp">    -13.94414827 </i>
    <i name="e_0_energy">    -13.94414827 </i>
   </energy>
  </scstep>
  <scstep>
   <time name="total">    2.75    1.59</time>
   <energy>
    <i name="e_fr_energy">    -13.94414837 </i>
    <i name="e_wo_entrp">    -13.94414837 </i>
    <i name="e_0_energy">    -13.94414837 </i>
   </energy>
  </scstep>
  <scstep>
   <time name="total">    2.79    1.61</time>
   <energy>
    <i name="e_fr_energy">    -13.94414840 </i>
    <i name="e_wo_entrp">    -13.94414840 </i>
    <i name="e_0_energy">    -13.94414840 </i>
   </energy>
  </scstep>
  <scstep>
   <time name="total">    2.77    1.60</time>
   <energy>
    <i name="e_fr_energy">    -13.94414840 </i>
    <i name="e_wo_entrp">    -13.94414840 </i>
    <i name="e_0_energy">    -13.94414840 </i>
   </energy>
  </scstep>
  <scstep>
   <time name="total">    2.65    1.54</time>
   <energy>
    <i name="e_fr_energy">    -13.94414840 </i>
    <i name="e_wo_entrp">    -13.94414840 </i>
    <i name="e_0_energy">    -13.94414840 </i>
   </energy>
  </scstep>
  <scstep>
   <time name="total">    2.61    1.52</time>
   <energy>
    <i name="e_fr_energy">    -13.94414840 </i>
    <i name="e_wo_entrp">    -13.94414840 </i>
    <i name="e_0_energy">    -13.94414840 </i>
   </energy>
  </scstep>
  <scstep>
   <time name="total">    2.63    1.54</time>
   <energy>
    <i name="e_fr_energy">    -13.94414840 </i>
    <i name="e_wo_entrp">    -13.94414840 </i>
    <i name="e_0_energy">    -13.94414840 </i>
   </energy>
  </scstep>
  <scstep>
   <time name="total">    2.62    1.55</time>
   <energy>
    <i name="e_fr_energy">    -13.94414840 </i>
    <i name="e_wo_entrp">    -13.94414840 </i>
    <i name="e_0_energy">    -13.94414840 </i>
   </energy>
  </scstep>
  <scstep>
   <time name="total">    2.61    1.53</time>
   <energy>
    <i name="e_fr_energy">    -13.94414840 </i>
    <i name="e_wo_entrp">    -13.94414840 </i>
    <i name="e_0_energy">    -13.94414840 </i>
   </energy>
  </scstep>
  <scstep>
   <time name="total">    2.59    1.52</time>
   <energy>
    <i name="e_fr_energy">    -13.94414840 </i>
    <i name="e_wo_entrp">    -13.94414840 </i>
    <i name="e_0_energy">    -13.94414840 </i>
   </energy>
  </scstep>
  <scstep>
   <time name="total">    2.05    1.32</time>
   <energy>
    <i name="e_fr_energy">     -3.83466453 </i>
    <i name="e_wo_entrp">     -3.83466453 </i>
    <i name="e_0_energy">     -3.83466453 </i>
   </energy>
  </scstep>
  <scstep>
   <time name="total">    2.55    1.55</time>
   <energy>
    <i name="e_fr_energy">    -16.77463261 </i>
    <i name="e_wo_entrp">    -16.77463261 </i>
    <i name="e_0_energy">    -16.77463261 </i>
   </energy>
  </scstep>
  <scstep>
   <time name="total">    2.60    1.57</time>
   <energy>
    <i name="e_fr_energy">    -16.86091126 </i>
    <i name="e_wo_entrp">    -16.86091126 </i>
    <i name="e_0_energy">    -16.86091126 </i>
   </energy>
  </scstep>
  <scstep>
   <time name="total">    2.59    1.58</time>
   <energy>
    <i name="e_fr_energy">    -16.86134850 </i>
    <i name="e_wo_entrp">    -16.86134850 </i>
    <i name="e_0_energy">    -16.86134850 </i>
   </energy>
  </scstep>
  <scstep>
   <time name="total">    2.60    1.58</time>
   <energy>
    <i name="e_fr_energy">    -16.86142674 </i>
    <i name="e_wo_entrp">    -16.86142674 </i>
    <i name="e_0_energy">    -16.86142674 </i>
   </energy>
  </scstep>
  <scstep>
   <time name="total">    2.55    1.56</time>
   <energy>
    <i name="e_fr_energy">    -16.86143003 </i>
    <i name="e_wo_entrp">    -16.86143003 </i>
    <i name="e_0_energy">    -16.86143003 </i>
   </energy>
  </scstep>
  <scstep>
   <time name="total">    2.62    1.59</time>
   <energy>
    <i name="e_fr_energy">    -16.86143135 </i>
    <i name="e_wo_entrp">    -16.86143135 </i>
    <i name="e_0_energy">    -16.86143135 </i>
   </energy>
  </scstep>
  <scstep>
   <time name="total">    2.67    1.56</time>
   <energy>
    <i name="e_fr_energy">    -16.86143145 </i>
    <i name="e_wo_entrp">    -16.86143145 </i>
    <i name="e_0_energy">    -16.86143145 </i>
   </energy>
  </scstep>
  <scstep>
   <time name="total">    2.73    1.58</time>
   <energy>
    <i name="e_fr_energy">    -16.86143148 </i>
    <i name="e_wo_entrp">    -16.86143148 </i>
    <i name="e_0_energy">    -16.86143148 </i>
   </energy>
  </scstep>
  <scstep>
   <time name="total">    2.74    1.59</time>
   <energy>
    <i name="e_fr_energy">    -16.86143148 </i>
    <i name="e_wo_entrp">    -16.86143148 </i>
    <i name="e_0_energy">    -16.86143148 </i>
   </energy>
  </scstep>
  <scstep>
   <time name="total">    2.63    1.53</time>
   <energy>
    <i name="e_fr_energy">    -16.86143148 </i>
    <i name="e_wo_entrp">    -16.86143148 </i>
    <i name="e_0_energy">    -16.86143148 </i>
   </energy>
  </scstep>
  <scstep>
   <time name="total">    2.63    1.53</time>
   <energy>
    <i name="e_fr_energy">    -16.86143148 </i>
    <i name="e_wo_entrp">    -16.86143148 </i>
    <i name="e_0_energy">    -16.86143148 </i>
   </energy>
  </scstep>
  <scstep>
   <time name="total">    2.58    1.51</time>
   <energy>
    <i name="e_fr_energy">    -16.86143148 </i>
    <i name="e_wo_entrp">    -16.86143148 </i>
    <i name="e_0_energy">    -16.86143148 </i>
   </energy>
  </scstep>
  <scstep>
   <time name="total">    2.60    1.51</time>
   <energy>
    <i name="e_fr_energy">    -16.86143148 </i>
    <i name="e_wo_entrp">    -16.86143148 </i>
    <i name="e_0_energy">    -16.86143148 </i>
   </energy>
  </scstep>
  <scstep>
   <time name="total">    2.61    1.52</time>
   <energy>
    <i name="e_fr_energy">    -16.86143148 </i>
    <i name="e_wo_entrp">    -16.86143148 </i>
    <i name="e_0_energy">    -16.86143148 </i>
   </energy>
  </scstep>
  <scstep>
   <time name="total">    2.06    1.33</time>
   <energy>
    <i name="e_fr_energy">     -4.13882647 </i>
    <i name="e_wo_entrp">     -4.13882647 </i>
    <i name="e_0_energy">     -4.13882647 </i>
   </energy>
  </scstep>
  <scstep>
   <time name="total">    2.52    1.55</time>
   <energy>
    <i name="e_fr_energy">    -15.58057542 </i>
    <i name="e_wo_entrp">    -15.58057542 </i>
    <i name="e_0_energy">    -15.58057542 </i>
   </energy>
  </scstep>
  <scstep>
   <time name="total">    2.61    1.58</time>
   <energy>
    <i name="e_fr_energy">    -15.64347289 </i>
    <i name="e_wo_entrp">    -15.64347289 </i>
    <i name="e_0_energy">    -15.64347289 </i>
   </energy>
  </scstep>
  <scstep>
   <time name="total">    2.60    1.58</time>
   <energy>
    <i name="e_fr_energy">    -15.64387647 </i>
    <i name="e_wo_entrp">    -15.64387647 </i>
    <i name="e_0_energy">    -15.64387647 </i>
   </energy>
  </scstep>
  <scstep>
   <time name="total">    2.58    1.56</time>
   <energy>
    <i name="e_fr_energy">    -15.64397595 </i>
    <i name="e_wo_entrp">    -15.64397595 </i>
    <i name="e_0_energy">    -15.64397595 </i>
   </energy>
  </scstep>
  <scstep>
   <time name="total">    2.61    1.60</time>
   <energy>
    <i name="e_fr_energy">    -15.64397965 </i>
    <i name="e_wo_entrp">    -15.64397965 </i>
    <i name="e_0_energy">    -15.64397965 </i>
   </energy>
  </scstep>
  <scstep>
   <time name="total">    2.68    1.60</time>
   <energy>
    <i name="e_fr_energy">    -15.64398131 </i>
    <i name="e_wo_entrp">    -15.64398131 </i>
    <i name="e_0_energy">    -15.64398131 </i>
   </energy>
  </scstep>
  <scstep>
   <time name="total">    2.73    1.58</time>
   <energy>
    <i name="e_fr_energy">    -15.64398142 </i>
    <i name="e_wo_entrp">    -15.64398142 </i>
    <i name="e_0_energy">    -15.64398142 </i>
   </energy>
  </scstep>
  <scstep>
   <time name="total">    2.78    1.60</time>
   <energy>
    <i name="e_fr_energy">    -15.64398145 </i>
    <i name="e_wo_entrp">    -15.64398145 </i>
    <i name="e_0_energy">    -15.64398145 </i>
   </energy>
  </scstep>
  <scstep>
   <time name="total">    2.68    1.56</time>
   <energy>
    <i name="e_fr_energy">    -15.64398145 </i>
    <i name="e_wo_entrp">    -15.64398145 </i>
    <i name="e_0_energy">    -15.64398145 </i>
   </energy>
  </scstep>
  <scstep>
   <time name="total">    2.63    1.53</time>
   <energy>
    <i name="e_fr_energy">    -15.64398144 </i>
    <i name="e_wo_entrp">    -15.64398144 </i>
    <i name="e_0_energy">    -15.64398144 </i>
   </energy>
  </scstep>
  <scstep>
   <time name="total">    2.57    1.50</time>
   <energy>
    <i name="e_fr_energy">    -15.64398144 </i>
    <i name="e_wo_entrp">    -15.64398144 </i>
    <i name="e_0_energy">    -15.64398144 </i>
   </energy>
  </scstep>
  <scstep>
   <time name="total">    2.52    1.48</time>
   <energy>
    <i name="e_fr_energy">    -15.64398143 </i>
    <i name="e_wo_entrp">    -15.64398143 </i>
    <i name="e_0_energy">    -15.64398143 </i>
   </energy>
  </scstep>
  <scstep>
   <time name="total">    2.52    1.47</time>
   <energy>
    <i name="e_fr_energy">    -15.64398144 </i>
    <i name="e_wo_entrp">    -15.64398144 </i>
    <i name="e_0_energy">    -15.64398144 </i>
   </energy>
  </scstep>
  <scstep>
   <time name="total">    2.56    1.49</time>
   <energy>
    <i name="e_fr_energy">    -15.64398144 </i>
    <i name="e_wo_entrp">    -15.64398144 </i>
    <i name="e_0_energy">    -15.64398144 </i>
   </energy>
  </scstep>
  <scstep>
   <time name="total">    2.54    1.49</time>
   <energy>
    <i name="e_fr_energy">    -15.64398144 </i>
    <i name="e_wo_entrp">    -15.64398144 </i>
    <i name="e_0_energy">    -15.64398144 </i>
   </energy>
  </scstep>
  <varray name="dielectric_ipa" >
   <v>      25.82834049       0.26366142       0.00000000 </v>
   <v>       0.26367391      31.02279175       0.00000000 </v>
   <v>       0.00000000       0.00000000      28.85505726 </v>
  </varray>
  <kpoints>
   <generation param="Gamma">
    <v type="int" name="divisions">       8        9        3 </v>
    <v name="usershift">      0.00000000       0.00000000       0.00000000 </v>
    <v name="genvec1">      0.12500000       0.00000000       0.00000000 </v>
    <v name="genvec2">      0.00000000       0.11111111       0.00000000 </v>
    <v name="genvec3">      0.00000000       0.00000000       0.33333333 </v>
    <v name="shift">      0.00000000       0.00000000       0.00000000 </v>
   </generation>
   <varray name="kpointlist" >
    <v>       0.00000000       0.00000000       0.00000000 </v>
    <v>       0.12500000       0.00000000       0.00000000 </v>
    <v>       0.25000000       0.00000000       0.00000000 </v>
    <v>       0.37500000       0.00000000       0.00000000 </v>
    <v>       0.50000000       0.00000000       0.00000000 </v>
    <v>       0.00000000       0.11111111       0.00000000 </v>
    <v>       0.12500000       0.11111111       0.00000000 </v>
    <v>      -0.12500000       0.11111111       0.00000000 </v>
    <v>       0.25000000       0.11111111       0.00000000 </v>
    <v>      -0.25000000       0.11111111       0.00000000 </v>
    <v>       0.37500000       0.11111111       0.00000000 </v>
    <v>      -0.37500000       0.11111111       0.00000000 </v>
    <v>       0.50000000       0.11111111       0.00000000 </v>
    <v>       0.00000000       0.22222222       0.00000000 </v>
    <v>       0.12500000       0.22222222       0.00000000 </v>
    <v>      -0.12500000       0.22222222       0.00000000 </v>
    <v>       0.25000000       0.22222222       0.00000000 </v>
    <v>      -0.25000000       0.22222222       0.00000000 </v>
    <v>       0.37500000       0.22222222       0.00000000 </v>
    <v>      -0.37500000       0.22222222       0.00000000 </v>
    <v>       0.50000000       0.22222222       0.00000000 </v>
    <v>       0.00000000       0.33333333       0.00000000 </v>
    <v>       0.12500000       0.33333333       0.00000000 </v>
    <v>      -0.12500000       0.33333333       0.00000000 </v>
    <v>       0.25000000       0.33333333       0.00000000 </v>
    <v>      -0.25000000       0.33333333       0.00000000 </v>
    <v>       0.37500000       0.33333333       0.00000000 </v>
    <v>      -0.37500000       0.33333333       0.00000000 </v>
    <v>       0.50000000       0.33333333       0.00000000 </v>
    <v>       0.00000000       0.44444444       0.00000000 </v>
    <v>       0.12500000       0.44444444       0.00000000 </v>
    <v>      -0.12500000       0.44444444       0.00000000 </v>
    <v>       0.25000000       0.44444444       0.00000000 </v>
    <v>      -0.25000000       0.44444444       0.00000000 </v>
    <v>       0.37500000       0.44444444       0.00000000 </v>
    <v>      -0.37500000       0.44444444       0.00000000 </v>
    <v>       0.50000000       0.44444444       0.00000000 </v>
    <v>       0.00000000       0.00000000       0.33333333 </v>
    <v>       0.12500000       0.00000000       0.33333333 </v>
    <v>       0.25000000       0.00000000       0.33333333 </v>
    <v>       0.37500000       0.00000000       0.33333333 </v>
    <v>       0.50000000       0.00000000       0.33333333 </v>
    <v>       0.00000000       0.11111111       0.33333333 </v>
    <v>       0.12500000       0.11111111       0.33333333 </v>
    <v>      -0.12500000       0.11111111      -0.33333333 </v>
    <v>       0.25000000       0.11111111       0.33333333 </v>
    <v>      -0.25000000       0.11111111      -0.33333333 </v>
    <v>       0.37500000       0.11111111       0.33333333 </v>
    <v>      -0.37500000       0.11111111      -0.33333333 </v>
    <v>       0.50000000       0.11111111       0.33333333 </v>
    <v>       0.00000000       0.22222222       0.33333333 </v>
    <v>       0.12500000       0.22222222       0.33333333 </v>
    <v>      -0.12500000       0.22222222      -0.33333333 </v>
    <v>       0.25000000       0.22222222       0.33333333 </v>
    <v>      -0.25000000       0.22222222      -0.33333333 </v>
    <v>       0.37500000       0.22222222       0.33333333 </v>
    <v>      -0.37500000       0.22222222      -0.33333333 </v>
    <v>       0.50000000       0.22222222       0.33333333 </v>
    <v>       0.00000000       0.33333333       0.33333333 </v>
    <v>       0.12500000       0.33333333       0.33333333 </v>
    <v>      -0.12500000       0.33333333      -0.33333333 </v>
    <v>       0.25000000       0.33333333       0.33333333 </v>
    <v>      -0.25000000       0.33333333      -0.33333333 </v>
    <v>       0.37500000       0.33333333       0.33333333 </v>
    <v>      -0.37500000       0.33333333      -0.33333333 </v>
    <v>       0.50000000       0.33333333       0.33333333 </v>
    <v>       0.00000000       0.44444444       0.33333333 </v>
    <v>       0.12500000       0.44444444       0.33333333 </v>
    <v>      -0.12500000       0.44444444      -0.33333333 </v>
    <v>       0.25000000       0.44444444       0.33333333 </v>
    <v>      -0.25000000       0.44444444      -0.33333333 </v>
    <v>       0.37500000       0.44444444       0.33333333 </v>
    <v>      -0.37500000       0.44444444      -0.33333333 </v>
    <v>       0.50000000       0.44444444       0.33333333 </v>
   </varray>
   <varray name="weights" >
    <v>       0.00462963 </v>
    <v>       0.00925926 </v>
    <v>       0.00925926 </v>
    <v>       0.00925926 </v>
    <v>       0.00462963 </v>
    <v>       0.00925926 </v>
    <v>       0.00925926 </v>
    <v>       0.00925926 </v>
    <v>       0.00925926 </v>
    <v>       0.00925926 </v>
    <v>       0.00925926 </v>
    <v>       0.00925926 </v>
    <v>       0.00925926 </v>
    <v>       0.00925926 </v>
    <v>       0.00925926 </v>
    <v>       0.00925926 </v>
    <v>       0.00925926 </v>
    <v>       0.00925926 </v>
    <v>       0.00925926 </v>
    <v>       0.00925926 </v>
    <v>       0.00925926 </v>
    <v>       0.00925926 </v>
    <v>       0.00925926 </v>
    <v>       0.00925926 </v>
    <v>       0.00925926 </v>
    <v>       0.00925926 </v>
    <v>       0.00925926 </v>
    <v>       0.00925926 </v>
    <v>       0.00925926 </v>
    <v>       0.00925926 </v>
    <v>       0.00925926 </v>
    <v>       0.00925926 </v>
    <v>       0.00925926 </v>
    <v>       0.00925926 </v>
    <v>       0.00925926 </v>
    <v>       0.00925926 </v>
    <v>       0.00925926 </v>
    <v>       0.00925926 </v>
    <v>       0.01851852 </v>
    <v>       0.01851852 </v>
    <v>       0.01851852 </v>
    <v>       0.00925926 </v>
    <v>       0.01851852 </v>
    <v>       0.01851852 </v>
    <v>       0.01851852 </v>
    <v>       0.01851852 </v>
    <v>       0.01851852 </v>
    <v>       0.01851852 </v>
    <v>       0.01851852 </v>
    <v>       0.01851852 </v>
    <v>       0.01851852 </v>
    <v>       0.01851852 </v>
    <v>       0.01851852 </v>
    <v>       0.01851852 </v>
    <v>       0.01851852 </v>
    <v>       0.01851852 </v>
    <v>       0.01851852 </v>
    <v>       0.01851852 </v>
    <v>       0.01851852 </v>
    <v>       0.01851852 </v>
    <v>       0.01851852 </v>
    <v>       0.01851852 </v>
    <v>       0.01851852 </v>
    <v>       0.01851852 </v>
    <v>       0.01851852 </v>
    <v>       0.01851852 </v>
    <v>       0.01851852 </v>
    <v>       0.01851852 </v>
    <v>       0.01851852 </v>
    <v>       0.01851852 </v>
    <v>       0.01851852 </v>
    <v>       0.01851852 </v>
    <v>       0.01851852 </v>
    <v>       0.01851852 </v>
   </varray>
  </kpoints>
  <scstep>
   <time name="total">    2.02    1.31</time>
   <energy>
    <i name="e_fr_energy">     -2.31634246 </i>
    <i name="e_wo_entrp">     -2.31634246 </i>
    <i name="e_0_energy">     -2.31634246 </i>
   </energy>
  </scstep>
  <scstep>
   <time name="total">    2.79    1.69</time>
   <energy>
    <i name="e_fr_energy">    -13.86984504 </i>
    <i name="e_wo_entrp">    -13.86984504 </i>
    <i name="e_0_energy">    -13.86984504 </i>
   </energy>
  </scstep>
  <scstep>
   <time name="total">    2.73    1.73</time>
   <energy>
    <i name="e_fr_energy">    -13.37911664 </i>
    <i name="e_wo_entrp">    -13.37911664 </i>
    <i name="e_0_energy">    -13.37911664 </i>
   </energy>
  </scstep>
  <scstep>
   <time name="total">    2.73    1.74</time>
   <energy>
    <i name="e_fr_energy">    -13.55170274 </i>
    <i name="e_wo_entrp">    -13.55170274 </i>
    <i name="e_0_energy">    -13.55170274 </i>
   </energy>
  </scstep>
  <scstep>
   <time name="total">    2.80    1.74</time>
   <energy>
    <i name="e_fr_energy">    -13.76041650 </i>
    <i name="e_wo_entrp">    -13.76041650 </i>
    <i name="e_0_energy">    -13.76041650 </i>
   </energy>
  </scstep>
  <scstep>
   <time name="total">    2.84    1.74</time>
   <energy>
    <i name="e_fr_energy">    -13.81008707 </i>
    <i name="e_wo_entrp">    -13.81008707 </i>
    <i name="e_0_energy">    -13.81008707 </i>
   </energy>
  </scstep>
  <scstep>
   <time name="total">    2.89    1.75</time>
   <energy>
    <i name="e_fr_energy">    -13.82554814 </i>
    <i name="e_wo_entrp">    -13.82554814 </i>
    <i name="e_0_energy">    -13.82554814 </i>
   </energy>
  </scstep>
  <scstep>
   <time name="total">    2.92    1.76</time>
   <energy>
    <i name="e_fr_energy">    -13.82348283 </i>
    <i name="e_wo_entrp">    -13.82348283 </i>
    <i name="e_0_energy">    -13.82348283 </i>
   </energy>
  </scstep>
  <scstep>
   <time name="total">    3.04    1.82</time>
   <energy>
    <i name="e_fr_energy">    -13.82943309 </i>
    <i name="e_wo_entrp">    -13.82943309 </i>
    <i name="e_0_energy">    -13.82943309 </i>
   </energy>
  </scstep>
  <scstep>
   <time name="total">    2.94    1.77</time>
   <energy>
    <i name="e_fr_energy">    -13.82513131 </i>
    <i name="e_wo_entrp">    -13.82513131 </i>
    <i name="e_0_energy">    -13.82513131 </i>
   </energy>
  </scstep>
  <scstep>
   <time name="total">    2.97    1.78</time>
   <energy>
    <i name="e_fr_energy">    -13.83404515 </i>
    <i name="e_wo_entrp">    -13.83404515 </i>
    <i name="e_0_energy">    -13.83404515 </i>
   </energy>
  </scstep>
  <scstep>
   <time name="total">    2.96    1.78</time>
   <energy>
    <i name="e_fr_energy">    -13.82792628 </i>
    <i name="e_wo_entrp">    -13.82792628 </i>
    <i name="e_0_energy">    -13.82792628 </i>
   </energy>
  </scstep>
  <scstep>
   <time name="total">    2.95    1.77</time>
   <energy>
    <i name="e_fr_energy">    -13.82798081 </i>
    <i name="e_wo_entrp">    -13.82798081 </i>
    <i name="e_0_energy">    -13.82798081 </i>
   </energy>
  </scstep>
  <scstep>
   <time name="total">    2.90    1.75</time>
   <energy>
    <i name="e_fr_energy">    -13.83154115 </i>
    <i name="e_wo_entrp">    -13.83154115 </i>
    <i name="e_0_energy">    -13.83154115 </i>
   </energy>
  </scstep>
  <scstep>
   <time name="total">    2.88    1.74</time>
   <energy>
    <i name="e_fr_energy">    -13.82904170 </i>
    <i name="e_wo_entrp">    -13.82904170 </i>
    <i name="e_0_energy">    -13.82904170 </i>
   </energy>
  </scstep>
  <scstep>
   <time name="total">    2.88    1.75</time>
   <energy>
    <i name="e_fr_energy">    -13.83110181 </i>
    <i name="e_wo_entrp">    -13.83110181 </i>
    <i name="e_0_energy">    -13.83110181 </i>
   </energy>
  </scstep>
  <scstep>
   <time name="total">    2.87    1.73</time>
   <energy>
    <i name="e_fr_energy">    -13.83117711 </i>
    <i name="e_wo_entrp">    -13.83117711 </i>
    <i name="e_0_energy">    -13.83117711 </i>
   </energy>
  </scstep>
  <scstep>
   <time name="total">    2.87    1.73</time>
   <energy>
    <i name="e_fr_energy">    -13.83102668 </i>
    <i name="e_wo_entrp">    -13.83102668 </i>
    <i name="e_0_energy">    -13.83102668 </i>
   </energy>
  </scstep>
  <scstep>
   <time name="total">    2.87    1.74</time>
   <energy>
    <i name="e_fr_energy">    -13.83039423 </i>
    <i name="e_wo_entrp">    -13.83039423 </i>
    <i name="e_0_energy">    -13.83039423 </i>
   </energy>
  </scstep>
  <scstep>
   <time name="total">    2.85    1.72</time>
   <energy>
    <i name="e_fr_energy">    -13.83148081 </i>
    <i name="e_wo_entrp">    -13.83148081 </i>
    <i name="e_0_energy">    -13.83148081 </i>
   </energy>
  </scstep>
  <scstep>
   <time name="total">    2.89    1.74</time>
   <energy>
    <i name="e_fr_energy">    -13.82911837 </i>
    <i name="e_wo_entrp">    -13.82911837 </i>
    <i name="e_0_energy">    -13.82911837 </i>
   </energy>
  </scstep>
  <scstep>
   <time name="total">    2.85    1.73</time>
   <energy>
    <i name="e_fr_energy">    -13.83041399 </i>
    <i name="e_wo_entrp">    -13.83041399 </i>
    <i name="e_0_energy">    -13.83041399 </i>
   </energy>
  </scstep>
  <scstep>
   <time name="total">    2.88    1.74</time>
   <energy>
    <i name="e_fr_energy">    -13.82921929 </i>
    <i name="e_wo_entrp">    -13.82921929 </i>
    <i name="e_0_energy">    -13.82921929 </i>
   </energy>
  </scstep>
  <scstep>
   <time name="total">    2.86    1.73</time>
   <energy>
    <i name="e_fr_energy">    -13.83152151 </i>
    <i name="e_wo_entrp">    -13.83152151 </i>
    <i name="e_0_energy">    -13.83152151 </i>
   </energy>
  </scstep>
  <scstep>
   <time name="total">    2.87    1.73</time>
   <energy>
    <i name="e_fr_energy">    -13.83153985 </i>
    <i name="e_wo_entrp">    -13.83153985 </i>
    <i name="e_0_energy">    -13.83153985 </i>
   </energy>
  </scstep>
  <scstep>
   <time name="total">    2.86    1.73</time>
   <energy>
    <i name="e_fr_energy">    -13.83068796 </i>
    <i name="e_wo_entrp">    -13.83068796 </i>
    <i name="e_0_energy">    -13.83068796 </i>
   </energy>
  </scstep>
  <scstep>
   <time name="total">    2.85    1.72</time>
   <energy>
    <i name="e_fr_energy">    -13.83082014 </i>
    <i name="e_wo_entrp">    -13.83082014 </i>
    <i name="e_0_energy">    -13.83082014 </i>
   </energy>
  </scstep>
  <scstep>
   <time name="total">    2.85    1.72</time>
   <energy>
    <i name="e_fr_energy">    -13.83113526 </i>
    <i name="e_wo_entrp">    -13.83113526 </i>
    <i name="e_0_energy">    -13.83113526 </i>
   </energy>
  </scstep>
  <scstep>
   <time name="total">    2.90    1.75</time>
   <energy>
    <i name="e_fr_energy">    -13.82950205 </i>
    <i name="e_wo_entrp">    -13.82950205 </i>
    <i name="e_0_energy">    -13.82950205 </i>
   </energy>
  </scstep>
  <scstep>
   <time name="total">    2.84    1.72</time>
   <energy>
    <i name="e_fr_energy">    -13.82923510 </i>
    <i name="e_wo_entrp">    -13.82923510 </i>
    <i name="e_0_energy">    -13.82923510 </i>
   </energy>
  </scstep>
  <scstep>
   <time name="total">    2.84    1.72</time>
   <energy>
    <i name="e_fr_energy">    -13.83088127 </i>
    <i name="e_wo_entrp">    -13.83088127 </i>
    <i name="e_0_energy">    -13.83088127 </i>
   </energy>
  </scstep>
  <scstep>
   <time name="total">    2.84    1.72</time>
   <energy>
    <i name="e_fr_energy">    -13.83101931 </i>
    <i name="e_wo_entrp">    -13.83101931 </i>
    <i name="e_0_energy">    -13.83101931 </i>
   </energy>
  </scstep>
  <kpoints>
   <generation param="Gamma">
    <v type="int" name="divisions">       8        9        3 </v>
    <v name="usershift">      0.00000000       0.00000000       0.00000000 </v>
    <v name="genvec1">      0.12500000       0.00000000       0.00000000 </v>
    <v name="genvec2">      0.00000000       0.11111111       0.00000000 </v>
    <v name="genvec3">      0.00000000       0.00000000       0.33333333 </v>
    <v name="shift">      0.00000000       0.00000000       0.00000000 </v>
   </generation>
   <varray name="kpointlist" >
    <v>       0.00000000       0.00000000       0.00000000 </v>
    <v>       0.12500000       0.00000000       0.00000000 </v>
    <v>       0.25000000       0.00000000       0.00000000 </v>
    <v>       0.37500000       0.00000000       0.00000000 </v>
    <v>       0.50000000       0.00000000       0.00000000 </v>
    <v>       0.00000000       0.11111111       0.00000000 </v>
    <v>       0.12500000       0.11111111       0.00000000 </v>
    <v>      -0.12500000       0.11111111       0.00000000 </v>
    <v>       0.25000000       0.11111111       0.00000000 </v>
    <v>      -0.25000000       0.11111111       0.00000000 </v>
    <v>       0.37500000       0.11111111       0.00000000 </v>
    <v>      -0.37500000       0.11111111       0.00000000 </v>
    <v>       0.50000000       0.11111111       0.00000000 </v>
    <v>       0.00000000       0.22222222       0.00000000 </v>
    <v>       0.12500000       0.22222222       0.00000000 </v>
    <v>      -0.12500000       0.22222222       0.00000000 </v>
    <v>       0.25000000       0.22222222       0.00000000 </v>
    <v>      -0.25000000       0.22222222       0.00000000 </v>
    <v>       0.37500000       0.22222222       0.00000000 </v>
    <v>      -0.37500000       0.22222222       0.00000000 </v>
    <v>       0.50000000       0.22222222       0.00000000 </v>
    <v>       0.00000000       0.33333333       0.00000000 </v>
    <v>       0.12500000       0.33333333       0.00000000 </v>
    <v>      -0.12500000       0.33333333       0.00000000 </v>
    <v>       0.25000000       0.33333333       0.00000000 </v>
    <v>      -0.25000000       0.33333333       0.00000000 </v>
    <v>       0.37500000       0.33333333       0.00000000 </v>
    <v>      -0.37500000       0.33333333       0.00000000 </v>
    <v>       0.50000000       0.33333333       0.00000000 </v>
    <v>       0.00000000       0.44444444       0.00000000 </v>
    <v>       0.12500000       0.44444444       0.00000000 </v>
    <v>      -0.12500000       0.44444444       0.00000000 </v>
    <v>       0.25000000       0.44444444       0.00000000 </v>
    <v>      -0.25000000       0.44444444       0.00000000 </v>
    <v>       0.37500000       0.44444444       0.00000000 </v>
    <v>      -0.37500000       0.44444444       0.00000000 </v>
    <v>       0.50000000       0.44444444       0.00000000 </v>
    <v>       0.00000000       0.00000000       0.33333333 </v>
    <v>       0.12500000       0.00000000       0.33333333 </v>
    <v>       0.25000000       0.00000000       0.33333333 </v>
    <v>       0.37500000       0.00000000       0.33333333 </v>
    <v>       0.50000000       0.00000000       0.33333333 </v>
    <v>       0.00000000       0.11111111       0.33333333 </v>
    <v>       0.12500000       0.11111111       0.33333333 </v>
    <v>      -0.12500000       0.11111111      -0.33333333 </v>
    <v>       0.25000000       0.11111111       0.33333333 </v>
    <v>      -0.25000000       0.11111111      -0.33333333 </v>
    <v>       0.37500000       0.11111111       0.33333333 </v>
    <v>      -0.37500000       0.11111111      -0.33333333 </v>
    <v>       0.50000000       0.11111111       0.33333333 </v>
    <v>       0.00000000       0.22222222       0.33333333 </v>
    <v>       0.12500000       0.22222222       0.33333333 </v>
    <v>      -0.12500000       0.22222222      -0.33333333 </v>
    <v>       0.25000000       0.22222222       0.33333333 </v>
    <v>      -0.25000000       0.22222222      -0.33333333 </v>
    <v>       0.37500000       0.22222222       0.33333333 </v>
    <v>      -0.37500000       0.22222222      -0.33333333 </v>
    <v>       0.50000000       0.22222222       0.33333333 </v>
    <v>       0.00000000       0.33333333       0.33333333 </v>
    <v>       0.12500000       0.33333333       0.33333333 </v>
    <v>      -0.12500000       0.33333333      -0.33333333 </v>
    <v>       0.25000000       0.33333333       0.33333333 </v>
    <v>      -0.25000000       0.33333333      -0.33333333 </v>
    <v>       0.37500000       0.33333333       0.33333333 </v>
    <v>      -0.37500000       0.33333333      -0.33333333 </v>
    <v>       0.50000000       0.33333333       0.33333333 </v>
    <v>       0.00000000       0.44444444       0.33333333 </v>
    <v>       0.12500000       0.44444444       0.33333333 </v>
    <v>      -0.12500000       0.44444444      -0.33333333 </v>
    <v>       0.25000000       0.44444444       0.33333333 </v>
    <v>      -0.25000000       0.44444444      -0.33333333 </v>
    <v>       0.37500000       0.44444444       0.33333333 </v>
    <v>      -0.37500000       0.44444444      -0.33333333 </v>
    <v>       0.50000000       0.44444444       0.33333333 </v>
   </varray>
   <varray name="weights" >
    <v>       0.00462963 </v>
    <v>       0.00925926 </v>
    <v>       0.00925926 </v>
    <v>       0.00925926 </v>
    <v>       0.00462963 </v>
    <v>       0.00925926 </v>
    <v>       0.00925926 </v>
    <v>       0.00925926 </v>
    <v>       0.00925926 </v>
    <v>       0.00925926 </v>
    <v>       0.00925926 </v>
    <v>       0.00925926 </v>
    <v>       0.00925926 </v>
    <v>       0.00925926 </v>
    <v>       0.00925926 </v>
    <v>       0.00925926 </v>
    <v>       0.00925926 </v>
    <v>       0.00925926 </v>
    <v>       0.00925926 </v>
    <v>       0.00925926 </v>
    <v>       0.00925926 </v>
    <v>       0.00925926 </v>
    <v>       0.00925926 </v>
    <v>       0.00925926 </v>
    <v>       0.00925926 </v>
    <v>       0.00925926 </v>
    <v>       0.00925926 </v>
    <v>       0.00925926 </v>
    <v>       0.00925926 </v>
    <v>       0.00925926 </v>
    <v>       0.00925926 </v>
    <v>       0.00925926 </v>
    <v>       0.00925926 </v>
    <v>       0.00925926 </v>
    <v>       0.00925926 </v>
    <v>       0.00925926 </v>
    <v>       0.00925926 </v>
    <v>       0.00925926 </v>
    <v>       0.01851852 </v>
    <v>       0.01851852 </v>
    <v>       0.01851852 </v>
    <v>       0.00925926 </v>
    <v>       0.01851852 </v>
    <v>       0.01851852 </v>
    <v>       0.01851852 </v>
    <v>       0.01851852 </v>
    <v>       0.01851852 </v>
    <v>       0.01851852 </v>
    <v>       0.01851852 </v>
    <v>       0.01851852 </v>
    <v>       0.01851852 </v>
    <v>       0.01851852 </v>
    <v>       0.01851852 </v>
    <v>       0.01851852 </v>
    <v>       0.01851852 </v>
    <v>       0.01851852 </v>
    <v>       0.01851852 </v>
    <v>       0.01851852 </v>
    <v>       0.01851852 </v>
    <v>       0.01851852 </v>
    <v>       0.01851852 </v>
    <v>       0.01851852 </v>
    <v>       0.01851852 </v>
    <v>       0.01851852 </v>
    <v>       0.01851852 </v>
    <v>       0.01851852 </v>
    <v>       0.01851852 </v>
    <v>       0.01851852 </v>
    <v>       0.01851852 </v>
    <v>       0.01851852 </v>
    <v>       0.01851852 </v>
    <v>       0.01851852 </v>
    <v>       0.01851852 </v>
    <v>       0.01851852 </v>
   </varray>
  </kpoints>
  <scstep>
   <time name="total">    1.99    1.28</time>
   <energy>
    <i name="e_fr_energy">     -3.83466453 </i>
    <i name="e_wo_entrp">     -3.83466453 </i>
    <i name="e_0_energy">     -3.83466453 </i>
   </energy>
  </scstep>
  <scstep>
   <time name="total">    2.86    1.74</time>
   <energy>
    <i name="e_fr_energy">    -16.77463261 </i>
    <i name="e_wo_entrp">    -16.77463261 </i>
    <i name="e_0_energy">    -16.77463261 </i>
   </energy>
  </scstep>
  <scstep>
   <time name="total">    2.70    1.68</time>
   <energy>
    <i name="e_fr_energy">    -16.49264688 </i>
    <i name="e_wo_entrp">    -16.49264688 </i>
    <i name="e_0_energy">    -16.49264688 </i>
   </energy>
  </scstep>
  <scstep>
   <time name="total">    2.71    1.68</time>
   <energy>
    <i name="e_fr_energy">    -16.92538036 </i>
    <i name="e_wo_entrp">    -16.92538036 </i>
    <i name="e_0_energy">    -16.92538036 </i>
   </energy>
  </scstep>
  <scstep>
   <time name="total">    2.76    1.73</time>
   <energy>
    <i name="e_fr_energy">    -17.04385677 </i>
    <i name="e_wo_entrp">    -17.04385677 </i>
    <i name="e_0_energy">    -17.04385677 </i>
   </energy>
  </scstep>
  <scstep>
   <time name="total">    2.87    1.74</time>
   <energy>
    <i name="e_fr_energy">    -17.06320664 </i>
    <i name="e_wo_entrp">    -17.06320664 </i>
    <i name="e_0_energy">    -17.06320664 </i>
   </energy>
  </scstep>
  <scstep>
   <time name="total">    2.89    1.74</time>
   <energy>
    <i name="e_fr_energy">    -17.06205369 </i>
    <i name="e_wo_entrp">    -17.06205369 </i>
    <i name="e_0_energy">    -17.06205369 </i>
   </energy>
  </scstep>
  <scstep>
   <time name="total">    2.95    1.80</time>
   <energy>
    <i name="e_fr_energy">    -17.06561226 </i>
    <i name="e_wo_entrp">    -17.06561226 </i>
    <i name="e_0_energy">    -17.06561226 </i>
   </energy>
  </scstep>
  <scstep>
   <time name="total">    2.99    1.79</time>
   <energy>
    <i name="e_fr_energy">    -17.06322841 </i>
    <i name="e_wo_entrp">    -17.06322841 </i>
    <i name="e_0_energy">    -17.06322841 </i>
   </energy>
  </scstep>
  <scstep>
   <time name="total">    2.96    1.78</time>
   <energy>
    <i name="e_fr_energy">    -17.06585370 </i>
    <i name="e_wo_entrp">    -17.06585370 </i>
    <i name="e_0_energy">    -17.06585370 </i>
   </energy>
  </scstep>
  <scstep>
   <time name="total">    3.01    1.80</time>
   <energy>
    <i name="e_fr_energy">    -17.06276504 </i>
    <i name="e_wo_entrp">    -17.06276504 </i>
    <i name="e_0_energy">    -17.06276504 </i>
   </energy>
  </scstep>
  <scstep>
   <time name="total">    3.00    1.80</time>
   <energy>
    <i name="e_fr_energy">    -17.06487098 </i>
    <i name="e_wo_entrp">    -17.06487098 </i>
    <i name="e_0_energy">    -17.06487098 </i>
   </energy>
  </scstep>
  <scstep>
   <time name="total">    2.99    1.79</time>
   <energy>
    <i name="e_fr_energy">    -17.06419134 </i>
    <i name="e_wo_entrp">    -17.06419134 </i>
    <i name="e_0_energy">    -17.06419134 </i>
   </energy>
  </scstep>
  <scstep>
   <time name="total">    2.88    1.74</time>
   <energy>
    <i name="e_fr_energy">    -17.06510487 </i>
    <i name="e_wo_entrp">    -17.06510487 </i>
    <i name="e_0_energy">    -17.06510487 </i>
   </energy>
  </scstep>
  <scstep>
   <time name="total">    2.87    1.74</time>
   <energy>
    <i name="e_fr_energy">    -17.06382546 </i>
    <i name="e_wo_entrp">    -17.06382546 </i>
    <i name="e_0_energy">    -17.06382546 </i>
   </energy>
  </scstep>
  <kpoints>
   <generation param="Gamma">
    <v type="int" name="divisions">       8        9        3 </v>
    <v name="usershift">      0.00000000       0.00000000       0.00000000 </v>
    <v name="genvec1">      0.12500000       0.00000000       0.00000000 </v>
    <v name="genvec2">      0.00000000       0.11111111       0.00000000 </v>
    <v name="genvec3">      0.00000000       0.00000000       0.33333333 </v>
    <v name="shift">      0.00000000       0.00000000       0.00000000 </v>
   </generation>
   <varray name="kpointlist" >
    <v>       0.00000000       0.00000000       0.00000000 </v>
    <v>       0.12500000       0.00000000       0.00000000 </v>
    <v>       0.25000000       0.00000000       0.00000000 </v>
    <v>       0.37500000       0.00000000       0.00000000 </v>
    <v>       0.50000000       0.00000000       0.00000000 </v>
    <v>       0.00000000       0.11111111       0.00000000 </v>
    <v>       0.12500000       0.11111111       0.00000000 </v>
    <v>      -0.12500000       0.11111111       0.00000000 </v>
    <v>       0.25000000       0.11111111       0.00000000 </v>
    <v>      -0.25000000       0.11111111       0.00000000 </v>
    <v>       0.37500000       0.11111111       0.00000000 </v>
    <v>      -0.37500000       0.11111111       0.00000000 </v>
    <v>       0.50000000       0.11111111       0.00000000 </v>
    <v>       0.00000000       0.22222222       0.00000000 </v>
    <v>       0.12500000       0.22222222       0.00000000 </v>
    <v>      -0.12500000       0.22222222       0.00000000 </v>
    <v>       0.25000000       0.22222222       0.00000000 </v>
    <v>      -0.25000000       0.22222222       0.00000000 </v>
    <v>       0.37500000       0.22222222       0.00000000 </v>
    <v>      -0.37500000       0.22222222       0.00000000 </v>
    <v>       0.50000000       0.22222222       0.00000000 </v>
    <v>       0.00000000       0.33333333       0.00000000 </v>
    <v>       0.12500000       0.33333333       0.00000000 </v>
    <v>      -0.12500000       0.33333333       0.00000000 </v>
    <v>       0.25000000       0.33333333       0.00000000 </v>
    <v>      -0.25000000       0.33333333       0.00000000 </v>
    <v>       0.37500000       0.33333333       0.00000000 </v>
    <v>      -0.37500000       0.33333333       0.00000000 </v>
    <v>       0.50000000       0.33333333       0.00000000 </v>
    <v>       0.00000000       0.44444444       0.00000000 </v>
    <v>       0.12500000       0.44444444       0.00000000 </v>
    <v>      -0.12500000       0.44444444       0.00000000 </v>
    <v>       0.25000000       0.44444444       0.00000000 </v>
    <v>      -0.25000000       0.44444444       0.00000000 </v>
    <v>       0.37500000       0.44444444       0.00000000 </v>
    <v>      -0.37500000       0.44444444       0.00000000 </v>
    <v>       0.50000000       0.44444444       0.00000000 </v>
    <v>       0.00000000       0.00000000       0.33333333 </v>
    <v>       0.12500000       0.00000000       0.33333333 </v>
    <v>       0.25000000       0.00000000       0.33333333 </v>
    <v>       0.37500000       0.00000000       0.33333333 </v>
    <v>       0.50000000       0.00000000       0.33333333 </v>
    <v>       0.00000000       0.11111111       0.33333333 </v>
    <v>       0.12500000       0.11111111       0.33333333 </v>
    <v>      -0.12500000       0.11111111      -0.33333333 </v>
    <v>       0.25000000       0.11111111       0.33333333 </v>
    <v>      -0.25000000       0.11111111      -0.33333333 </v>
    <v>       0.37500000       0.11111111       0.33333333 </v>
    <v>      -0.37500000       0.11111111      -0.33333333 </v>
    <v>       0.50000000       0.11111111       0.33333333 </v>
    <v>       0.00000000       0.22222222       0.33333333 </v>
    <v>       0.12500000       0.22222222       0.33333333 </v>
    <v>      -0.12500000       0.22222222      -0.33333333 </v>
    <v>       0.25000000       0.22222222       0.33333333 </v>
    <v>      -0.25000000       0.22222222      -0.33333333 </v>
    <v>       0.37500000       0.22222222       0.33333333 </v>
    <v>      -0.37500000       0.22222222      -0.33333333 </v>
    <v>       0.50000000       0.22222222       0.33333333 </v>
    <v>       0.00000000       0.33333333       0.33333333 </v>
    <v>       0.12500000       0.33333333       0.33333333 </v>
    <v>      -0.12500000       0.33333333      -0.33333333 </v>
    <v>       0.25000000       0.33333333       0.33333333 </v>
    <v>      -0.25000000       0.33333333      -0.33333333 </v>
    <v>       0.37500000       0.33333333       0.33333333 </v>
    <v>      -0.37500000       0.33333333      -0.33333333 </v>
    <v>       0.50000000       0.33333333       0.33333333 </v>
    <v>       0.00000000       0.44444444       0.33333333 </v>
    <v>       0.12500000       0.44444444       0.33333333 </v>
    <v>      -0.12500000       0.44444444      -0.33333333 </v>
    <v>       0.25000000       0.44444444       0.33333333 </v>
    <v>      -0.25000000       0.44444444      -0.33333333 </v>
    <v>       0.37500000       0.44444444       0.33333333 </v>
    <v>      -0.37500000       0.44444444      -0.33333333 </v>
    <v>       0.50000000       0.44444444       0.33333333 </v>
   </varray>
   <varray name="weights" >
    <v>       0.00462963 </v>
    <v>       0.00925926 </v>
    <v>       0.00925926 </v>
    <v>       0.00925926 </v>
    <v>       0.00462963 </v>
    <v>       0.00925926 </v>
    <v>       0.00925926 </v>
    <v>       0.00925926 </v>
    <v>       0.00925926 </v>
    <v>       0.00925926 </v>
    <v>       0.00925926 </v>
    <v>       0.00925926 </v>
    <v>       0.00925926 </v>
    <v>       0.00925926 </v>
    <v>       0.00925926 </v>
    <v>       0.00925926 </v>
    <v>       0.00925926 </v>
    <v>       0.00925926 </v>
    <v>       0.00925926 </v>
    <v>       0.00925926 </v>
    <v>       0.00925926 </v>
    <v>       0.00925926 </v>
    <v>       0.00925926 </v>
    <v>       0.00925926 </v>
    <v>       0.00925926 </v>
    <v>       0.00925926 </v>
    <v>       0.00925926 </v>
    <v>       0.00925926 </v>
    <v>       0.00925926 </v>
    <v>       0.00925926 </v>
    <v>       0.00925926 </v>
    <v>       0.00925926 </v>
    <v>       0.00925926 </v>
    <v>       0.00925926 </v>
    <v>       0.00925926 </v>
    <v>       0.00925926 </v>
    <v>       0.00925926 </v>
    <v>       0.00925926 </v>
    <v>       0.01851852 </v>
    <v>       0.01851852 </v>
    <v>       0.01851852 </v>
    <v>       0.00925926 </v>
    <v>       0.01851852 </v>
    <v>       0.01851852 </v>
    <v>       0.01851852 </v>
    <v>       0.01851852 </v>
    <v>       0.01851852 </v>
    <v>       0.01851852 </v>
    <v>       0.01851852 </v>
    <v>       0.01851852 </v>
    <v>       0.01851852 </v>
    <v>       0.01851852 </v>
    <v>       0.01851852 </v>
    <v>       0.01851852 </v>
    <v>       0.01851852 </v>
    <v>       0.01851852 </v>
    <v>       0.01851852 </v>
    <v>       0.01851852 </v>
    <v>       0.01851852 </v>
    <v>       0.01851852 </v>
    <v>       0.01851852 </v>
    <v>       0.01851852 </v>
    <v>       0.01851852 </v>
    <v>       0.01851852 </v>
    <v>       0.01851852 </v>
    <v>       0.01851852 </v>
    <v>       0.01851852 </v>
    <v>       0.01851852 </v>
    <v>       0.01851852 </v>
    <v>       0.01851852 </v>
    <v>       0.01851852 </v>
    <v>       0.01851852 </v>
    <v>       0.01851852 </v>
    <v>       0.01851852 </v>
   </varray>
  </kpoints>
  <scstep>
   <time name="total">    2.04    1.31</time>
   <energy>
    <i name="e_fr_energy">     -4.13882647 </i>
    <i name="e_wo_entrp">     -4.13882647 </i>
    <i name="e_0_energy">     -4.13882647 </i>
   </energy>
  </scstep>
  <scstep>
   <time name="total">    2.85    1.75</time>
   <energy>
    <i name="e_fr_energy">    -15.58057542 </i>
    <i name="e_wo_entrp">    -15.58057542 </i>
    <i name="e_0_energy">    -15.58057542 </i>
   </energy>
  </scstep>
  <scstep>
   <time name="total">    2.74    1.74</time>
   <energy>
    <i name="e_fr_energy">    -15.19514092 </i>
    <i name="e_wo_entrp">    -15.19514092 </i>
    <i name="e_0_energy">    -15.19514092 </i>
   </energy>
  </scstep>
  <scstep>
   <time name="total">    2.73    1.73</time>
   <energy>
    <i name="e_fr_energy">    -15.40510696 </i>
    <i name="e_wo_entrp">    -15.40510696 </i>
    <i name="e_0_energy">    -15.40510696 </i>
   </energy>
  </scstep>
  <scstep>
   <time name="total">    2.81    1.76</time>
   <energy>
    <i name="e_fr_energy">    -15.54643259 </i>
    <i name="e_wo_entrp">    -15.54643259 </i>
    <i name="e_0_energy">    -15.54643259 </i>
   </energy>
  </scstep>
  <scstep>
   <time name="total">    2.90    1.75</time>
   <energy>
    <i name="e_fr_energy">    -15.61379678 </i>
    <i name="e_wo_entrp">    -15.61379678 </i>
    <i name="e_0_energy">    -15.61379678 </i>
   </energy>
  </scstep>
  <scstep>
   <time name="total">    2.96    1.78</time>
   <energy>
    <i name="e_fr_energy">    -15.61311311 </i>
    <i name="e_wo_entrp">    -15.61311311 </i>
    <i name="e_0_energy">    -15.61311311 </i>
   </energy>
  </scstep>
  <scstep>
   <time name="total">    2.92    1.76</time>
   <energy>
    <i name="e_fr_energy">    -15.61748128 </i>
    <i name="e_wo_entrp">    -15.61748128 </i>
    <i name="e_0_energy">    -15.61748128 </i>
   </energy>
  </scstep>
  <scstep>
   <time name="total">    2.98    1.79</time>
   <energy>
    <i name="e_fr_energy">    -15.61600452 </i>
    <i name="e_wo_entrp">    -15.61600452 </i>
    <i name="e_0_energy">    -15.61600452 </i>
   </energy>
  </scstep>
  <scstep>
   <time name="total">    2.92    1.76</time>
   <energy>
    <i name="e_fr_energy">    -15.61553849 </i>
    <i name="e_wo_entrp">    -15.61553849 </i>
    <i name="e_0_energy">    -15.61553849 </i>
   </energy>
  </scstep>
  <scstep>
   <time name="total">    2.96    1.78</time>
   <energy>
    <i name="e_fr_energy">    -15.61422735 </i>
    <i name="e_wo_entrp">    -15.61422735 </i>
    <i name="e_0_energy">    -15.61422735 </i>
   </energy>
  </scstep>
  <scstep>
   <time name="total">    3.02    1.81</time>
   <energy>
    <i name="e_fr_energy">    -15.61723616 </i>
    <i name="e_wo_entrp">    -15.61723616 </i>
    <i name="e_0_energy">    -15.61723616 </i>
   </energy>
  </scstep>
  <scstep>
   <time name="total">    2.99    1.80</time>
   <energy>
    <i name="e_fr_energy">    -15.61429248 </i>
    <i name="e_wo_entrp">    -15.61429248 </i>
    <i name="e_0_energy">    -15.61429248 </i>
   </energy>
  </scstep>
  <scstep>
   <time name="total">    2.94    1.77</time>
   <energy>
    <i name="e_fr_energy">    -15.61784831 </i>
    <i name="e_wo_entrp">    -15.61784831 </i>
    <i name="e_0_energy">    -15.61784831 </i>
   </energy>
  </scstep>
  <scstep>
   <time name="total">    2.93    1.80</time>
   <energy>
    <i name="e_fr_energy">    -15.61433949 </i>
    <i name="e_wo_entrp">    -15.61433949 </i>
    <i name="e_0_energy">    -15.61433949 </i>
   </energy>
  </scstep>
  <scstep>
   <time name="total">    2.87    1.75</time>
   <energy>
    <i name="e_fr_energy">    -15.61662938 </i>
    <i name="e_wo_entrp">    -15.61662938 </i>
    <i name="e_0_energy">    -15.61662938 </i>
   </energy>
  </scstep>
  <scstep>
   <time name="total">    2.86    1.73</time>
   <energy>
    <i name="e_fr_energy">    -15.61372335 </i>
    <i name="e_wo_entrp">    -15.61372335 </i>
    <i name="e_0_energy">    -15.61372335 </i>
   </energy>
  </scstep>
  <scstep>
   <time name="total">    2.85    1.72</time>
   <energy>
    <i name="e_fr_energy">    -15.61632061 </i>
    <i name="e_wo_entrp">    -15.61632061 </i>
    <i name="e_0_energy">    -15.61632061 </i>
   </energy>
  </scstep>
  <scstep>
   <time name="total">    2.85    1.72</time>
   <energy>
    <i name="e_fr_energy">    -15.61372560 </i>
    <i name="e_wo_entrp">    -15.61372560 </i>
    <i name="e_0_energy">    -15.61372560 </i>
   </energy>
  </scstep>
  <scstep>
   <time name="total">    2.84    1.72</time>
   <energy>
    <i name="e_fr_energy">    -15.61563528 </i>
    <i name="e_wo_entrp">    -15.61563528 </i>
    <i name="e_0_energy">    -15.61563528 </i>
   </energy>
  </scstep>
  <scstep>
   <time name="total">    2.85    1.72</time>
   <energy>
    <i name="e_fr_energy">    -15.61547921 </i>
    <i name="e_wo_entrp">    -15.61547921 </i>
    <i name="e_0_energy">    -15.61547921 </i>
   </energy>
  </scstep>
  <scstep>
   <time name="total">    2.83    1.71</time>
   <energy>
    <i name="e_fr_energy">    -15.61599378 </i>
    <i name="e_wo_entrp">    -15.61599378 </i>
    <i name="e_0_energy">    -15.61599378 </i>
   </energy>
  </scstep>
  <scstep>
   <time name="total">    2.83    1.71</time>
   <energy>
    <i name="e_fr_energy">    -15.61531991 </i>
    <i name="e_wo_entrp">    -15.61531991 </i>
    <i name="e_0_energy">    -15.61531991 </i>
   </energy>
  </scstep>
  <scstep>
   <time name="total">    2.85    1.72</time>
   <energy>
    <i name="e_fr_energy">    -15.61567562 </i>
    <i name="e_wo_entrp">    -15.61567562 </i>
    <i name="e_0_energy">    -15.61567562 </i>
   </energy>
  </scstep>
  <scstep>
   <time name="total">    2.85    1.73</time>
   <energy>
    <i name="e_fr_energy">    -15.61498204 </i>
    <i name="e_wo_entrp">    -15.61498204 </i>
    <i name="e_0_energy">    -15.61498204 </i>
   </energy>
  </scstep>
  <scstep>
   <time name="total">    2.83    1.71</time>
   <energy>
    <i name="e_fr_energy">    -15.61478636 </i>
    <i name="e_wo_entrp">    -15.61478636 </i>
    <i name="e_0_energy">    -15.61478636 </i>
   </energy>
  </scstep>
  <scstep>
   <time name="total">    2.86    1.73</time>
   <energy>
    <i name="e_fr_energy">    -15.61551173 </i>
    <i name="e_wo_entrp">    -15.61551173 </i>
    <i name="e_0_energy">    -15.61551173 </i>
   </energy>
  </scstep>
  <kpoints>
   <generation param="Gamma">
    <v type="int" name="divisions">       8        9        3 </v>
    <v name="usershift">      0.00000000       0.00000000       0.00000000 </v>
    <v name="genvec1">      0.12500000       0.00000000       0.00000000 </v>
    <v name="genvec2">      0.00000000       0.11111111       0.00000000 </v>
    <v name="genvec3">      0.00000000       0.00000000       0.33333333 </v>
    <v name="shift">      0.00000000       0.00000000       0.00000000 </v>
   </generation>
   <varray name="kpointlist" >
    <v>       0.00000000       0.00000000       0.00000000 </v>
    <v>       0.12500000       0.00000000       0.00000000 </v>
    <v>       0.25000000       0.00000000       0.00000000 </v>
    <v>       0.37500000       0.00000000       0.00000000 </v>
    <v>       0.50000000       0.00000000       0.00000000 </v>
    <v>       0.00000000       0.11111111       0.00000000 </v>
    <v>       0.12500000       0.11111111       0.00000000 </v>
    <v>      -0.12500000       0.11111111       0.00000000 </v>
    <v>       0.25000000       0.11111111       0.00000000 </v>
    <v>      -0.25000000       0.11111111       0.00000000 </v>
    <v>       0.37500000       0.11111111       0.00000000 </v>
    <v>      -0.37500000       0.11111111       0.00000000 </v>
    <v>       0.50000000       0.11111111       0.00000000 </v>
    <v>       0.00000000       0.22222222       0.00000000 </v>
    <v>       0.12500000       0.22222222       0.00000000 </v>
    <v>      -0.12500000       0.22222222       0.00000000 </v>
    <v>       0.25000000       0.22222222       0.00000000 </v>
    <v>      -0.25000000       0.22222222       0.00000000 </v>
    <v>       0.37500000       0.22222222       0.00000000 </v>
    <v>      -0.37500000       0.22222222       0.00000000 </v>
    <v>       0.50000000       0.22222222       0.00000000 </v>
    <v>       0.00000000       0.33333333       0.00000000 </v>
    <v>       0.12500000       0.33333333       0.00000000 </v>
    <v>      -0.12500000       0.33333333       0.00000000 </v>
    <v>       0.25000000       0.33333333       0.00000000 </v>
    <v>      -0.25000000       0.33333333       0.00000000 </v>
    <v>       0.37500000       0.33333333       0.00000000 </v>
    <v>      -0.37500000       0.33333333       0.00000000 </v>
    <v>       0.50000000       0.33333333       0.00000000 </v>
    <v>       0.00000000       0.44444444       0.00000000 </v>
    <v>       0.12500000       0.44444444       0.00000000 </v>
    <v>      -0.12500000       0.44444444       0.00000000 </v>
    <v>       0.25000000       0.44444444       0.00000000 </v>
    <v>      -0.25000000       0.44444444       0.00000000 </v>
    <v>       0.37500000       0.44444444       0.00000000 </v>
    <v>      -0.37500000       0.44444444       0.00000000 </v>
    <v>       0.50000000       0.44444444       0.00000000 </v>
    <v>       0.00000000       0.00000000       0.33333333 </v>
    <v>       0.12500000       0.00000000       0.33333333 </v>
    <v>       0.25000000       0.00000000       0.33333333 </v>
    <v>       0.37500000       0.00000000       0.33333333 </v>
    <v>       0.50000000       0.00000000       0.33333333 </v>
    <v>       0.00000000       0.11111111       0.33333333 </v>
    <v>       0.12500000       0.11111111       0.33333333 </v>
    <v>      -0.12500000       0.11111111      -0.33333333 </v>
    <v>       0.25000000       0.11111111       0.33333333 </v>
    <v>      -0.25000000       0.11111111      -0.33333333 </v>
    <v>       0.37500000       0.11111111       0.33333333 </v>
    <v>      -0.37500000       0.11111111      -0.33333333 </v>
    <v>       0.50000000       0.11111111       0.33333333 </v>
    <v>       0.00000000       0.22222222       0.33333333 </v>
    <v>       0.12500000       0.22222222       0.33333333 </v>
    <v>      -0.12500000       0.22222222      -0.33333333 </v>
    <v>       0.25000000       0.22222222       0.33333333 </v>
    <v>      -0.25000000       0.22222222      -0.33333333 </v>
    <v>       0.37500000       0.22222222       0.33333333 </v>
    <v>      -0.37500000       0.22222222      -0.33333333 </v>
    <v>       0.50000000       0.22222222       0.33333333 </v>
    <v>       0.00000000       0.33333333       0.33333333 </v>
    <v>       0.12500000       0.33333333       0.33333333 </v>
    <v>      -0.12500000       0.33333333      -0.33333333 </v>
    <v>       0.25000000       0.33333333       0.33333333 </v>
    <v>      -0.25000000       0.33333333      -0.33333333 </v>
    <v>       0.37500000       0.33333333       0.33333333 </v>
    <v>      -0.37500000       0.33333333      -0.33333333 </v>
    <v>       0.50000000       0.33333333       0.33333333 </v>
    <v>       0.00000000       0.44444444       0.33333333 </v>
    <v>       0.12500000       0.44444444       0.33333333 </v>
    <v>      -0.12500000       0.44444444      -0.33333333 </v>
    <v>       0.25000000       0.44444444       0.33333333 </v>
    <v>      -0.25000000       0.44444444      -0.33333333 </v>
    <v>       0.37500000       0.44444444       0.33333333 </v>
    <v>      -0.37500000       0.44444444      -0.33333333 </v>
    <v>       0.50000000       0.44444444       0.33333333 </v>
   </varray>
   <varray name="weights" >
    <v>       0.00462963 </v>
    <v>       0.00925926 </v>
    <v>       0.00925926 </v>
    <v>       0.00925926 </v>
    <v>       0.00462963 </v>
    <v>       0.00925926 </v>
    <v>       0.00925926 </v>
    <v>       0.00925926 </v>
    <v>       0.00925926 </v>
    <v>       0.00925926 </v>
    <v>       0.00925926 </v>
    <v>       0.00925926 </v>
    <v>       0.00925926 </v>
    <v>       0.00925926 </v>
    <v>       0.00925926 </v>
    <v>       0.00925926 </v>
    <v>       0.00925926 </v>
    <v>       0.00925926 </v>
    <v>       0.00925926 </v>
    <v>       0.00925926 </v>
    <v>       0.00925926 </v>
    <v>       0.00925926 </v>
    <v>       0.00925926 </v>
    <v>       0.00925926 </v>
    <v>       0.00925926 </v>
    <v>       0.00925926 </v>
    <v>       0.00925926 </v>
    <v>       0.00925926 </v>
    <v>       0.00925926 </v>
    <v>       0.00925926 </v>
    <v>       0.00925926 </v>
    <v>       0.00925926 </v>
    <v>       0.00925926 </v>
    <v>       0.00925926 </v>
    <v>       0.00925926 </v>
    <v>       0.00925926 </v>
    <v>       0.00925926 </v>
    <v>       0.00925926 </v>
    <v>       0.01851852 </v>
    <v>       0.01851852 </v>
    <v>       0.01851852 </v>
    <v>       0.00925926 </v>
    <v>       0.01851852 </v>
    <v>       0.01851852 </v>
    <v>       0.01851852 </v>
    <v>       0.01851852 </v>
    <v>       0.01851852 </v>
    <v>       0.01851852 </v>
    <v>       0.01851852 </v>
    <v>       0.01851852 </v>
    <v>       0.01851852 </v>
    <v>       0.01851852 </v>
    <v>       0.01851852 </v>
    <v>       0.01851852 </v>
    <v>       0.01851852 </v>
    <v>       0.01851852 </v>
    <v>       0.01851852 </v>
    <v>       0.01851852 </v>
    <v>       0.01851852 </v>
    <v>       0.01851852 </v>
    <v>       0.01851852 </v>
    <v>       0.01851852 </v>
    <v>       0.01851852 </v>
    <v>       0.01851852 </v>
    <v>       0.01851852 </v>
    <v>       0.01851852 </v>
    <v>       0.01851852 </v>
    <v>       0.01851852 </v>
    <v>       0.01851852 </v>
    <v>       0.01851852 </v>
    <v>       0.01851852 </v>
    <v>       0.01851852 </v>
    <v>       0.01851852 </v>
    <v>       0.01851852 </v>
   </varray>
  </kpoints>
  <varray name="dielectric_dft" >
   <v>      24.37280064       0.25915698       0.00000000 </v>
   <v>       0.25916842      29.79708152       0.00000000 </v>
   <v>       0.00000000       0.00000000      27.66736248 </v>
  </varray>
  <varray name="epsilon" >
   <v>      24.37280064       0.25915698       0.00000000 </v>
   <v>       0.25916842      29.79708152       0.00000000 </v>
   <v>       0.00000000       0.00000000      27.66736248 </v>
  </varray>
  <kpoints>
   <generation param="Gamma">
    <v type="int" name="divisions">       8        9        3 </v>
    <v name="usershift">      0.00000000       0.00000000       0.00000000 </v>
    <v name="genvec1">      0.12500000       0.00000000       0.00000000 </v>
    <v name="genvec2">      0.00000000       0.11111111       0.00000000 </v>
    <v name="genvec3">      0.00000000       0.00000000       0.33333333 </v>
    <v name="shift">      0.00000000       0.00000000       0.00000000 </v>
   </generation>
   <varray name="kpointlist" >
    <v>       0.00000000       0.00000000       0.00000000 </v>
    <v>       0.12500000       0.00000000       0.00000000 </v>
    <v>       0.25000000       0.00000000       0.00000000 </v>
    <v>       0.37500000       0.00000000       0.00000000 </v>
    <v>       0.50000000       0.00000000       0.00000000 </v>
    <v>       0.00000000       0.11111111       0.00000000 </v>
    <v>       0.12500000       0.11111111       0.00000000 </v>
    <v>      -0.12500000       0.11111111       0.00000000 </v>
    <v>       0.25000000       0.11111111       0.00000000 </v>
    <v>      -0.25000000       0.11111111       0.00000000 </v>
    <v>       0.37500000       0.11111111       0.00000000 </v>
    <v>      -0.37500000       0.11111111       0.00000000 </v>
    <v>       0.50000000       0.11111111       0.00000000 </v>
    <v>       0.00000000       0.22222222       0.00000000 </v>
    <v>       0.12500000       0.22222222       0.00000000 </v>
    <v>      -0.12500000       0.22222222       0.00000000 </v>
    <v>       0.25000000       0.22222222       0.00000000 </v>
    <v>      -0.25000000       0.22222222       0.00000000 </v>
    <v>       0.37500000       0.22222222       0.00000000 </v>
    <v>      -0.37500000       0.22222222       0.00000000 </v>
    <v>       0.50000000       0.22222222       0.00000000 </v>
    <v>       0.00000000       0.33333333       0.00000000 </v>
    <v>       0.12500000       0.33333333       0.00000000 </v>
    <v>      -0.12500000       0.33333333       0.00000000 </v>
    <v>       0.25000000       0.33333333       0.00000000 </v>
    <v>      -0.25000000       0.33333333       0.00000000 </v>
    <v>       0.37500000       0.33333333       0.00000000 </v>
    <v>      -0.37500000       0.33333333       0.00000000 </v>
    <v>       0.50000000       0.33333333       0.00000000 </v>
    <v>       0.00000000       0.44444444       0.00000000 </v>
    <v>       0.12500000       0.44444444       0.00000000 </v>
    <v>      -0.12500000       0.44444444       0.00000000 </v>
    <v>       0.25000000       0.44444444       0.00000000 </v>
    <v>      -0.25000000       0.44444444       0.00000000 </v>
    <v>       0.37500000       0.44444444       0.00000000 </v>
    <v>      -0.37500000       0.44444444       0.00000000 </v>
    <v>       0.50000000       0.44444444       0.00000000 </v>
    <v>       0.00000000       0.00000000       0.33333333 </v>
    <v>       0.12500000       0.00000000       0.33333333 </v>
    <v>       0.25000000       0.00000000       0.33333333 </v>
    <v>       0.37500000       0.00000000       0.33333333 </v>
    <v>       0.50000000       0.00000000       0.33333333 </v>
    <v>       0.00000000       0.11111111       0.33333333 </v>
    <v>       0.12500000       0.11111111       0.33333333 </v>
    <v>      -0.12500000       0.11111111      -0.33333333 </v>
    <v>       0.25000000       0.11111111       0.33333333 </v>
    <v>      -0.25000000       0.11111111      -0.33333333 </v>
    <v>       0.37500000       0.11111111       0.33333333 </v>
    <v>      -0.37500000       0.11111111      -0.33333333 </v>
    <v>       0.50000000       0.11111111       0.33333333 </v>
    <v>       0.00000000       0.22222222       0.33333333 </v>
    <v>       0.12500000       0.22222222       0.33333333 </v>
    <v>      -0.12500000       0.22222222      -0.33333333 </v>
    <v>       0.25000000       0.22222222       0.33333333 </v>
    <v>      -0.25000000       0.22222222      -0.33333333 </v>
    <v>       0.37500000       0.22222222       0.33333333 </v>
    <v>      -0.37500000       0.22222222      -0.33333333 </v>
    <v>       0.50000000       0.22222222       0.33333333 </v>
    <v>       0.00000000       0.33333333       0.33333333 </v>
    <v>       0.12500000       0.33333333       0.33333333 </v>
    <v>      -0.12500000       0.33333333      -0.33333333 </v>
    <v>       0.25000000       0.33333333       0.33333333 </v>
    <v>      -0.25000000       0.33333333      -0.33333333 </v>
    <v>       0.37500000       0.33333333       0.33333333 </v>
    <v>      -0.37500000       0.33333333      -0.33333333 </v>
    <v>       0.50000000       0.33333333       0.33333333 </v>
    <v>       0.00000000       0.44444444       0.33333333 </v>
    <v>       0.12500000       0.44444444       0.33333333 </v>
    <v>      -0.12500000       0.44444444      -0.33333333 </v>
    <v>       0.25000000       0.44444444       0.33333333 </v>
    <v>      -0.25000000       0.44444444      -0.33333333 </v>
    <v>       0.37500000       0.44444444       0.33333333 </v>
    <v>      -0.37500000       0.44444444      -0.33333333 </v>
    <v>       0.50000000       0.44444444       0.33333333 </v>
   </varray>
   <varray name="weights" >
    <v>       0.00462963 </v>
    <v>       0.00925926 </v>
    <v>       0.00925926 </v>
    <v>       0.00925926 </v>
    <v>       0.00462963 </v>
    <v>       0.00925926 </v>
    <v>       0.00925926 </v>
    <v>       0.00925926 </v>
    <v>       0.00925926 </v>
    <v>       0.00925926 </v>
    <v>       0.00925926 </v>
    <v>       0.00925926 </v>
    <v>       0.00925926 </v>
    <v>       0.00925926 </v>
    <v>       0.00925926 </v>
    <v>       0.00925926 </v>
    <v>       0.00925926 </v>
    <v>       0.00925926 </v>
    <v>       0.00925926 </v>
    <v>       0.00925926 </v>
    <v>       0.00925926 </v>
    <v>       0.00925926 </v>
    <v>       0.00925926 </v>
    <v>       0.00925926 </v>
    <v>       0.00925926 </v>
    <v>       0.00925926 </v>
    <v>       0.00925926 </v>
    <v>       0.00925926 </v>
    <v>       0.00925926 </v>
    <v>       0.00925926 </v>
    <v>       0.00925926 </v>
    <v>       0.00925926 </v>
    <v>       0.00925926 </v>
    <v>       0.00925926 </v>
    <v>       0.00925926 </v>
    <v>       0.00925926 </v>
    <v>       0.00925926 </v>
    <v>       0.00925926 </v>
    <v>       0.01851852 </v>
    <v>       0.01851852 </v>
    <v>       0.01851852 </v>
    <v>       0.00925926 </v>
    <v>       0.01851852 </v>
    <v>       0.01851852 </v>
    <v>       0.01851852 </v>
    <v>       0.01851852 </v>
    <v>       0.01851852 </v>
    <v>       0.01851852 </v>
    <v>       0.01851852 </v>
    <v>       0.01851852 </v>
    <v>       0.01851852 </v>
    <v>       0.01851852 </v>
    <v>       0.01851852 </v>
    <v>       0.01851852 </v>
    <v>       0.01851852 </v>
    <v>       0.01851852 </v>
    <v>       0.01851852 </v>
    <v>       0.01851852 </v>
    <v>       0.01851852 </v>
    <v>       0.01851852 </v>
    <v>       0.01851852 </v>
    <v>       0.01851852 </v>
    <v>       0.01851852 </v>
    <v>       0.01851852 </v>
    <v>       0.01851852 </v>
    <v>       0.01851852 </v>
    <v>       0.01851852 </v>
    <v>       0.01851852 </v>
    <v>       0.01851852 </v>
    <v>       0.01851852 </v>
    <v>       0.01851852 </v>
    <v>       0.01851852 </v>
    <v>       0.01851852 </v>
    <v>       0.01851852 </v>
   </varray>
  </kpoints>
  <array name="born_charges" >
   <dimension dim="1">ion</dimension>
   <set>
    <v>       3.99382715       0.02309976      -0.59170861 </v>
    <v>       0.01874590       4.57092994       0.00501278 </v>
    <v>       0.08586497      -0.00160550       4.23581153 </v>
   </set>
   <set>
    <v>       3.99382715       0.02309976       0.59170861 </v>
    <v>       0.01874590       4.57092994      -0.00501278 </v>
    <v>      -0.08586497       0.00160550       4.23581153 </v>
   </set>
   <set>
    <v>       3.99382715       0.02309976       0.59170861 </v>
    <v>       0.01874590       4.57092994      -0.00501278 </v>
    <v>      -0.08586497       0.00160550       4.23581153 </v>
   </set>
   <set>
    <v>       3.99382715       0.02309976      -0.59170861 </v>
    <v>       0.01874590       4.57092994       0.00501278 </v>
    <v>       0.08586497      -0.00160550       4.23581153 </v>
   </set>
   <set>
    <v>      -3.99382715      -0.02309976       0.57781580 </v>
    <v>      -0.01874590      -4.57092994      -0.02305569 </v>
    <v>       0.69196661      -0.01330340      -4.23581153 </v>
   </set>
   <set>
    <v>      -3.99382715      -0.02309976      -0.57781580 </v>
    <v>      -0.01874590      -4.57092994       0.02305569 </v>
    <v>      -0.69196661       0.01330340      -4.23581153 </v>
   </set>
   <set>
    <v>      -3.99382715      -0.02309976      -0.57781580 </v>
    <v>      -0.01874590      -4.57092994       0.02305569 </v>
    <v>      -0.69196661       0.01330340      -4.23581153 </v>
   </set>
   <set>
    <v>      -3.99382715      -0.02309976       0.57781580 </v>
    <v>      -0.01874590      -4.57092994      -0.02305569 </v>
    <v>       0.69196661      -0.01330340      -4.23581153 </v>
   </set>
  </array>
  <time name="totalsc">  509.72  308.00</time>
  <eigenvalues>
   <array>
    <dimension dim="1">band</dimension>
    <dimension dim="2">kpoint</dimension>
    <dimension dim="3">spin</dimension>
    <field>eigene</field>
    <field>occ</field>
    <set>
     <set comment="spin 1">
      <set comment="kpoint 1">
       <r>  -15.4185    1.0000 </r>
       <r>  -15.3994    1.0000 </r>
       <r>  -15.3983    1.0000 </r>
       <r>  -15.3925    1.0000 </r>
       <r>  -15.3918    1.0000 </r>
       <r>  -15.3901    1.0000 </r>
       <r>  -15.3866    1.0000 </r>
       <r>  -15.3829    1.0000 </r>
       <r>  -15.3819    1.0000 </r>
       <r>  -15.3801    1.0000 </r>
       <r>  -15.3764    1.0000 </r>
       <r>  -15.3756    1.0000 </r>
       <r>  -15.3652    1.0000 </r>
       <r>  -15.3604    1.0000 </r>
       <r>  -15.3450    1.0000 </r>
       <r>  -15.3354    1.0000 </r>
       <r>  -15.3349    1.0000 </r>
       <r>  -15.3270    1.0000 </r>
       <r>  -15.3144    1.0000 </r>
       <r>  -15.3051    1.0000 </r>
       <r>   -8.1766    1.0000 </r>
       <r>   -7.7614    1.0000 </r>
       <r>   -7.1072    1.0000 </r>
       <r>   -6.4997    1.0000 </r>
       <r>   -1.4512    1.0000 </r>
       <r>   -0.2040    1.0000 </r>
       <r>    0.0299    1.0000 </r>
       <r>    0.8492    1.0000 </r>
       <r>    0.9750    1.0000 </r>
       <r>    2.3090    1.0000 </r>
       <r>    2.3261    1.0000 </r>
       <r>    2.4392    1.0000 </r>
       <r>    2.8977    1.0000 </r>
       <r>    2.9107    1.0000 </r>
       <r>    3.4128    1.0000 </r>
       <r>    3.9131    1.0000 </r>
       <r>    4.2218    1.0000 </r>
       <r>    4.5899    1.0000 </r>
       <r>    5.1305    1.0000 </r>
       <r>    5.2880    1.0000 </r>
       <r>    6.3313    0.0000 </r>
       <r>    8.7791    0.0000 </r>
       <r>    8.8885    0.0000 </r>
       <r>    8.9274    0.0000 </r>
       <r>    9.1720    0.0000 </r>
       <r>    9.3662    0.0000 </r>
       <r>   10.0892    0.0000 </r>
       <r>   10.4094    0.0000 </r>
       <r>   10.5179    0.0000 </r>
       <r>   10.7515    0.0000 </r>
       <r>   11.3476    0.0000 </r>
       <r>   11.8015    0.0000 </r>
       <r>   12.0336    0.0000 </r>
       <r>   12.0794    0.0000 </r>
       <r>   12.1456    0.0000 </r>
       <r>   12.6164    0.0000 </r>
       <r>   12.6697    0.0000 </r>
       <r>   13.5877    0.0000 </r>
       <r>   14.3933    0.0000 </r>
       <r>   14.4080    0.0000 </r>
       <r>   14.5484    0.0000 </r>
       <r>   14.6916    0.0000 </r>
       <r>   15.0275    0.0000 </r>
       <r>   15.0364    0.0000 </r>
      </set>
      <set comment="kpoint 2">
       <r>  -15.4173    1.0000 </r>
       <r>  -15.3996    1.0000 </r>
       <r>  -15.3971    1.0000 </r>
       <r>  -15.3920    1.0000 </r>
       <r>  -15.3917    1.0000 </r>
       <r>  -15.3914    1.0000 </r>
       <r>  -15.3872    1.0000 </r>
       <r>  -15.3832    1.0000 </r>
       <r>  -15.3808    1.0000 </r>
       <r>  -15.3802    1.0000 </r>
       <r>  -15.3773    1.0000 </r>
       <r>  -15.3734    1.0000 </r>
       <r>  -15.3641    1.0000 </r>
       <r>  -15.3607    1.0000 </r>
       <r>  -15.3452    1.0000 </r>
       <r>  -15.3356    1.0000 </r>
       <r>  -15.3349    1.0000 </r>
       <r>  -15.3274    1.0000 </r>
       <r>  -15.3140    1.0000 </r>
       <r>  -15.3054    1.0000 </r>
       <r>   -8.1024    1.0000 </r>
       <r>   -7.6941    1.0000 </r>
       <r>   -7.0844    1.0000 </r>
       <r>   -6.5087    1.0000 </r>
       <r>   -1.7386    1.0000 </r>
       <r>   -0.3992    1.0000 </r>
       <r>   -0.2367    1.0000 </r>
       <r>    0.4717    1.0000 </r>
       <r>    0.8577    1.0000 </r>
       <r>    2.3534    1.0000 </r>
       <r>    2.4379    1.0000 </r>
       <r>    2.8599    1.0000 </r>
       <r>    3.0113    1.0000 </r>
       <r>    3.4367    1.0000 </r>
       <r>    3.4968    1.0000 </r>
       <r>    3.9871    1.0000 </r>
       <r>    4.2717    1.0000 </r>
       <r>    4.9223    1.0000 </r>
       <r>    4.9636    1.0000 </r>
       <r>    5.3405    1.0000 </r>
       <r>    6.3424    0.0000 </r>
       <r>    8.1996    0.0000 </r>
       <r>    8.8542    0.0000 </r>
       <r>    8.9907    0.0000 </r>
       <r>    9.0703    0.0000 </r>
       <r>    9.1595    0.0000 </r>
       <r>    9.9613    0.0000 </r>
       <r>   10.2474    0.0000 </r>
       <r>   10.2911    0.0000 </r>
       <r>   10.3908    0.0000 </r>
       <r>   11.2785    0.0000 </r>
       <r>   11.2824    0.0000 </r>
       <r>   11.5586    0.0000 </r>
       <r>   12.0133    0.0000 </r>
       <r>   12.0921    0.0000 </r>
       <r>   12.6086    0.0000 </r>
       <r>   13.0596    0.0000 </r>
       <r>   13.6536    0.0000 </r>
       <r>   13.9927    0.0000 </r>
       <r>   14.5742    0.0000 </r>
       <r>   14.8808    0.0000 </r>
       <r>   15.3466    0.0000 </r>
       <r>   15.3979    0.0000 </r>
       <r>   15.6534    0.0000 </r>
      </set>
      <set comment="kpoint 3">
       <r>  -15.4139    1.0000 </r>
       <r>  -15.4003    1.0000 </r>
       <r>  -15.3946    1.0000 </r>
       <r>  -15.3943    1.0000 </r>
       <r>  -15.3936    1.0000 </r>
       <r>  -15.3900    1.0000 </r>
       <r>  -15.3874    1.0000 </r>
       <r>  -15.3844    1.0000 </r>
       <r>  -15.3806    1.0000 </r>
       <r>  -15.3794    1.0000 </r>
       <r>  -15.3771    1.0000 </r>
       <r>  -15.3686    1.0000 </r>
       <r>  -15.3630    1.0000 </r>
       <r>  -15.3604    1.0000 </r>
       <r>  -15.3450    1.0000 </r>
       <r>  -15.3373    1.0000 </r>
       <r>  -15.3337    1.0000 </r>
       <r>  -15.3284    1.0000 </r>
       <r>  -15.3130    1.0000 </r>
       <r>  -15.3065    1.0000 </r>
       <r>   -7.8927    1.0000 </r>
       <r>   -7.5038    1.0000 </r>
       <r>   -7.0499    1.0000 </r>
       <r>   -6.5571    1.0000 </r>
       <r>   -2.2664    1.0000 </r>
       <r>   -1.1164    1.0000 </r>
       <r>   -0.7999    1.0000 </r>
       <r>    0.0296    1.0000 </r>
       <r>    0.8755    1.0000 </r>
       <r>    2.6445    1.0000 </r>
       <r>    2.7575    1.0000 </r>
       <r>    3.2960    1.0000 </r>
       <r>    3.4852    1.0000 </r>
       <r>    3.7048    1.0000 </r>
       <r>    3.8900    1.0000 </r>
       <r>    4.3693    1.0000 </r>
       <r>    4.6296    1.0000 </r>
       <r>    4.7566    1.0000 </r>
       <r>    5.2787    1.0000 </r>
       <r>    5.5830    1.0000 </r>
       <r>    6.6653    0.0000 </r>
       <r>    7.1826    0.0000 </r>
       <r>    7.9193    0.0000 </r>
       <r>    8.1045    0.0000 </r>
       <r>    8.8586    0.0000 </r>
       <r>    8.9438    0.0000 </r>
       <r>    9.3321    0.0000 </r>
       <r>    9.4445    0.0000 </r>
       <r>   10.3192    0.0000 </r>
       <r>   10.5821    0.0000 </r>
       <r>   10.5925    0.0000 </r>
       <r>   11.1423    0.0000 </r>
       <r>   11.2432    0.0000 </r>
       <r>   12.2732    0.0000 </r>
       <r>   12.6787    0.0000 </r>
       <r>   12.6798    0.0000 </r>
       <r>   13.3225    0.0000 </r>
       <r>   13.5417    0.0000 </r>
       <r>   14.1352    0.0000 </r>
       <r>   14.7075    0.0000 </r>
       <r>   15.1878    0.0000 </r>
       <r>   15.5469    0.0000 </r>
       <r>   15.9291    0.0000 </r>
       <r>   16.2980    0.0000 </r>
      </set>
      <set comment="kpoint 4">
       <r>  -15.4096    1.0000 </r>
       <r>  -15.4022    1.0000 </r>
       <r>  -15.3968    1.0000 </r>
       <r>  -15.3964    1.0000 </r>
       <r>  -15.3919    1.0000 </r>
       <r>  -15.3893    1.0000 </r>
       <r>  -15.3867    1.0000 </r>
       <r>  -15.3857    1.0000 </r>
       <r>  -15.3816    1.0000 </r>
       <r>  -15.3813    1.0000 </r>
       <r>  -15.3719    1.0000 </r>
       <r>  -15.3645    1.0000 </r>
       <r>  -15.3637    1.0000 </r>
       <r>  -15.3593    1.0000 </r>
       <r>  -15.3436    1.0000 </r>
       <r>  -15.3391    1.0000 </r>
       <r>  -15.3321    1.0000 </r>
       <r>  -15.3296    1.0000 </r>
       <r>  -15.3114    1.0000 </r>
       <r>  -15.3079    1.0000 </r>
       <r>   -7.5923    1.0000 </r>
       <r>   -7.2275    1.0000 </r>
       <r>   -7.0936    1.0000 </r>
       <r>   -6.6916    1.0000 </r>
       <r>   -2.5942    1.0000 </r>
       <r>   -1.9591    1.0000 </r>
       <r>   -1.0525    1.0000 </r>
       <r>   -0.5669    1.0000 </r>
       <r>    1.3266    1.0000 </r>
       <r>    2.5379    1.0000 </r>
       <r>    3.2275    1.0000 </r>
       <r>    3.7062    1.0000 </r>
       <r>    3.8643    1.0000 </r>
       <r>    4.0872    1.0000 </r>
       <r>    4.1811    1.0000 </r>
       <r>    4.3620    1.0000 </r>
       <r>    4.7019    1.0000 </r>
       <r>    5.1626    1.0000 </r>
       <r>    5.6664    1.0000 </r>
       <r>    5.8771    1.0000 </r>
       <r>    6.6662    0.0000 </r>
       <r>    7.0754    0.0000 </r>
       <r>    7.2435    0.0000 </r>
       <r>    7.3174    0.0000 </r>
       <r>    7.9174    0.0000 </r>
       <r>    8.0148    0.0000 </r>
       <r>    8.6644    0.0000 </r>
       <r>    8.8964    0.0000 </r>
       <r>    9.3155    0.0000 </r>
       <r>    9.6063    0.0000 </r>
       <r>   11.4618    0.0000 </r>
       <r>   11.7504    0.0000 </r>
       <r>   12.4118    0.0000 </r>
       <r>   12.6918    0.0000 </r>
       <r>   13.1029    0.0000 </r>
       <r>   13.6023    0.0000 </r>
       <r>   13.6449    0.0000 </r>
       <r>   14.1592    0.0000 </r>
       <r>   14.2932    0.0000 </r>
       <r>   14.6452    0.0000 </r>
       <r>   14.7510    0.0000 </r>
       <r>   15.7193    0.0000 </r>
       <r>   16.5466    0.0000 </r>
       <r>   16.6338    0.0000 </r>
      </set>
      <set comment="kpoint 5">
       <r>  -15.4054    1.0000 </r>
       <r>  -15.4054    1.0000 </r>
       <r>  -15.3977    1.0000 </r>
       <r>  -15.3977    1.0000 </r>
       <r>  -15.3900    1.0000 </r>
       <r>  -15.3900    1.0000 </r>
       <r>  -15.3863    1.0000 </r>
       <r>  -15.3863    1.0000 </r>
       <r>  -15.3820    1.0000 </r>
       <r>  -15.3820    1.0000 </r>
       <r>  -15.3674    1.0000 </r>
       <r>  -15.3674    1.0000 </r>
       <r>  -15.3604    1.0000 </r>
       <r>  -15.3604    1.0000 </r>
       <r>  -15.3412    1.0000 </r>
       <r>  -15.3412    1.0000 </r>
       <r>  -15.3308    1.0000 </r>
       <r>  -15.3308    1.0000 </r>
       <r>  -15.3097    1.0000 </r>
       <r>  -15.3097    1.0000 </r>
       <r>   -7.2885    1.0000 </r>
       <r>   -7.2885    1.0000 </r>
       <r>   -6.9304    1.0000 </r>
       <r>   -6.9304    1.0000 </r>
       <r>   -2.4949    1.0000 </r>
       <r>   -2.4949    1.0000 </r>
       <r>   -0.9737    1.0000 </r>
       <r>   -0.9737    1.0000 </r>
       <r>    1.9486    1.0000 </r>
       <r>    1.9486    1.0000 </r>
       <r>    3.6925    1.0000 </r>
       <r>    3.6925    1.0000 </r>
       <r>    4.1173    1.0000 </r>
       <r>    4.1173    1.0000 </r>
       <r>    4.4422    1.0000 </r>
       <r>    4.4422    1.0000 </r>
       <r>    5.0259    1.0000 </r>
       <r>    5.0259    1.0000 </r>
       <r>    5.6393    1.0000 </r>
       <r>    5.6393    1.0000 </r>
       <r>    7.0683    0.0000 </r>
       <r>    7.0683    0.0000 </r>
       <r>    7.2464    0.0000 </r>
       <r>    7.2464    0.0000 </r>
       <r>    7.5495    0.0000 </r>
       <r>    7.5495    0.0000 </r>
       <r>    8.3552    0.0000 </r>
       <r>    8.3552    0.0000 </r>
       <r>    8.9639    0.0000 </r>
       <r>    8.9639    0.0000 </r>
       <r>   11.9067    0.0000 </r>
       <r>   11.9067    0.0000 </r>
       <r>   13.1146    0.0000 </r>
       <r>   13.1146    0.0000 </r>
       <r>   13.7865    0.0000 </r>
       <r>   13.7865    0.0000 </r>
       <r>   13.8998    0.0000 </r>
       <r>   13.8998    0.0000 </r>
       <r>   15.1000    0.0000 </r>
       <r>   15.1000    0.0000 </r>
       <r>   15.6204    0.0000 </r>
       <r>   15.6204    0.0000 </r>
       <r>   16.0048    0.0000 </r>
       <r>   16.0048    0.0000 </r>
      </set>
      <set comment="kpoint 6">
       <r>  -15.4148    1.0000 </r>
       <r>  -15.3968    1.0000 </r>
       <r>  -15.3966    1.0000 </r>
       <r>  -15.3922    1.0000 </r>
       <r>  -15.3915    1.0000 </r>
       <r>  -15.3911    1.0000 </r>
       <r>  -15.3907    1.0000 </r>
       <r>  -15.3850    1.0000 </r>
       <r>  -15.3818    1.0000 </r>
       <r>  -15.3791    1.0000 </r>
       <r>  -15.3788    1.0000 </r>
       <r>  -15.3730    1.0000 </r>
       <r>  -15.3631    1.0000 </r>
       <r>  -15.3606    1.0000 </r>
       <r>  -15.3435    1.0000 </r>
       <r>  -15.3359    1.0000 </r>
       <r>  -15.3337    1.0000 </r>
       <r>  -15.3284    1.0000 </r>
       <r>  -15.3149    1.0000 </r>
       <r>  -15.3067    1.0000 </r>
       <r>   -8.1047    1.0000 </r>
       <r>   -7.7007    1.0000 </r>
       <r>   -7.0686    1.0000 </r>
       <r>   -6.4978    1.0000 </r>
       <r>   -1.5661    1.0000 </r>
       <r>   -0.4571    1.0000 </r>
       <r>    0.0238    1.0000 </r>
       <r>    0.4201    1.0000 </r>
       <r>    0.8858    1.0000 </r>
       <r>    2.2251    1.0000 </r>
       <r>    2.5177    1.0000 </r>
       <r>    2.6310    1.0000 </r>
       <r>    2.8964    1.0000 </r>
       <r>    2.9771    1.0000 </r>
       <r>    3.6185    1.0000 </r>
       <r>    3.9496    1.0000 </r>
       <r>    4.2347    1.0000 </r>
       <r>    4.8315    1.0000 </r>
       <r>    5.1498    1.0000 </r>
       <r>    5.2278    1.0000 </r>
       <r>    6.4468    0.0000 </r>
       <r>    8.3174    0.0000 </r>
       <r>    8.8360    0.0000 </r>
       <r>    9.0685    0.0000 </r>
       <r>    9.1861    0.0000 </r>
       <r>    9.3091    0.0000 </r>
       <r>    9.7719    0.0000 </r>
       <r>   10.1682    0.0000 </r>
       <r>   10.2530    0.0000 </r>
       <r>   10.6559    0.0000 </r>
       <r>   11.0875    0.0000 </r>
       <r>   11.3905    0.0000 </r>
       <r>   11.7672    0.0000 </r>
       <r>   11.7786    0.0000 </r>
       <r>   12.2713    0.0000 </r>
       <r>   12.3614    0.0000 </r>
       <r>   12.6082    0.0000 </r>
       <r>   13.9258    0.0000 </r>
       <r>   14.1356    0.0000 </r>
       <r>   14.4953    0.0000 </r>
       <r>   15.1159    0.0000 </r>
       <r>   15.2063    0.0000 </r>
       <r>   15.2586    0.0000 </r>
       <r>   15.4133    0.0000 </r>
      </set>
      <set comment="kpoint 7">
       <r>  -15.4138    1.0000 </r>
       <r>  -15.3968    1.0000 </r>
       <r>  -15.3957    1.0000 </r>
       <r>  -15.3927    1.0000 </r>
       <r>  -15.3924    1.0000 </r>
       <r>  -15.3910    1.0000 </r>
       <r>  -15.3904    1.0000 </r>
       <r>  -15.3855    1.0000 </r>
       <r>  -15.3820    1.0000 </r>
       <r>  -15.3811    1.0000 </r>
       <r>  -15.3768    1.0000 </r>
       <r>  -15.3713    1.0000 </r>
       <r>  -15.3627    1.0000 </r>
       <r>  -15.3603    1.0000 </r>
       <r>  -15.3436    1.0000 </r>
       <r>  -15.3355    1.0000 </r>
       <r>  -15.3344    1.0000 </r>
       <r>  -15.3288    1.0000 </r>
       <r>  -15.3146    1.0000 </r>
       <r>  -15.3069    1.0000 </r>
       <r>   -8.0315    1.0000 </r>
       <r>   -7.6346    1.0000 </r>
       <r>   -7.0457    1.0000 </r>
       <r>   -6.5043    1.0000 </r>
       <r>   -1.7853    1.0000 </r>
       <r>   -0.5501    1.0000 </r>
       <r>   -0.2738    1.0000 </r>
       <r>    0.2873    1.0000 </r>
       <r>    0.8026    1.0000 </r>
       <r>    2.0006    1.0000 </r>
       <r>    2.1694    1.0000 </r>
       <r>    3.1852    1.0000 </r>
       <r>    3.2055    1.0000 </r>
       <r>    3.3366    1.0000 </r>
       <r>    3.4180    1.0000 </r>
       <r>    4.0487    1.0000 </r>
       <r>    4.5105    1.0000 </r>
       <r>    4.9962    1.0000 </r>
       <r>    5.2346    1.0000 </r>
       <r>    5.3067    1.0000 </r>
       <r>    6.4731    0.0000 </r>
       <r>    7.7997    0.0000 </r>
       <r>    8.4166    0.0000 </r>
       <r>    8.7202    0.0000 </r>
       <r>    9.0014    0.0000 </r>
       <r>    9.2910    0.0000 </r>
       <r>    9.6160    0.0000 </r>
       <r>    9.9815    0.0000 </r>
       <r>   10.2679    0.0000 </r>
       <r>   10.8772    0.0000 </r>
       <r>   10.9924    0.0000 </r>
       <r>   11.3367    0.0000 </r>
       <r>   11.5769    0.0000 </r>
       <r>   12.1020    0.0000 </r>
       <r>   12.3273    0.0000 </r>
       <r>   12.6979    0.0000 </r>
       <r>   12.9362    0.0000 </r>
       <r>   13.9659    0.0000 </r>
       <r>   14.1986    0.0000 </r>
       <r>   14.5092    0.0000 </r>
       <r>   14.8204    0.0000 </r>
       <r>   15.0136    0.0000 </r>
       <r>   15.2500    0.0000 </r>
       <r>   15.5544    0.0000 </r>
      </set>
      <set comment="kpoint 8">
       <r>  -15.4139    1.0000 </r>
       <r>  -15.3968    1.0000 </r>
       <r>  -15.3959    1.0000 </r>
       <r>  -15.3927    1.0000 </r>
       <r>  -15.3925    1.0000 </r>
       <r>  -15.3905    1.0000 </r>
       <r>  -15.3903    1.0000 </r>
       <r>  -15.3857    1.0000 </r>
       <r>  -15.3819    1.0000 </r>
       <r>  -15.3812    1.0000 </r>
       <r>  -15.3766    1.0000 </r>
       <r>  -15.3713    1.0000 </r>
       <r>  -15.3627    1.0000 </r>
       <r>  -15.3603    1.0000 </r>
       <r>  -15.3436    1.0000 </r>
       <r>  -15.3355    1.0000 </r>
       <r>  -15.3344    1.0000 </r>
       <r>  -15.3288    1.0000 </r>
       <r>  -15.3145    1.0000 </r>
       <r>  -15.3070    1.0000 </r>
       <r>   -8.0313    1.0000 </r>
       <r>   -7.6344    1.0000 </r>
       <r>   -7.0460    1.0000 </r>
       <r>   -6.5048    1.0000 </r>
       <r>   -1.7858    1.0000 </r>
       <r>   -0.5473    1.0000 </r>
       <r>   -0.2750    1.0000 </r>
       <r>    0.2795    1.0000 </r>
       <r>    0.8060    1.0000 </r>
       <r>    2.0096    1.0000 </r>
       <r>    2.1721    1.0000 </r>
       <r>    3.1727    1.0000 </r>
       <r>    3.2228    1.0000 </r>
       <r>    3.3485    1.0000 </r>
       <r>    3.4129    1.0000 </r>
       <r>    4.0399    1.0000 </r>
       <r>    4.4940    1.0000 </r>
       <r>    4.9928    1.0000 </r>
       <r>    5.2305    1.0000 </r>
       <r>    5.3106    1.0000 </r>
       <r>    6.4717    0.0000 </r>
       <r>    7.8174    0.0000 </r>
       <r>    8.4262    0.0000 </r>
       <r>    8.7511    0.0000 </r>
       <r>    8.9871    0.0000 </r>
       <r>    9.3022    0.0000 </r>
       <r>    9.5827    0.0000 </r>
       <r>    9.9570    0.0000 </r>
       <r>   10.2600    0.0000 </r>
       <r>   10.8819    0.0000 </r>
       <r>   10.9829    0.0000 </r>
       <r>   11.3299    0.0000 </r>
       <r>   11.5810    0.0000 </r>
       <r>   12.1110    0.0000 </r>
       <r>   12.3390    0.0000 </r>
       <r>   12.6952    0.0000 </r>
       <r>   12.9466    0.0000 </r>
       <r>   13.9584    0.0000 </r>
       <r>   14.1996    0.0000 </r>
       <r>   14.5176    0.0000 </r>
       <r>   14.8233    0.0000 </r>
       <r>   15.0284    0.0000 </r>
       <r>   15.2474    0.0000 </r>
       <r>   15.5568    0.0000 </r>
      </set>
      <set comment="kpoint 9">
       <r>  -15.4111    1.0000 </r>
       <r>  -15.3979    1.0000 </r>
       <r>  -15.3955    1.0000 </r>
       <r>  -15.3953    1.0000 </r>
       <r>  -15.3927    1.0000 </r>
       <r>  -15.3897    1.0000 </r>
       <r>  -15.3894    1.0000 </r>
       <r>  -15.3866    1.0000 </r>
       <r>  -15.3832    1.0000 </r>
       <r>  -15.3823    1.0000 </r>
       <r>  -15.3738    1.0000 </r>
       <r>  -15.3667    1.0000 </r>
       <r>  -15.3627    1.0000 </r>
       <r>  -15.3588    1.0000 </r>
       <r>  -15.3435    1.0000 </r>
       <r>  -15.3360    1.0000 </r>
       <r>  -15.3343    1.0000 </r>
       <r>  -15.3296    1.0000 </r>
       <r>  -15.3136    1.0000 </r>
       <r>  -15.3078    1.0000 </r>
       <r>   -7.8251    1.0000 </r>
       <r>   -7.4482    1.0000 </r>
       <r>   -7.0103    1.0000 </r>
       <r>   -6.5458    1.0000 </r>
       <r>   -2.2237    1.0000 </r>
       <r>   -1.0841    1.0000 </r>
       <r>   -0.8001    1.0000 </r>
       <r>   -0.0575    1.0000 </r>
       <r>    0.9528    1.0000 </r>
       <r>    1.9927    1.0000 </r>
       <r>    2.1619    1.0000 </r>
       <r>    3.1895    1.0000 </r>
       <r>    3.5594    1.0000 </r>
       <r>    3.6378    1.0000 </r>
       <r>    4.0256    1.0000 </r>
       <r>    4.0805    1.0000 </r>
       <r>    4.8395    1.0000 </r>
       <r>    5.1131    1.0000 </r>
       <r>    5.3397    1.0000 </r>
       <r>    5.5487    1.0000 </r>
       <r>    6.7821    0.0000 </r>
       <r>    7.2682    0.0000 </r>
       <r>    7.5175    0.0000 </r>
       <r>    7.6729    0.0000 </r>
       <r>    8.8766    0.0000 </r>
       <r>    8.9456    0.0000 </r>
       <r>    9.3008    0.0000 </r>
       <r>    9.8563    0.0000 </r>
       <r>   10.3772    0.0000 </r>
       <r>   10.5839    0.0000 </r>
       <r>   10.9471    0.0000 </r>
       <r>   11.4087    0.0000 </r>
       <r>   11.7757    0.0000 </r>
       <r>   11.9543    0.0000 </r>
       <r>   12.7621    0.0000 </r>
       <r>   13.0491    0.0000 </r>
       <r>   13.5355    0.0000 </r>
       <r>   13.9870    0.0000 </r>
       <r>   14.0194    0.0000 </r>
       <r>   14.4093    0.0000 </r>
       <r>   14.8048    0.0000 </r>
       <r>   15.5578    0.0000 </r>
       <r>   15.7382    0.0000 </r>
       <r>   16.2206    0.0000 </r>
      </set>
      <set comment="kpoint 10">
       <r>  -15.4113    1.0000 </r>
       <r>  -15.3976    1.0000 </r>
       <r>  -15.3957    1.0000 </r>
       <r>  -15.3950    1.0000 </r>
       <r>  -15.3937    1.0000 </r>
       <r>  -15.3888    1.0000 </r>
       <r>  -15.3887    1.0000 </r>
       <r>  -15.3870    1.0000 </r>
       <r>  -15.3833    1.0000 </r>
       <r>  -15.3825    1.0000 </r>
       <r>  -15.3737    1.0000 </r>
       <r>  -15.3667    1.0000 </r>
       <r>  -15.3627    1.0000 </r>
       <r>  -15.3589    1.0000 </r>
       <r>  -15.3435    1.0000 </r>
       <r>  -15.3360    1.0000 </r>
       <r>  -15.3343    1.0000 </r>
       <r>  -15.3296    1.0000 </r>
       <r>  -15.3135    1.0000 </r>
       <r>  -15.3079    1.0000 </r>
       <r>   -7.8247    1.0000 </r>
       <r>   -7.4478    1.0000 </r>
       <r>   -7.0110    1.0000 </r>
       <r>   -6.5467    1.0000 </r>
       <r>   -2.2234    1.0000 </r>
       <r>   -1.0866    1.0000 </r>
       <r>   -0.7963    1.0000 </r>
       <r>   -0.0639    1.0000 </r>
       <r>    0.9555    1.0000 </r>
       <r>    2.0008    1.0000 </r>
       <r>    2.1633    1.0000 </r>
       <r>    3.2006    1.0000 </r>
       <r>    3.5775    1.0000 </r>
       <r>    3.6297    1.0000 </r>
       <r>    4.0150    1.0000 </r>
       <r>    4.0720    1.0000 </r>
       <r>    4.8372    1.0000 </r>
       <r>    5.1003    1.0000 </r>
       <r>    5.3380    1.0000 </r>
       <r>    5.5360    1.0000 </r>
       <r>    6.7809    0.0000 </r>
       <r>    7.2899    0.0000 </r>
       <r>    7.5215    0.0000 </r>
       <r>    7.6922    0.0000 </r>
       <r>    8.8659    0.0000 </r>
       <r>    8.9652    0.0000 </r>
       <r>    9.2902    0.0000 </r>
       <r>    9.8338    0.0000 </r>
       <r>   10.3546    0.0000 </r>
       <r>   10.5805    0.0000 </r>
       <r>   10.9517    0.0000 </r>
       <r>   11.4006    0.0000 </r>
       <r>   11.7750    0.0000 </r>
       <r>   11.9707    0.0000 </r>
       <r>   12.7625    0.0000 </r>
       <r>   13.0590    0.0000 </r>
       <r>   13.5434    0.0000 </r>
       <r>   13.9811    0.0000 </r>
       <r>   14.0186    0.0000 </r>
       <r>   14.4050    0.0000 </r>
       <r>   14.8108    0.0000 </r>
       <r>   15.5615    0.0000 </r>
       <r>   15.7522    0.0000 </r>
       <r>   16.2301    0.0000 </r>
      </set>
      <set comment="kpoint 11">
       <r>  -15.4076    1.0000 </r>
       <r>  -15.4009    1.0000 </r>
       <r>  -15.3972    1.0000 </r>
       <r>  -15.3972    1.0000 </r>
       <r>  -15.3921    1.0000 </r>
       <r>  -15.3905    1.0000 </r>
       <r>  -15.3878    1.0000 </r>
       <r>  -15.3867    1.0000 </r>
       <r>  -15.3843    1.0000 </r>
       <r>  -15.3827    1.0000 </r>
       <r>  -15.3698    1.0000 </r>
       <r>  -15.3639    1.0000 </r>
       <r>  -15.3619    1.0000 </r>
       <r>  -15.3577    1.0000 </r>
       <r>  -15.3420    1.0000 </r>
       <r>  -15.3377    1.0000 </r>
       <r>  -15.3328    1.0000 </r>
       <r>  -15.3305    1.0000 </r>
       <r>  -15.3123    1.0000 </r>
       <r>  -15.3091    1.0000 </r>
       <r>   -7.5311    1.0000 </r>
       <r>   -7.1796    1.0000 </r>
       <r>   -7.0498    1.0000 </r>
       <r>   -6.6685    1.0000 </r>
       <r>   -2.5082    1.0000 </r>
       <r>   -1.8820    1.0000 </r>
       <r>   -0.9904    1.0000 </r>
       <r>   -0.5480    1.0000 </r>
       <r>    1.3925    1.0000 </r>
       <r>    2.2226    1.0000 </r>
       <r>    2.4289    1.0000 </r>
       <r>    3.2879    1.0000 </r>
       <r>    3.3881    1.0000 </r>
       <r>    3.6402    1.0000 </r>
       <r>    4.1254    1.0000 </r>
       <r>    4.4518    1.0000 </r>
       <r>    5.0159    1.0000 </r>
       <r>    5.1260    1.0000 </r>
       <r>    5.4308    1.0000 </r>
       <r>    5.5126    1.0000 </r>
       <r>    6.9128    0.0000 </r>
       <r>    7.0944    0.0000 </r>
       <r>    7.1757    0.0000 </r>
       <r>    7.4808    0.0000 </r>
       <r>    8.3493    0.0000 </r>
       <r>    8.4852    0.0000 </r>
       <r>    8.7738    0.0000 </r>
       <r>    9.4900    0.0000 </r>
       <r>    9.9446    0.0000 </r>
       <r>   10.2641    0.0000 </r>
       <r>   11.3594    0.0000 </r>
       <r>   11.6245    0.0000 </r>
       <r>   11.9685    0.0000 </r>
       <r>   12.7363    0.0000 </r>
       <r>   12.8840    0.0000 </r>
       <r>   13.2026    0.0000 </r>
       <r>   14.0578    0.0000 </r>
       <r>   14.3565    0.0000 </r>
       <r>   14.3846    0.0000 </r>
       <r>   14.8450    0.0000 </r>
       <r>   15.3211    0.0000 </r>
       <r>   15.6856    0.0000 </r>
       <r>   16.7879    0.0000 </r>
       <r>   16.8896    0.0000 </r>
      </set>
      <set comment="kpoint 12">
       <r>  -15.4079    1.0000 </r>
       <r>  -15.4004    1.0000 </r>
       <r>  -15.3976    1.0000 </r>
       <r>  -15.3970    1.0000 </r>
       <r>  -15.3927    1.0000 </r>
       <r>  -15.3900    1.0000 </r>
       <r>  -15.3875    1.0000 </r>
       <r>  -15.3866    1.0000 </r>
       <r>  -15.3841    1.0000 </r>
       <r>  -15.3832    1.0000 </r>
       <r>  -15.3698    1.0000 </r>
       <r>  -15.3638    1.0000 </r>
       <r>  -15.3619    1.0000 </r>
       <r>  -15.3578    1.0000 </r>
       <r>  -15.3420    1.0000 </r>
       <r>  -15.3377    1.0000 </r>
       <r>  -15.3328    1.0000 </r>
       <r>  -15.3306    1.0000 </r>
       <r>  -15.3122    1.0000 </r>
       <r>  -15.3092    1.0000 </r>
       <r>   -7.5304    1.0000 </r>
       <r>   -7.1789    1.0000 </r>
       <r>   -7.0507    1.0000 </r>
       <r>   -6.6695    1.0000 </r>
       <r>   -2.5070    1.0000 </r>
       <r>   -1.8843    1.0000 </r>
       <r>   -0.9862    1.0000 </r>
       <r>   -0.5532    1.0000 </r>
       <r>    1.3946    1.0000 </r>
       <r>    2.2245    1.0000 </r>
       <r>    2.4334    1.0000 </r>
       <r>    3.2962    1.0000 </r>
       <r>    3.3839    1.0000 </r>
       <r>    3.6445    1.0000 </r>
       <r>    4.1239    1.0000 </r>
       <r>    4.4462    1.0000 </r>
       <r>    5.0058    1.0000 </r>
       <r>    5.1312    1.0000 </r>
       <r>    5.4202    1.0000 </r>
       <r>    5.5049    1.0000 </r>
       <r>    6.9417    0.0000 </r>
       <r>    7.0841    0.0000 </r>
       <r>    7.1680    0.0000 </r>
       <r>    7.4896    0.0000 </r>
       <r>    8.3643    0.0000 </r>
       <r>    8.4785    0.0000 </r>
       <r>    8.7847    0.0000 </r>
       <r>    9.4789    0.0000 </r>
       <r>    9.9288    0.0000 </r>
       <r>   10.2497    0.0000 </r>
       <r>   11.3736    0.0000 </r>
       <r>   11.6220    0.0000 </r>
       <r>   11.9627    0.0000 </r>
       <r>   12.7411    0.0000 </r>
       <r>   12.8851    0.0000 </r>
       <r>   13.2060    0.0000 </r>
       <r>   14.0557    0.0000 </r>
       <r>   14.3513    0.0000 </r>
       <r>   14.3933    0.0000 </r>
       <r>   14.8424    0.0000 </r>
       <r>   15.3319    0.0000 </r>
       <r>   15.6869    0.0000 </r>
       <r>   16.7796    0.0000 </r>
       <r>   16.8853    0.0000 </r>
      </set>
      <set comment="kpoint 13">
       <r>  -15.4044    1.0000 </r>
       <r>  -15.4040    1.0000 </r>
       <r>  -15.3982    1.0000 </r>
       <r>  -15.3978    1.0000 </r>
       <r>  -15.3918    1.0000 </r>
       <r>  -15.3914    1.0000 </r>
       <r>  -15.3871    1.0000 </r>
       <r>  -15.3869    1.0000 </r>
       <r>  -15.3839    1.0000 </r>
       <r>  -15.3833    1.0000 </r>
       <r>  -15.3662    1.0000 </r>
       <r>  -15.3662    1.0000 </r>
       <r>  -15.3588    1.0000 </r>
       <r>  -15.3587    1.0000 </r>
       <r>  -15.3398    1.0000 </r>
       <r>  -15.3397    1.0000 </r>
       <r>  -15.3316    1.0000 </r>
       <r>  -15.3315    1.0000 </r>
       <r>  -15.3107    1.0000 </r>
       <r>  -15.3106    1.0000 </r>
       <r>   -7.2368    1.0000 </r>
       <r>   -7.2360    1.0000 </r>
       <r>   -6.8945    1.0000 </r>
       <r>   -6.8935    1.0000 </r>
       <r>   -2.4022    1.0000 </r>
       <r>   -2.4003    1.0000 </r>
       <r>   -0.9129    1.0000 </r>
       <r>   -0.9084    1.0000 </r>
       <r>    1.9429    1.0000 </r>
       <r>    1.9446    1.0000 </r>
       <r>    2.9874    1.0000 </r>
       <r>    2.9907    1.0000 </r>
       <r>    3.4131    1.0000 </r>
       <r>    3.4165    1.0000 </r>
       <r>    4.2873    1.0000 </r>
       <r>    4.2892    1.0000 </r>
       <r>    5.2277    1.0000 </r>
       <r>    5.2429    1.0000 </r>
       <r>    5.3995    1.0000 </r>
       <r>    5.4047    1.0000 </r>
       <r>    6.8649    0.0000 </r>
       <r>    6.8848    0.0000 </r>
       <r>    7.3034    0.0000 </r>
       <r>    7.3109    0.0000 </r>
       <r>    8.5158    0.0000 </r>
       <r>    8.5223    0.0000 </r>
       <r>    8.8552    0.0000 </r>
       <r>    8.8582    0.0000 </r>
       <r>    9.6807    0.0000 </r>
       <r>    9.6836    0.0000 </r>
       <r>   11.7474    0.0000 </r>
       <r>   11.7563    0.0000 </r>
       <r>   12.2198    0.0000 </r>
       <r>   12.2218    0.0000 </r>
       <r>   13.7469    0.0000 </r>
       <r>   13.7500    0.0000 </r>
       <r>   14.5083    0.0000 </r>
       <r>   14.5111    0.0000 </r>
       <r>   15.4194    0.0000 </r>
       <r>   15.4196    0.0000 </r>
       <r>   15.7120    0.0000 </r>
       <r>   15.7125    0.0000 </r>
       <r>   16.2016    0.0000 </r>
       <r>   16.2123    0.0000 </r>
      </set>
      <set comment="kpoint 14">
       <r>  -15.4051    1.0000 </r>
       <r>  -15.3970    1.0000 </r>
       <r>  -15.3947    1.0000 </r>
       <r>  -15.3935    1.0000 </r>
       <r>  -15.3931    1.0000 </r>
       <r>  -15.3921    1.0000 </r>
       <r>  -15.3883    1.0000 </r>
       <r>  -15.3875    1.0000 </r>
       <r>  -15.3840    1.0000 </r>
       <r>  -15.3840    1.0000 </r>
       <r>  -15.3753    1.0000 </r>
       <r>  -15.3682    1.0000 </r>
       <r>  -15.3616    1.0000 </r>
       <r>  -15.3590    1.0000 </r>
       <r>  -15.3393    1.0000 </r>
       <r>  -15.3381    1.0000 </r>
       <r>  -15.3330    1.0000 </r>
       <r>  -15.3307    1.0000 </r>
       <r>  -15.3157    1.0000 </r>
       <r>  -15.3105    1.0000 </r>
       <r>   -7.8970    1.0000 </r>
       <r>   -7.5300    1.0000 </r>
       <r>   -6.9732    1.0000 </r>
       <r>   -6.5167    1.0000 </r>
       <r>   -1.8541    1.0000 </r>
       <r>   -0.9719    1.0000 </r>
       <r>   -0.4400    1.0000 </r>
       <r>   -0.1954    1.0000 </r>
       <r>    0.8868    1.0000 </r>
       <r>    2.4059    1.0000 </r>
       <r>    2.7498    1.0000 </r>
       <r>    2.9213    1.0000 </r>
       <r>    2.9776    1.0000 </r>
       <r>    3.2014    1.0000 </r>
       <r>    3.9352    1.0000 </r>
       <r>    4.0795    1.0000 </r>
       <r>    4.3067    1.0000 </r>
       <r>    5.0395    1.0000 </r>
       <r>    5.1723    1.0000 </r>
       <r>    5.4424    1.0000 </r>
       <r>    6.7189    0.0000 </r>
       <r>    7.0654    0.0000 </r>
       <r>    8.3998    0.0000 </r>
       <r>    8.5148    0.0000 </r>
       <r>    8.6140    0.0000 </r>
       <r>    9.1704    0.0000 </r>
       <r>    9.2913    0.0000 </r>
       <r>    9.7575    0.0000 </r>
       <r>   10.4322    0.0000 </r>
       <r>   10.6038    0.0000 </r>
       <r>   10.7013    0.0000 </r>
       <r>   10.8710    0.0000 </r>
       <r>   11.4651    0.0000 </r>
       <r>   11.5054    0.0000 </r>
       <r>   12.1438    0.0000 </r>
       <r>   12.6653    0.0000 </r>
       <r>   13.1515    0.0000 </r>
       <r>   13.4867    0.0000 </r>
       <r>   14.7112    0.0000 </r>
       <r>   14.7798    0.0000 </r>
       <r>   15.3758    0.0000 </r>
       <r>   15.3923    0.0000 </r>
       <r>   15.5756    0.0000 </r>
       <r>   16.1325    0.0000 </r>
      </set>
      <set comment="kpoint 15">
       <r>  -15.4056    1.0000 </r>
       <r>  -15.3971    1.0000 </r>
       <r>  -15.3964    1.0000 </r>
       <r>  -15.3936    1.0000 </r>
       <r>  -15.3929    1.0000 </r>
       <r>  -15.3917    1.0000 </r>
       <r>  -15.3880    1.0000 </r>
       <r>  -15.3874    1.0000 </r>
       <r>  -15.3850    1.0000 </r>
       <r>  -15.3841    1.0000 </r>
       <r>  -15.3742    1.0000 </r>
       <r>  -15.3665    1.0000 </r>
       <r>  -15.3622    1.0000 </r>
       <r>  -15.3577    1.0000 </r>
       <r>  -15.3396    1.0000 </r>
       <r>  -15.3375    1.0000 </r>
       <r>  -15.3330    1.0000 </r>
       <r>  -15.3313    1.0000 </r>
       <r>  -15.3155    1.0000 </r>
       <r>  -15.3106    1.0000 </r>
       <r>   -7.8271    1.0000 </r>
       <r>   -7.4678    1.0000 </r>
       <r>   -6.9499    1.0000 </r>
       <r>   -6.5158    1.0000 </r>
       <r>   -1.9285    1.0000 </r>
       <r>   -0.9305    1.0000 </r>
       <r>   -0.5416    1.0000 </r>
       <r>   -0.2833    1.0000 </r>
       <r>    0.9509    1.0000 </r>
       <r>    1.7295    1.0000 </r>
       <r>    2.0553    1.0000 </r>
       <r>    2.9165    1.0000 </r>
       <r>    3.3598    1.0000 </r>
       <r>    3.6199    1.0000 </r>
       <r>    3.7067    1.0000 </r>
       <r>    4.0832    1.0000 </r>
       <r>    4.7778    1.0000 </r>
       <r>    5.0772    1.0000 </r>
       <r>    5.2272    1.0000 </r>
       <r>    5.4668    1.0000 </r>
       <r>    6.7574    0.0000 </r>
       <r>    7.1315    0.0000 </r>
       <r>    7.6611    0.0000 </r>
       <r>    7.8039    0.0000 </r>
       <r>    8.9421    0.0000 </r>
       <r>    9.0238    0.0000 </r>
       <r>    9.6532    0.0000 </r>
       <r>    9.9182    0.0000 </r>
       <r>   10.4804    0.0000 </r>
       <r>   10.5678    0.0000 </r>
       <r>   10.7442    0.0000 </r>
       <r>   11.4014    0.0000 </r>
       <r>   11.4306    0.0000 </r>
       <r>   12.4266    0.0000 </r>
       <r>   12.4502    0.0000 </r>
       <r>   12.9226    0.0000 </r>
       <r>   13.3364    0.0000 </r>
       <r>   13.8804    0.0000 </r>
       <r>   13.9771    0.0000 </r>
       <r>   14.3607    0.0000 </r>
       <r>   14.7672    0.0000 </r>
       <r>   15.5322    0.0000 </r>
       <r>   15.7009    0.0000 </r>
       <r>   15.9667    0.0000 </r>
      </set>
      <set comment="kpoint 16">
       <r>  -15.4060    1.0000 </r>
       <r>  -15.3969    1.0000 </r>
       <r>  -15.3961    1.0000 </r>
       <r>  -15.3937    1.0000 </r>
       <r>  -15.3933    1.0000 </r>
       <r>  -15.3914    1.0000 </r>
       <r>  -15.3880    1.0000 </r>
       <r>  -15.3873    1.0000 </r>
       <r>  -15.3847    1.0000 </r>
       <r>  -15.3843    1.0000 </r>
       <r>  -15.3741    1.0000 </r>
       <r>  -15.3665    1.0000 </r>
       <r>  -15.3622    1.0000 </r>
       <r>  -15.3577    1.0000 </r>
       <r>  -15.3396    1.0000 </r>
       <r>  -15.3374    1.0000 </r>
       <r>  -15.3331    1.0000 </r>
       <r>  -15.3313    1.0000 </r>
       <r>  -15.3155    1.0000 </r>
       <r>  -15.3107    1.0000 </r>
       <r>   -7.8267    1.0000 </r>
       <r>   -7.4673    1.0000 </r>
       <r>   -6.9506    1.0000 </r>
       <r>   -6.5167    1.0000 </r>
       <r>   -1.9292    1.0000 </r>
       <r>   -0.9252    1.0000 </r>
       <r>   -0.5434    1.0000 </r>
       <r>   -0.2911    1.0000 </r>
       <r>    0.9530    1.0000 </r>
       <r>    1.7357    1.0000 </r>
       <r>    2.0578    1.0000 </r>
       <r>    2.9344    1.0000 </r>
       <r>    3.3702    1.0000 </r>
       <r>    3.6114    1.0000 </r>
       <r>    3.6975    1.0000 </r>
       <r>    4.0758    1.0000 </r>
       <r>    4.7657    1.0000 </r>
       <r>    5.0728    1.0000 </r>
       <r>    5.2286    1.0000 </r>
       <r>    5.4580    1.0000 </r>
       <r>    6.7552    0.0000 </r>
       <r>    7.1417    0.0000 </r>
       <r>    7.6786    0.0000 </r>
       <r>    7.8145    0.0000 </r>
       <r>    8.9377    0.0000 </r>
       <r>    9.0453    0.0000 </r>
       <r>    9.6346    0.0000 </r>
       <r>    9.8927    0.0000 </r>
       <r>   10.4722    0.0000 </r>
       <r>   10.5623    0.0000 </r>
       <r>   10.7314    0.0000 </r>
       <r>   11.3984    0.0000 </r>
       <r>   11.4411    0.0000 </r>
       <r>   12.4265    0.0000 </r>
       <r>   12.4620    0.0000 </r>
       <r>   12.9264    0.0000 </r>
       <r>   13.3482    0.0000 </r>
       <r>   13.8692    0.0000 </r>
       <r>   13.9816    0.0000 </r>
       <r>   14.3638    0.0000 </r>
       <r>   14.7808    0.0000 </r>
       <r>   15.5252    0.0000 </r>
       <r>   15.7089    0.0000 </r>
       <r>   15.9659    0.0000 </r>
      </set>
      <set comment="kpoint 17">
       <r>  -15.4073    1.0000 </r>
       <r>  -15.4008    1.0000 </r>
       <r>  -15.3967    1.0000 </r>
       <r>  -15.3953    1.0000 </r>
       <r>  -15.3934    1.0000 </r>
       <r>  -15.3905    1.0000 </r>
       <r>  -15.3890    1.0000 </r>
       <r>  -15.3867    1.0000 </r>
       <r>  -15.3851    1.0000 </r>
       <r>  -15.3836    1.0000 </r>
       <r>  -15.3714    1.0000 </r>
       <r>  -15.3627    1.0000 </r>
       <r>  -15.3623    1.0000 </r>
       <r>  -15.3556    1.0000 </r>
       <r>  -15.3394    1.0000 </r>
       <r>  -15.3363    1.0000 </r>
       <r>  -15.3332    1.0000 </r>
       <r>  -15.3326    1.0000 </r>
       <r>  -15.3149    1.0000 </r>
       <r>  -15.3110    1.0000 </r>
       <r>   -7.6316    1.0000 </r>
       <r>   -7.2941    1.0000 </r>
       <r>   -6.9110    1.0000 </r>
       <r>   -6.5346    1.0000 </r>
       <r>   -2.1195    1.0000 </r>
       <r>   -1.0379    1.0000 </r>
       <r>   -0.8611    1.0000 </r>
       <r>   -0.3769    1.0000 </r>
       <r>    1.1858    1.0000 </r>
       <r>    1.2982    1.0000 </r>
       <r>    1.5647    1.0000 </r>
       <r>    2.6938    1.0000 </r>
       <r>    2.8040    1.0000 </r>
       <r>    3.7973    1.0000 </r>
       <r>    3.9199    1.0000 </r>
       <r>    4.2916    1.0000 </r>
       <r>    4.6950    1.0000 </r>
       <r>    4.9520    1.0000 </r>
       <r>    5.0573    1.0000 </r>
       <r>    5.3162    1.0000 </r>
       <r>    6.7285    0.0000 </r>
       <r>    7.1841    0.0000 </r>
       <r>    7.8334    0.0000 </r>
       <r>    8.2791    0.0000 </r>
       <r>    8.5078    0.0000 </r>
       <r>    8.9709    0.0000 </r>
       <r>    9.3104    0.0000 </r>
       <r>   10.3425    0.0000 </r>
       <r>   10.8293    0.0000 </r>
       <r>   10.9645    0.0000 </r>
       <r>   11.0305    0.0000 </r>
       <r>   11.4360    0.0000 </r>
       <r>   11.6900    0.0000 </r>
       <r>   12.7338    0.0000 </r>
       <r>   12.9885    0.0000 </r>
       <r>   13.2335    0.0000 </r>
       <r>   13.8070    0.0000 </r>
       <r>   13.9026    0.0000 </r>
       <r>   14.1723    0.0000 </r>
       <r>   14.7071    0.0000 </r>
       <r>   15.1801    0.0000 </r>
       <r>   15.3723    0.0000 </r>
       <r>   16.0615    0.0000 </r>
       <r>   16.1526    0.0000 </r>
      </set>
      <set comment="kpoint 18">
       <r>  -15.4079    1.0000 </r>
       <r>  -15.4004    1.0000 </r>
       <r>  -15.3965    1.0000 </r>
       <r>  -15.3955    1.0000 </r>
       <r>  -15.3928    1.0000 </r>
       <r>  -15.3917    1.0000 </r>
       <r>  -15.3889    1.0000 </r>
       <r>  -15.3857    1.0000 </r>
       <r>  -15.3849    1.0000 </r>
       <r>  -15.3843    1.0000 </r>
       <r>  -15.3714    1.0000 </r>
       <r>  -15.3627    1.0000 </r>
       <r>  -15.3623    1.0000 </r>
       <r>  -15.3557    1.0000 </r>
       <r>  -15.3394    1.0000 </r>
       <r>  -15.3362    1.0000 </r>
       <r>  -15.3334    1.0000 </r>
       <r>  -15.3325    1.0000 </r>
       <r>  -15.3147    1.0000 </r>
       <r>  -15.3111    1.0000 </r>
       <r>   -7.6308    1.0000 </r>
       <r>   -7.2932    1.0000 </r>
       <r>   -6.9124    1.0000 </r>
       <r>   -6.5362    1.0000 </r>
       <r>   -2.1189    1.0000 </r>
       <r>   -1.0430    1.0000 </r>
       <r>   -0.8521    1.0000 </r>
       <r>   -0.3868    1.0000 </r>
       <r>    1.1903    1.0000 </r>
       <r>    1.3035    1.0000 </r>
       <r>    1.5632    1.0000 </r>
       <r>    2.7025    1.0000 </r>
       <r>    2.8229    1.0000 </r>
       <r>    3.7828    1.0000 </r>
       <r>    3.9163    1.0000 </r>
       <r>    4.2919    1.0000 </r>
       <r>    4.6973    1.0000 </r>
       <r>    4.9347    1.0000 </r>
       <r>    5.0510    1.0000 </r>
       <r>    5.3068    1.0000 </r>
       <r>    6.7329    0.0000 </r>
       <r>    7.1989    0.0000 </r>
       <r>    7.8435    0.0000 </r>
       <r>    8.2815    0.0000 </r>
       <r>    8.5253    0.0000 </r>
       <r>    8.9601    0.0000 </r>
       <r>    9.3084    0.0000 </r>
       <r>   10.3270    0.0000 </r>
       <r>   10.8415    0.0000 </r>
       <r>   10.9501    0.0000 </r>
       <r>   11.0095    0.0000 </r>
       <r>   11.4321    0.0000 </r>
       <r>   11.6745    0.0000 </r>
       <r>   12.7387    0.0000 </r>
       <r>   12.9892    0.0000 </r>
       <r>   13.2440    0.0000 </r>
       <r>   13.8143    0.0000 </r>
       <r>   13.9015    0.0000 </r>
       <r>   14.1976    0.0000 </r>
       <r>   14.7182    0.0000 </r>
       <r>   15.1748    0.0000 </r>
       <r>   15.3685    0.0000 </r>
       <r>   16.0599    0.0000 </r>
       <r>   16.1589    0.0000 </r>
      </set>
      <set comment="kpoint 19">
       <r>  -15.4088    1.0000 </r>
       <r>  -15.4057    1.0000 </r>
       <r>  -15.3974    1.0000 </r>
       <r>  -15.3972    1.0000 </r>
       <r>  -15.3937    1.0000 </r>
       <r>  -15.3901    1.0000 </r>
       <r>  -15.3899    1.0000 </r>
       <r>  -15.3882    1.0000 </r>
       <r>  -15.3831    1.0000 </r>
       <r>  -15.3818    1.0000 </r>
       <r>  -15.3681    1.0000 </r>
       <r>  -15.3634    1.0000 </r>
       <r>  -15.3579    1.0000 </r>
       <r>  -15.3544    1.0000 </r>
       <r>  -15.3381    1.0000 </r>
       <r>  -15.3349    1.0000 </r>
       <r>  -15.3343    1.0000 </r>
       <r>  -15.3332    1.0000 </r>
       <r>  -15.3139    1.0000 </r>
       <r>  -15.3116    1.0000 </r>
       <r>   -7.3589    1.0000 </r>
       <r>   -7.0502    1.0000 </r>
       <r>   -6.9361    1.0000 </r>
       <r>   -6.6199    1.0000 </r>
       <r>   -2.2597    1.0000 </r>
       <r>   -1.6705    1.0000 </r>
       <r>   -0.8390    1.0000 </r>
       <r>   -0.5530    1.0000 </r>
       <r>    1.3649    1.0000 </r>
       <r>    1.5541    1.0000 </r>
       <r>    1.5930    1.0000 </r>
       <r>    2.5090    1.0000 </r>
       <r>    2.6242    1.0000 </r>
       <r>    3.3068    1.0000 </r>
       <r>    3.4397    1.0000 </r>
       <r>    4.0719    1.0000 </r>
       <r>    4.3374    1.0000 </r>
       <r>    4.8270    1.0000 </r>
       <r>    4.8365    1.0000 </r>
       <r>    5.3102    1.0000 </r>
       <r>    6.5221    0.0000 </r>
       <r>    7.7924    0.0000 </r>
       <r>    7.9328    0.0000 </r>
       <r>    8.8379    0.0000 </r>
       <r>    8.9956    0.0000 </r>
       <r>    9.3105    0.0000 </r>
       <r>    9.5365    0.0000 </r>
       <r>   10.5100    0.0000 </r>
       <r>   10.6387    0.0000 </r>
       <r>   11.0039    0.0000 </r>
       <r>   11.1074    0.0000 </r>
       <r>   11.5473    0.0000 </r>
       <r>   11.5925    0.0000 </r>
       <r>   11.8869    0.0000 </r>
       <r>   12.9444    0.0000 </r>
       <r>   13.7449    0.0000 </r>
       <r>   14.0155    0.0000 </r>
       <r>   14.5203    0.0000 </r>
       <r>   15.0308    0.0000 </r>
       <r>   15.6911    0.0000 </r>
       <r>   15.8579    0.0000 </r>
       <r>   16.2454    0.0000 </r>
       <r>   16.4102    0.0000 </r>
       <r>   16.8803    0.0000 </r>
      </set>
      <set comment="kpoint 20">
       <r>  -15.4094    1.0000 </r>
       <r>  -15.4052    1.0000 </r>
       <r>  -15.3976    1.0000 </r>
       <r>  -15.3970    1.0000 </r>
       <r>  -15.3933    1.0000 </r>
       <r>  -15.3911    1.0000 </r>
       <r>  -15.3902    1.0000 </r>
       <r>  -15.3873    1.0000 </r>
       <r>  -15.3828    1.0000 </r>
       <r>  -15.3821    1.0000 </r>
       <r>  -15.3681    1.0000 </r>
       <r>  -15.3634    1.0000 </r>
       <r>  -15.3578    1.0000 </r>
       <r>  -15.3545    1.0000 </r>
       <r>  -15.3380    1.0000 </r>
       <r>  -15.3349    1.0000 </r>
       <r>  -15.3344    1.0000 </r>
       <r>  -15.3332    1.0000 </r>
       <r>  -15.3137    1.0000 </r>
       <r>  -15.3119    1.0000 </r>
       <r>   -7.3576    1.0000 </r>
       <r>   -7.0487    1.0000 </r>
       <r>   -6.9379    1.0000 </r>
       <r>   -6.6219    1.0000 </r>
       <r>   -2.2570    1.0000 </r>
       <r>   -1.6756    1.0000 </r>
       <r>   -0.8282    1.0000 </r>
       <r>   -0.5641    1.0000 </r>
       <r>    1.3696    1.0000 </r>
       <r>    1.5596    1.0000 </r>
       <r>    1.5878    1.0000 </r>
       <r>    2.5145    1.0000 </r>
       <r>    2.6378    1.0000 </r>
       <r>    3.2939    1.0000 </r>
       <r>    3.4370    1.0000 </r>
       <r>    4.0750    1.0000 </r>
       <r>    4.3502    1.0000 </r>
       <r>    4.8113    1.0000 </r>
       <r>    4.8214    1.0000 </r>
       <r>    5.3095    1.0000 </r>
       <r>    6.5290    0.0000 </r>
       <r>    7.8027    0.0000 </r>
       <r>    7.9255    0.0000 </r>
       <r>    8.8429    0.0000 </r>
       <r>    9.0092    0.0000 </r>
       <r>    9.3142    0.0000 </r>
       <r>    9.5339    0.0000 </r>
       <r>   10.4966    0.0000 </r>
       <r>   10.6223    0.0000 </r>
       <r>   11.0245    0.0000 </r>
       <r>   11.0965    0.0000 </r>
       <r>   11.5296    0.0000 </r>
       <r>   11.5823    0.0000 </r>
       <r>   11.8981    0.0000 </r>
       <r>   12.9339    0.0000 </r>
       <r>   13.7456    0.0000 </r>
       <r>   14.0214    0.0000 </r>
       <r>   14.5339    0.0000 </r>
       <r>   15.0550    0.0000 </r>
       <r>   15.7005    0.0000 </r>
       <r>   15.8501    0.0000 </r>
       <r>   16.2563    0.0000 </r>
       <r>   16.4161    0.0000 </r>
       <r>   16.8591    0.0000 </r>
      </set>
      <set comment="kpoint 21">
       <r>  -15.4088    1.0000 </r>
       <r>  -15.4083    1.0000 </r>
       <r>  -15.3983    1.0000 </r>
       <r>  -15.3981    1.0000 </r>
       <r>  -15.3920    1.0000 </r>
       <r>  -15.3917    1.0000 </r>
       <r>  -15.3899    1.0000 </r>
       <r>  -15.3889    1.0000 </r>
       <r>  -15.3821    1.0000 </r>
       <r>  -15.3811    1.0000 </r>
       <r>  -15.3652    1.0000 </r>
       <r>  -15.3652    1.0000 </r>
       <r>  -15.3551    1.0000 </r>
       <r>  -15.3551    1.0000 </r>
       <r>  -15.3360    1.0000 </r>
       <r>  -15.3360    1.0000 </r>
       <r>  -15.3338    1.0000 </r>
       <r>  -15.3338    1.0000 </r>
       <r>  -15.3128    1.0000 </r>
       <r>  -15.3126    1.0000 </r>
       <r>   -7.0954    1.0000 </r>
       <r>   -7.0937    1.0000 </r>
       <r>   -6.8027    1.0000 </r>
       <r>   -6.8008    1.0000 </r>
       <r>   -2.1295    1.0000 </r>
       <r>   -2.1252    1.0000 </r>
       <r>   -0.7599    1.0000 </r>
       <r>   -0.7487    1.0000 </r>
       <r>    1.6990    1.0000 </r>
       <r>    1.7012    1.0000 </r>
       <r>    1.9799    1.0000 </r>
       <r>    1.9811    1.0000 </r>
       <r>    2.7580    1.0000 </r>
       <r>    2.7730    1.0000 </r>
       <r>    3.4963    1.0000 </r>
       <r>    3.5011    1.0000 </r>
       <r>    4.5037    1.0000 </r>
       <r>    4.5240    1.0000 </r>
       <r>    5.0016    1.0000 </r>
       <r>    5.0145    1.0000 </r>
       <r>    7.0639    0.0000 </r>
       <r>    7.0690    0.0000 </r>
       <r>    8.6208    0.0000 </r>
       <r>    8.6290    0.0000 </r>
       <r>    9.6261    0.0000 </r>
       <r>    9.6268    0.0000 </r>
       <r>   10.1867    0.0000 </r>
       <r>   10.1886    0.0000 </r>
       <r>   10.5559    0.0000 </r>
       <r>   10.5565    0.0000 </r>
       <r>   11.2298    0.0000 </r>
       <r>   11.2441    0.0000 </r>
       <r>   11.6178    0.0000 </r>
       <r>   11.6259    0.0000 </r>
       <r>   13.2151    0.0000 </r>
       <r>   13.2230    0.0000 </r>
       <r>   15.2686    0.0000 </r>
       <r>   15.2766    0.0000 </r>
       <r>   15.7327    0.0000 </r>
       <r>   15.7392    0.0000 </r>
       <r>   16.0876    0.0000 </r>
       <r>   16.0964    0.0000 </r>
       <r>   17.0429    0.0000 </r>
       <r>   17.0446    0.0000 </r>
      </set>
      <set comment="kpoint 22">
       <r>  -15.4020    1.0000 </r>
       <r>  -15.3984    1.0000 </r>
       <r>  -15.3976    1.0000 </r>
       <r>  -15.3949    1.0000 </r>
       <r>  -15.3913    1.0000 </r>
       <r>  -15.3899    1.0000 </r>
       <r>  -15.3883    1.0000 </r>
       <r>  -15.3881    1.0000 </r>
       <r>  -15.3858    1.0000 </r>
       <r>  -15.3784    1.0000 </r>
       <r>  -15.3727    1.0000 </r>
       <r>  -15.3645    1.0000 </r>
       <r>  -15.3618    1.0000 </r>
       <r>  -15.3546    1.0000 </r>
       <r>  -15.3417    1.0000 </r>
       <r>  -15.3401    1.0000 </r>
       <r>  -15.3335    1.0000 </r>
       <r>  -15.3266    1.0000 </r>
       <r>  -15.3167    1.0000 </r>
       <r>  -15.3151    1.0000 </r>
       <r>   -7.5800    1.0000 </r>
       <r>   -7.2871    1.0000 </r>
       <r>   -6.8843    1.0000 </r>
       <r>   -6.6195    1.0000 </r>
       <r>   -2.1427    1.0000 </r>
       <r>   -1.3763    1.0000 </r>
       <r>   -1.2896    1.0000 </r>
       <r>   -0.7056    1.0000 </r>
       <r>    1.2290    1.0000 </r>
       <r>    2.7128    1.0000 </r>
       <r>    2.9623    1.0000 </r>
       <r>    3.1495    1.0000 </r>
       <r>    3.2470    1.0000 </r>
       <r>    3.4962    1.0000 </r>
       <r>    4.1046    1.0000 </r>
       <r>    4.2222    1.0000 </r>
       <r>    4.5820    1.0000 </r>
       <r>    4.9747    1.0000 </r>
       <r>    5.1145    1.0000 </r>
       <r>    5.7521    1.0000 </r>
       <r>    6.3138    0.0000 </r>
       <r>    7.0808    0.0000 </r>
       <r>    7.5271    0.0000 </r>
       <r>    7.6203    0.0000 </r>
       <r>    7.8419    0.0000 </r>
       <r>    8.3534    0.0000 </r>
       <r>    8.4238    0.0000 </r>
       <r>    9.2770    0.0000 </r>
       <r>    9.6852    0.0000 </r>
       <r>    9.8882    0.0000 </r>
       <r>   10.7333    0.0000 </r>
       <r>   11.1013    0.0000 </r>
       <r>   12.1139    0.0000 </r>
       <r>   12.6864    0.0000 </r>
       <r>   12.8349    0.0000 </r>
       <r>   13.1279    0.0000 </r>
       <r>   13.9978    0.0000 </r>
       <r>   14.1092    0.0000 </r>
       <r>   14.1565    0.0000 </r>
       <r>   14.6577    0.0000 </r>
       <r>   15.3733    0.0000 </r>
       <r>   15.4878    0.0000 </r>
       <r>   15.8763    0.0000 </r>
       <r>   16.4899    0.0000 </r>
      </set>
      <set comment="kpoint 23">
       <r>  -15.4050    1.0000 </r>
       <r>  -15.4015    1.0000 </r>
       <r>  -15.3980    1.0000 </r>
       <r>  -15.3963    1.0000 </r>
       <r>  -15.3903    1.0000 </r>
       <r>  -15.3893    1.0000 </r>
       <r>  -15.3887    1.0000 </r>
       <r>  -15.3868    1.0000 </r>
       <r>  -15.3848    1.0000 </r>
       <r>  -15.3786    1.0000 </r>
       <r>  -15.3721    1.0000 </r>
       <r>  -15.3645    1.0000 </r>
       <r>  -15.3604    1.0000 </r>
       <r>  -15.3538    1.0000 </r>
       <r>  -15.3413    1.0000 </r>
       <r>  -15.3396    1.0000 </r>
       <r>  -15.3335    1.0000 </r>
       <r>  -15.3272    1.0000 </r>
       <r>  -15.3166    1.0000 </r>
       <r>  -15.3149    1.0000 </r>
       <r>   -7.5171    1.0000 </r>
       <r>   -7.2324    1.0000 </r>
       <r>   -6.8586    1.0000 </r>
       <r>   -6.6047    1.0000 </r>
       <r>   -2.0999    1.0000 </r>
       <r>   -1.2865    1.0000 </r>
       <r>   -1.2278    1.0000 </r>
       <r>   -0.7390    1.0000 </r>
       <r>    1.3158    1.0000 </r>
       <r>    1.8225    1.0000 </r>
       <r>    2.2153    1.0000 </r>
       <r>    2.9522    1.0000 </r>
       <r>    3.4335    1.0000 </r>
       <r>    3.4997    1.0000 </r>
       <r>    4.0458    1.0000 </r>
       <r>    4.0695    1.0000 </r>
       <r>    4.6612    1.0000 </r>
       <r>    5.0401    1.0000 </r>
       <r>    5.1283    1.0000 </r>
       <r>    5.2327    1.0000 </r>
       <r>    6.8945    0.0000 </r>
       <r>    6.9959    0.0000 </r>
       <r>    7.0689    0.0000 </r>
       <r>    7.4241    0.0000 </r>
       <r>    8.4709    0.0000 </r>
       <r>    8.8413    0.0000 </r>
       <r>    9.0870    0.0000 </r>
       <r>    9.4165    0.0000 </r>
       <r>   10.1359    0.0000 </r>
       <r>   10.5761    0.0000 </r>
       <r>   10.8562    0.0000 </r>
       <r>   10.9917    0.0000 </r>
       <r>   11.7094    0.0000 </r>
       <r>   12.9059    0.0000 </r>
       <r>   13.0002    0.0000 </r>
       <r>   13.1749    0.0000 </r>
       <r>   13.8193    0.0000 </r>
       <r>   14.1479    0.0000 </r>
       <r>   14.2749    0.0000 </r>
       <r>   14.7269    0.0000 </r>
       <r>   15.3050    0.0000 </r>
       <r>   16.0183    0.0000 </r>
       <r>   16.4401    0.0000 </r>
       <r>   16.5766    0.0000 </r>
      </set>
      <set comment="kpoint 24">
       <r>  -15.4054    1.0000 </r>
       <r>  -15.4010    1.0000 </r>
       <r>  -15.3983    1.0000 </r>
       <r>  -15.3959    1.0000 </r>
       <r>  -15.3918    1.0000 </r>
       <r>  -15.3888    1.0000 </r>
       <r>  -15.3881    1.0000 </r>
       <r>  -15.3857    1.0000 </r>
       <r>  -15.3852    1.0000 </r>
       <r>  -15.3787    1.0000 </r>
       <r>  -15.3721    1.0000 </r>
       <r>  -15.3646    1.0000 </r>
       <r>  -15.3604    1.0000 </r>
       <r>  -15.3538    1.0000 </r>
       <r>  -15.3411    1.0000 </r>
       <r>  -15.3397    1.0000 </r>
       <r>  -15.3336    1.0000 </r>
       <r>  -15.3270    1.0000 </r>
       <r>  -15.3164    1.0000 </r>
       <r>  -15.3151    1.0000 </r>
       <r>   -7.5164    1.0000 </r>
       <r>   -7.2317    1.0000 </r>
       <r>   -6.8597    1.0000 </r>
       <r>   -6.6058    1.0000 </r>
       <r>   -2.1001    1.0000 </r>
       <r>   -1.2802    1.0000 </r>
       <r>   -1.2302    1.0000 </r>
       <r>   -0.7456    1.0000 </r>
       <r>    1.3176    1.0000 </r>
       <r>    1.8262    1.0000 </r>
       <r>    2.2174    1.0000 </r>
       <r>    2.9695    1.0000 </r>
       <r>    3.4354    1.0000 </r>
       <r>    3.4935    1.0000 </r>
       <r>    4.0449    1.0000 </r>
       <r>    4.0605    1.0000 </r>
       <r>    4.6527    1.0000 </r>
       <r>    5.0323    1.0000 </r>
       <r>    5.1284    1.0000 </r>
       <r>    5.2299    1.0000 </r>
       <r>    6.8941    0.0000 </r>
       <r>    6.9928    0.0000 </r>
       <r>    7.0831    0.0000 </r>
       <r>    7.4324    0.0000 </r>
       <r>    8.4838    0.0000 </r>
       <r>    8.8433    0.0000 </r>
       <r>    9.0779    0.0000 </r>
       <r>    9.4020    0.0000 </r>
       <r>   10.1310    0.0000 </r>
       <r>   10.5925    0.0000 </r>
       <r>   10.8428    0.0000 </r>
       <r>   10.9815    0.0000 </r>
       <r>   11.6991    0.0000 </r>
       <r>   12.9139    0.0000 </r>
       <r>   13.0104    0.0000 </r>
       <r>   13.1808    0.0000 </r>
       <r>   13.8094    0.0000 </r>
       <r>   14.1483    0.0000 </r>
       <r>   14.2827    0.0000 </r>
       <r>   14.7287    0.0000 </r>
       <r>   15.3077    0.0000 </r>
       <r>   16.0321    0.0000 </r>
       <r>   16.4384    0.0000 </r>
       <r>   16.5713    0.0000 </r>
      </set>
      <set comment="kpoint 25">
       <r>  -15.4106    1.0000 </r>
       <r>  -15.4072    1.0000 </r>
       <r>  -15.4009    1.0000 </r>
       <r>  -15.3999    1.0000 </r>
       <r>  -15.3909    1.0000 </r>
       <r>  -15.3889    1.0000 </r>
       <r>  -15.3862    1.0000 </r>
       <r>  -15.3835    1.0000 </r>
       <r>  -15.3827    1.0000 </r>
       <r>  -15.3793    1.0000 </r>
       <r>  -15.3704    1.0000 </r>
       <r>  -15.3645    1.0000 </r>
       <r>  -15.3569    1.0000 </r>
       <r>  -15.3521    1.0000 </r>
       <r>  -15.3399    1.0000 </r>
       <r>  -15.3384    1.0000 </r>
       <r>  -15.3333    1.0000 </r>
       <r>  -15.3284    1.0000 </r>
       <r>  -15.3162    1.0000 </r>
       <r>  -15.3147    1.0000 </r>
       <r>   -7.3444    1.0000 </r>
       <r>   -7.0829    1.0000 </r>
       <r>   -6.8086    1.0000 </r>
       <r>   -6.5815    1.0000 </r>
       <r>   -2.0015    1.0000 </r>
       <r>   -1.1533    1.0000 </r>
       <r>   -1.0383    1.0000 </r>
       <r>   -0.8131    1.0000 </r>
       <r>    1.0332    1.0000 </r>
       <r>    1.4490    1.0000 </r>
       <r>    1.5429    1.0000 </r>
       <r>    2.2765    1.0000 </r>
       <r>    2.5714    1.0000 </r>
       <r>    3.4080    1.0000 </r>
       <r>    3.5047    1.0000 </r>
       <r>    3.9516    1.0000 </r>
       <r>    4.2806    1.0000 </r>
       <r>    4.3789    1.0000 </r>
       <r>    4.7393    1.0000 </r>
       <r>    5.2787    1.0000 </r>
       <r>    6.3997    0.0000 </r>
       <r>    7.8249    0.0000 </r>
       <r>    8.2110    0.0000 </r>
       <r>    8.5296    0.0000 </r>
       <r>    8.8307    0.0000 </r>
       <r>    9.3013    0.0000 </r>
       <r>    9.7942    0.0000 </r>
       <r>   10.2542    0.0000 </r>
       <r>   10.6137    0.0000 </r>
       <r>   10.7662    0.0000 </r>
       <r>   11.4019    0.0000 </r>
       <r>   11.5151    0.0000 </r>
       <r>   11.7596    0.0000 </r>
       <r>   11.7994    0.0000 </r>
       <r>   13.2870    0.0000 </r>
       <r>   14.0013    0.0000 </r>
       <r>   14.0822    0.0000 </r>
       <r>   14.1890    0.0000 </r>
       <r>   14.9043    0.0000 </r>
       <r>   15.2569    0.0000 </r>
       <r>   15.9069    0.0000 </r>
       <r>   15.9346    0.0000 </r>
       <r>   16.1559    0.0000 </r>
       <r>   16.7179    0.0000 </r>
      </set>
      <set comment="kpoint 26">
       <r>  -15.4111    1.0000 </r>
       <r>  -15.4067    1.0000 </r>
       <r>  -15.4011    1.0000 </r>
       <r>  -15.3997    1.0000 </r>
       <r>  -15.3920    1.0000 </r>
       <r>  -15.3882    1.0000 </r>
       <r>  -15.3859    1.0000 </r>
       <r>  -15.3833    1.0000 </r>
       <r>  -15.3825    1.0000 </r>
       <r>  -15.3795    1.0000 </r>
       <r>  -15.3703    1.0000 </r>
       <r>  -15.3646    1.0000 </r>
       <r>  -15.3568    1.0000 </r>
       <r>  -15.3522    1.0000 </r>
       <r>  -15.3397    1.0000 </r>
       <r>  -15.3386    1.0000 </r>
       <r>  -15.3335    1.0000 </r>
       <r>  -15.3282    1.0000 </r>
       <r>  -15.3159    1.0000 </r>
       <r>  -15.3150    1.0000 </r>
       <r>   -7.3430    1.0000 </r>
       <r>   -7.0815    1.0000 </r>
       <r>   -6.8106    1.0000 </r>
       <r>   -6.5836    1.0000 </r>
       <r>   -2.0002    1.0000 </r>
       <r>   -1.1586    1.0000 </r>
       <r>   -1.0247    1.0000 </r>
       <r>   -0.8258    1.0000 </r>
       <r>    1.0352    1.0000 </r>
       <r>    1.4452    1.0000 </r>
       <r>    1.5480    1.0000 </r>
       <r>    2.2980    1.0000 </r>
       <r>    2.5707    1.0000 </r>
       <r>    3.4135    1.0000 </r>
       <r>    3.4893    1.0000 </r>
       <r>    3.9496    1.0000 </r>
       <r>    4.2850    1.0000 </r>
       <r>    4.3700    1.0000 </r>
       <r>    4.7296    1.0000 </r>
       <r>    5.2764    1.0000 </r>
       <r>    6.4023    0.0000 </r>
       <r>    7.8360    0.0000 </r>
       <r>    8.2061    0.0000 </r>
       <r>    8.5359    0.0000 </r>
       <r>    8.8410    0.0000 </r>
       <r>    9.2917    0.0000 </r>
       <r>    9.8010    0.0000 </r>
       <r>   10.2497    0.0000 </r>
       <r>   10.6296    0.0000 </r>
       <r>   10.7505    0.0000 </r>
       <r>   11.3817    0.0000 </r>
       <r>   11.5046    0.0000 </r>
       <r>   11.7408    0.0000 </r>
       <r>   11.8118    0.0000 </r>
       <r>   13.2700    0.0000 </r>
       <r>   14.0188    0.0000 </r>
       <r>   14.0869    0.0000 </r>
       <r>   14.2038    0.0000 </r>
       <r>   14.9209    0.0000 </r>
       <r>   15.2677    0.0000 </r>
       <r>   15.9045    0.0000 </r>
       <r>   15.9426    0.0000 </r>
       <r>   16.1419    0.0000 </r>
       <r>   16.7137    0.0000 </r>
      </set>
      <set comment="kpoint 27">
       <r>  -15.4149    1.0000 </r>
       <r>  -15.4131    1.0000 </r>
       <r>  -15.4043    1.0000 </r>
       <r>  -15.4039    1.0000 </r>
       <r>  -15.3906    1.0000 </r>
       <r>  -15.3895    1.0000 </r>
       <r>  -15.3841    1.0000 </r>
       <r>  -15.3816    1.0000 </r>
       <r>  -15.3809    1.0000 </r>
       <r>  -15.3796    1.0000 </r>
       <r>  -15.3682    1.0000 </r>
       <r>  -15.3648    1.0000 </r>
       <r>  -15.3531    1.0000 </r>
       <r>  -15.3507    1.0000 </r>
       <r>  -15.3382    1.0000 </r>
       <r>  -15.3373    1.0000 </r>
       <r>  -15.3323    1.0000 </r>
       <r>  -15.3296    1.0000 </r>
       <r>  -15.3156    1.0000 </r>
       <r>  -15.3146    1.0000 </r>
       <r>   -7.1138    1.0000 </r>
       <r>   -6.8847    1.0000 </r>
       <r>   -6.8025    1.0000 </r>
       <r>   -6.5997    1.0000 </r>
       <r>   -1.8891    1.0000 </r>
       <r>   -1.3898    1.0000 </r>
       <r>   -0.7537    1.0000 </r>
       <r>   -0.7063    1.0000 </r>
       <r>    0.7344    1.0000 </r>
       <r>    1.1449    1.0000 </r>
       <r>    1.5467    1.0000 </r>
       <r>    1.8473    1.0000 </r>
       <r>    2.1781    1.0000 </r>
       <r>    2.6782    1.0000 </r>
       <r>    2.9397    1.0000 </r>
       <r>    3.4789    1.0000 </r>
       <r>    3.6009    1.0000 </r>
       <r>    4.1198    1.0000 </r>
       <r>    4.6560    1.0000 </r>
       <r>    4.7867    1.0000 </r>
       <r>    6.8369    0.0000 </r>
       <r>    8.4315    0.0000 </r>
       <r>    8.9490    0.0000 </r>
       <r>    9.1959    0.0000 </r>
       <r>    9.9071    0.0000 </r>
       <r>    9.9212    0.0000 </r>
       <r>   10.3630    0.0000 </r>
       <r>   10.6830    0.0000 </r>
       <r>   10.7282    0.0000 </r>
       <r>   10.9655    0.0000 </r>
       <r>   11.5095    0.0000 </r>
       <r>   11.6390    0.0000 </r>
       <r>   11.8354    0.0000 </r>
       <r>   12.1903    0.0000 </r>
       <r>   12.7409    0.0000 </r>
       <r>   13.4317    0.0000 </r>
       <r>   15.1592    0.0000 </r>
       <r>   15.3230    0.0000 </r>
       <r>   15.7401    0.0000 </r>
       <r>   15.8142    0.0000 </r>
       <r>   16.0839    0.0000 </r>
       <r>   16.5543    0.0000 </r>
       <r>   16.8579    0.0000 </r>
       <r>   17.1828    0.0000 </r>
      </set>
      <set comment="kpoint 28">
       <r>  -15.4154    1.0000 </r>
       <r>  -15.4126    1.0000 </r>
       <r>  -15.4044    1.0000 </r>
       <r>  -15.4038    1.0000 </r>
       <r>  -15.3915    1.0000 </r>
       <r>  -15.3886    1.0000 </r>
       <r>  -15.3838    1.0000 </r>
       <r>  -15.3819    1.0000 </r>
       <r>  -15.3803    1.0000 </r>
       <r>  -15.3800    1.0000 </r>
       <r>  -15.3682    1.0000 </r>
       <r>  -15.3648    1.0000 </r>
       <r>  -15.3530    1.0000 </r>
       <r>  -15.3508    1.0000 </r>
       <r>  -15.3380    1.0000 </r>
       <r>  -15.3374    1.0000 </r>
       <r>  -15.3325    1.0000 </r>
       <r>  -15.3294    1.0000 </r>
       <r>  -15.3153    1.0000 </r>
       <r>  -15.3150    1.0000 </r>
       <r>   -7.1117    1.0000 </r>
       <r>   -6.8825    1.0000 </r>
       <r>   -6.8052    1.0000 </r>
       <r>   -6.6023    1.0000 </r>
       <r>   -1.8842    1.0000 </r>
       <r>   -1.3986    1.0000 </r>
       <r>   -0.7328    1.0000 </r>
       <r>   -0.7230    1.0000 </r>
       <r>    0.7343    1.0000 </r>
       <r>    1.1319    1.0000 </r>
       <r>    1.5585    1.0000 </r>
       <r>    1.8571    1.0000 </r>
       <r>    2.1890    1.0000 </r>
       <r>    2.6807    1.0000 </r>
       <r>    2.9227    1.0000 </r>
       <r>    3.4801    1.0000 </r>
       <r>    3.6075    1.0000 </r>
       <r>    4.1006    1.0000 </r>
       <r>    4.6473    1.0000 </r>
       <r>    4.8015    1.0000 </r>
       <r>    6.8370    0.0000 </r>
       <r>    8.4269    0.0000 </r>
       <r>    8.9574    0.0000 </r>
       <r>    9.1853    0.0000 </r>
       <r>    9.9235    0.0000 </r>
       <r>    9.9301    0.0000 </r>
       <r>   10.3654    0.0000 </r>
       <r>   10.6911    0.0000 </r>
       <r>   10.7363    0.0000 </r>
       <r>   10.9485    0.0000 </r>
       <r>   11.5091    0.0000 </r>
       <r>   11.6248    0.0000 </r>
       <r>   11.8270    0.0000 </r>
       <r>   12.1721    0.0000 </r>
       <r>   12.7244    0.0000 </r>
       <r>   13.4378    0.0000 </r>
       <r>   15.1795    0.0000 </r>
       <r>   15.3351    0.0000 </r>
       <r>   15.7637    0.0000 </r>
       <r>   15.8436    0.0000 </r>
       <r>   16.0655    0.0000 </r>
       <r>   16.5636    0.0000 </r>
       <r>   16.8565    0.0000 </r>
       <r>   17.1921    0.0000 </r>
      </set>
      <set comment="kpoint 29">
       <r>  -15.4163    1.0000 </r>
       <r>  -15.4157    1.0000 </r>
       <r>  -15.4057    1.0000 </r>
       <r>  -15.4056    1.0000 </r>
       <r>  -15.3906    1.0000 </r>
       <r>  -15.3896    1.0000 </r>
       <r>  -15.3827    1.0000 </r>
       <r>  -15.3825    1.0000 </r>
       <r>  -15.3800    1.0000 </r>
       <r>  -15.3790    1.0000 </r>
       <r>  -15.3661    1.0000 </r>
       <r>  -15.3661    1.0000 </r>
       <r>  -15.3509    1.0000 </r>
       <r>  -15.3508    1.0000 </r>
       <r>  -15.3372    1.0000 </r>
       <r>  -15.3370    1.0000 </r>
       <r>  -15.3309    1.0000 </r>
       <r>  -15.3308    1.0000 </r>
       <r>  -15.3152    1.0000 </r>
       <r>  -15.3148    1.0000 </r>
       <r>   -6.9084    1.0000 </r>
       <r>   -6.9057    1.0000 </r>
       <r>   -6.7051    1.0000 </r>
       <r>   -6.7025    1.0000 </r>
       <r>   -1.7059    1.0000 </r>
       <r>   -1.6977    1.0000 </r>
       <r>   -0.6459    1.0000 </r>
       <r>   -0.6241    1.0000 </r>
       <r>    0.9934    1.0000 </r>
       <r>    0.9964    1.0000 </r>
       <r>    1.4163    1.0000 </r>
       <r>    1.4338    1.0000 </r>
       <r>    2.2722    1.0000 </r>
       <r>    2.2865    1.0000 </r>
       <r>    2.9900    1.0000 </r>
       <r>    2.9943    1.0000 </r>
       <r>    3.6455    1.0000 </r>
       <r>    3.6582    1.0000 </r>
       <r>    4.6263    1.0000 </r>
       <r>    4.6383    1.0000 </r>
       <r>    7.6007    0.0000 </r>
       <r>    7.6038    0.0000 </r>
       <r>    9.5136    0.0000 </r>
       <r>    9.5220    0.0000 </r>
       <r>   10.3905    0.0000 </r>
       <r>   10.3940    0.0000 </r>
       <r>   10.7551    0.0000 </r>
       <r>   10.7697    0.0000 </r>
       <r>   10.8750    0.0000 </r>
       <r>   10.8900    0.0000 </r>
       <r>   11.6864    0.0000 </r>
       <r>   11.6936    0.0000 </r>
       <r>   11.9763    0.0000 </r>
       <r>   11.9861    0.0000 </r>
       <r>   12.7709    0.0000 </r>
       <r>   12.7821    0.0000 </r>
       <r>   15.8675    0.0000 </r>
       <r>   15.8871    0.0000 </r>
       <r>   16.4504    0.0000 </r>
       <r>   16.4513    0.0000 </r>
       <r>   16.6427    0.0000 </r>
       <r>   16.6527    0.0000 </r>
       <r>   17.2998    0.0000 </r>
       <r>   17.3062    0.0000 </r>
      </set>
      <set comment="kpoint 30">
       <r>  -15.4042    1.0000 </r>
       <r>  -15.4029    1.0000 </r>
       <r>  -15.3987    1.0000 </r>
       <r>  -15.3970    1.0000 </r>
       <r>  -15.3894    1.0000 </r>
       <r>  -15.3892    1.0000 </r>
       <r>  -15.3876    1.0000 </r>
       <r>  -15.3860    1.0000 </r>
       <r>  -15.3798    1.0000 </r>
       <r>  -15.3729    1.0000 </r>
       <r>  -15.3713    1.0000 </r>
       <r>  -15.3704    1.0000 </r>
       <r>  -15.3549    1.0000 </r>
       <r>  -15.3503    1.0000 </r>
       <r>  -15.3478    1.0000 </r>
       <r>  -15.3460    1.0000 </r>
       <r>  -15.3268    1.0000 </r>
       <r>  -15.3222    1.0000 </r>
       <r>  -15.3204    1.0000 </r>
       <r>  -15.3185    1.0000 </r>
       <r>   -7.2062    1.0000 </r>
       <r>   -7.0434    1.0000 </r>
       <r>   -6.8924    1.0000 </r>
       <r>   -6.8573    1.0000 </r>
       <r>   -2.2107    1.0000 </r>
       <r>   -1.9205    1.0000 </r>
       <r>   -1.4606    1.0000 </r>
       <r>   -1.1994    1.0000 </r>
       <r>    1.7725    1.0000 </r>
       <r>    2.3746    1.0000 </r>
       <r>    3.3419    1.0000 </r>
       <r>    3.5581    1.0000 </r>
       <r>    3.6805    1.0000 </r>
       <r>    3.7587    1.0000 </r>
       <r>    3.8209    1.0000 </r>
       <r>    4.3461    1.0000 </r>
       <r>    4.9218    1.0000 </r>
       <r>    4.9415    1.0000 </r>
       <r>    5.0304    1.0000 </r>
       <r>    5.1730    1.0000 </r>
       <r>    6.8038    0.0000 </r>
       <r>    6.9013    0.0000 </r>
       <r>    7.0087    0.0000 </r>
       <r>    7.3674    0.0000 </r>
       <r>    7.4343    0.0000 </r>
       <r>    7.6426    0.0000 </r>
       <r>    8.1862    0.0000 </r>
       <r>    8.5768    0.0000 </r>
       <r>    8.9519    0.0000 </r>
       <r>    9.1305    0.0000 </r>
       <r>   10.9499    0.0000 </r>
       <r>   11.1193    0.0000 </r>
       <r>   12.7614    0.0000 </r>
       <r>   12.9542    0.0000 </r>
       <r>   13.3697    0.0000 </r>
       <r>   13.5828    0.0000 </r>
       <r>   14.4763    0.0000 </r>
       <r>   14.9075    0.0000 </r>
       <r>   15.1405    0.0000 </r>
       <r>   15.6610    0.0000 </r>
       <r>   15.7459    0.0000 </r>
       <r>   16.2562    0.0000 </r>
       <r>   16.5654    0.0000 </r>
       <r>   16.7165    0.0000 </r>
      </set>
      <set comment="kpoint 31">
       <r>  -15.4070    1.0000 </r>
       <r>  -15.4059    1.0000 </r>
       <r>  -15.4001    1.0000 </r>
       <r>  -15.3991    1.0000 </r>
       <r>  -15.3893    1.0000 </r>
       <r>  -15.3885    1.0000 </r>
       <r>  -15.3870    1.0000 </r>
       <r>  -15.3849    1.0000 </r>
       <r>  -15.3788    1.0000 </r>
       <r>  -15.3729    1.0000 </r>
       <r>  -15.3710    1.0000 </r>
       <r>  -15.3698    1.0000 </r>
       <r>  -15.3541    1.0000 </r>
       <r>  -15.3504    1.0000 </r>
       <r>  -15.3461    1.0000 </r>
       <r>  -15.3451    1.0000 </r>
       <r>  -15.3269    1.0000 </r>
       <r>  -15.3234    1.0000 </r>
       <r>  -15.3193    1.0000 </r>
       <r>  -15.3185    1.0000 </r>
       <r>   -7.1558    1.0000 </r>
       <r>   -6.9997    1.0000 </r>
       <r>   -6.8592    1.0000 </r>
       <r>   -6.8238    1.0000 </r>
       <r>   -2.1150    1.0000 </r>
       <r>   -1.8205    1.0000 </r>
       <r>   -1.3787    1.0000 </r>
       <r>   -1.1524    1.0000 </r>
       <r>    1.8107    1.0000 </r>
       <r>    2.1452    1.0000 </r>
       <r>    2.3865    1.0000 </r>
       <r>    2.9441    1.0000 </r>
       <r>    3.2070    1.0000 </r>
       <r>    3.2557    1.0000 </r>
       <r>    4.2308    1.0000 </r>
       <r>    4.3256    1.0000 </r>
       <r>    4.3407    1.0000 </r>
       <r>    4.5794    1.0000 </r>
       <r>    5.1694    1.0000 </r>
       <r>    5.2212    1.0000 </r>
       <r>    6.6248    0.0000 </r>
       <r>    6.6324    0.0000 </r>
       <r>    7.2902    0.0000 </r>
       <r>    7.5820    0.0000 </r>
       <r>    8.4057    0.0000 </r>
       <r>    8.5270    0.0000 </r>
       <r>    8.8380    0.0000 </r>
       <r>    9.2822    0.0000 </r>
       <r>    9.4084    0.0000 </r>
       <r>   10.0522    0.0000 </r>
       <r>   10.7622    0.0000 </r>
       <r>   10.9012    0.0000 </r>
       <r>   11.8504    0.0000 </r>
       <r>   12.1843    0.0000 </r>
       <r>   14.0440    0.0000 </r>
       <r>   14.4286    0.0000 </r>
       <r>   14.6835    0.0000 </r>
       <r>   14.9332    0.0000 </r>
       <r>   15.1776    0.0000 </r>
       <r>   15.3286    0.0000 </r>
       <r>   15.7932    0.0000 </r>
       <r>   16.2213    0.0000 </r>
       <r>   16.4811    0.0000 </r>
       <r>   16.5459    0.0000 </r>
      </set>
      <set comment="kpoint 32">
       <r>  -15.4074    1.0000 </r>
       <r>  -15.4056    1.0000 </r>
       <r>  -15.4002    1.0000 </r>
       <r>  -15.3989    1.0000 </r>
       <r>  -15.3901    1.0000 </r>
       <r>  -15.3884    1.0000 </r>
       <r>  -15.3857    1.0000 </r>
       <r>  -15.3856    1.0000 </r>
       <r>  -15.3785    1.0000 </r>
       <r>  -15.3730    1.0000 </r>
       <r>  -15.3710    1.0000 </r>
       <r>  -15.3699    1.0000 </r>
       <r>  -15.3541    1.0000 </r>
       <r>  -15.3505    1.0000 </r>
       <r>  -15.3462    1.0000 </r>
       <r>  -15.3450    1.0000 </r>
       <r>  -15.3271    1.0000 </r>
       <r>  -15.3229    1.0000 </r>
       <r>  -15.3199    1.0000 </r>
       <r>  -15.3183    1.0000 </r>
       <r>   -7.1547    1.0000 </r>
       <r>   -6.9989    1.0000 </r>
       <r>   -6.8610    1.0000 </r>
       <r>   -6.8243    1.0000 </r>
       <r>   -2.1142    1.0000 </r>
       <r>   -1.8222    1.0000 </r>
       <r>   -1.3721    1.0000 </r>
       <r>   -1.1588    1.0000 </r>
       <r>    1.8130    1.0000 </r>
       <r>    2.1421    1.0000 </r>
       <r>    2.3927    1.0000 </r>
       <r>    2.9438    1.0000 </r>
       <r>    3.2158    1.0000 </r>
       <r>    3.2496    1.0000 </r>
       <r>    4.2396    1.0000 </r>
       <r>    4.3151    1.0000 </r>
       <r>    4.3338    1.0000 </r>
       <r>    4.5782    1.0000 </r>
       <r>    5.1680    1.0000 </r>
       <r>    5.2222    1.0000 </r>
       <r>    6.6267    0.0000 </r>
       <r>    6.6274    0.0000 </r>
       <r>    7.3025    0.0000 </r>
       <r>    7.5825    0.0000 </r>
       <r>    8.4019    0.0000 </r>
       <r>    8.5215    0.0000 </r>
       <r>    8.8413    0.0000 </r>
       <r>    9.2907    0.0000 </r>
       <r>    9.4029    0.0000 </r>
       <r>   10.0438    0.0000 </r>
       <r>   10.7891    0.0000 </r>
       <r>   10.8790    0.0000 </r>
       <r>   11.8299    0.0000 </r>
       <r>   12.2017    0.0000 </r>
       <r>   14.0437    0.0000 </r>
       <r>   14.4251    0.0000 </r>
       <r>   14.6874    0.0000 </r>
       <r>   14.9277    0.0000 </r>
       <r>   15.1830    0.0000 </r>
       <r>   15.3394    0.0000 </r>
       <r>   15.8010    0.0000 </r>
       <r>   16.2146    0.0000 </r>
       <r>   16.4839    0.0000 </r>
       <r>   16.5339    0.0000 </r>
      </set>
      <set comment="kpoint 33">
       <r>  -15.4132    1.0000 </r>
       <r>  -15.4123    1.0000 </r>
       <r>  -15.4043    1.0000 </r>
       <r>  -15.4038    1.0000 </r>
       <r>  -15.3889    1.0000 </r>
       <r>  -15.3885    1.0000 </r>
       <r>  -15.3843    1.0000 </r>
       <r>  -15.3831    1.0000 </r>
       <r>  -15.3767    1.0000 </r>
       <r>  -15.3731    1.0000 </r>
       <r>  -15.3702    1.0000 </r>
       <r>  -15.3688    1.0000 </r>
       <r>  -15.3518    1.0000 </r>
       <r>  -15.3496    1.0000 </r>
       <r>  -15.3430    1.0000 </r>
       <r>  -15.3429    1.0000 </r>
       <r>  -15.3271    1.0000 </r>
       <r>  -15.3248    1.0000 </r>
       <r>  -15.3183    1.0000 </r>
       <r>  -15.3182    1.0000 </r>
       <r>   -7.0223    1.0000 </r>
       <r>   -6.8862    1.0000 </r>
       <r>   -6.7831    1.0000 </r>
       <r>   -6.7438    1.0000 </r>
       <r>   -1.8458    1.0000 </r>
       <r>   -1.5420    1.0000 </r>
       <r>   -1.1509    1.0000 </r>
       <r>   -1.0514    1.0000 </r>
       <r>    1.2386    1.0000 </r>
       <r>    1.7301    1.0000 </r>
       <r>    1.7451    1.0000 </r>
       <r>    1.9854    1.0000 </r>
       <r>    2.4555    1.0000 </r>
       <r>    2.9357    1.0000 </r>
       <r>    3.3365    1.0000 </r>
       <r>    3.5601    1.0000 </r>
       <r>    3.6029    1.0000 </r>
       <r>    4.0776    1.0000 </r>
       <r>    4.8276    1.0000 </r>
       <r>    4.9943    1.0000 </r>
       <r>    6.7483    0.0000 </r>
       <r>    7.4627    0.0000 </r>
       <r>    8.5762    0.0000 </r>
       <r>    8.9168    0.0000 </r>
       <r>    9.4911    0.0000 </r>
       <r>    9.6026    0.0000 </r>
       <r>   10.0221    0.0000 </r>
       <r>   10.2383    0.0000 </r>
       <r>   10.3205    0.0000 </r>
       <r>   10.6196    0.0000 </r>
       <r>   10.7784    0.0000 </r>
       <r>   11.4146    0.0000 </r>
       <r>   11.4819    0.0000 </r>
       <r>   11.5561    0.0000 </r>
       <r>   13.3744    0.0000 </r>
       <r>   13.6423    0.0000 </r>
       <r>   15.2100    0.0000 </r>
       <r>   15.4289    0.0000 </r>
       <r>   15.6419    0.0000 </r>
       <r>   16.2977    0.0000 </r>
       <r>   16.3972    0.0000 </r>
       <r>   16.6813    0.0000 </r>
       <r>   16.9434    0.0000 </r>
       <r>   17.1705    0.0000 </r>
      </set>
      <set comment="kpoint 34">
       <r>  -15.4137    1.0000 </r>
       <r>  -15.4118    1.0000 </r>
       <r>  -15.4043    1.0000 </r>
       <r>  -15.4037    1.0000 </r>
       <r>  -15.3899    1.0000 </r>
       <r>  -15.3876    1.0000 </r>
       <r>  -15.3843    1.0000 </r>
       <r>  -15.3830    1.0000 </r>
       <r>  -15.3764    1.0000 </r>
       <r>  -15.3733    1.0000 </r>
       <r>  -15.3702    1.0000 </r>
       <r>  -15.3689    1.0000 </r>
       <r>  -15.3517    1.0000 </r>
       <r>  -15.3497    1.0000 </r>
       <r>  -15.3431    1.0000 </r>
       <r>  -15.3427    1.0000 </r>
       <r>  -15.3274    1.0000 </r>
       <r>  -15.3242    1.0000 </r>
       <r>  -15.3190    1.0000 </r>
       <r>  -15.3178    1.0000 </r>
       <r>   -7.0202    1.0000 </r>
       <r>   -6.8844    1.0000 </r>
       <r>   -6.7864    1.0000 </r>
       <r>   -6.7450    1.0000 </r>
       <r>   -1.8434    1.0000 </r>
       <r>   -1.5458    1.0000 </r>
       <r>   -1.1356    1.0000 </r>
       <r>   -1.0663    1.0000 </r>
       <r>    1.2373    1.0000 </r>
       <r>    1.7370    1.0000 </r>
       <r>    1.7405    1.0000 </r>
       <r>    1.9913    1.0000 </r>
       <r>    2.4633    1.0000 </r>
       <r>    2.9217    1.0000 </r>
       <r>    3.3434    1.0000 </r>
       <r>    3.5602    1.0000 </r>
       <r>    3.6039    1.0000 </r>
       <r>    4.0699    1.0000 </r>
       <r>    4.8201    1.0000 </r>
       <r>    5.0010    1.0000 </r>
       <r>    6.7487    0.0000 </r>
       <r>    7.4606    0.0000 </r>
       <r>    8.5852    0.0000 </r>
       <r>    8.9159    0.0000 </r>
       <r>    9.4938    0.0000 </r>
       <r>    9.6038    0.0000 </r>
       <r>   10.0123    0.0000 </r>
       <r>   10.2228    0.0000 </r>
       <r>   10.3542    0.0000 </r>
       <r>   10.5922    0.0000 </r>
       <r>   10.7910    0.0000 </r>
       <r>   11.4297    0.0000 </r>
       <r>   11.4699    0.0000 </r>
       <r>   11.5432    0.0000 </r>
       <r>   13.3651    0.0000 </r>
       <r>   13.6458    0.0000 </r>
       <r>   15.2149    0.0000 </r>
       <r>   15.4415    0.0000 </r>
       <r>   15.6599    0.0000 </r>
       <r>   16.2808    0.0000 </r>
       <r>   16.3937    0.0000 </r>
       <r>   16.6799    0.0000 </r>
       <r>   16.9520    0.0000 </r>
       <r>   17.1758    0.0000 </r>
      </set>
      <set comment="kpoint 35">
       <r>  -15.4188    1.0000 </r>
       <r>  -15.4184    1.0000 </r>
       <r>  -15.4087    1.0000 </r>
       <r>  -15.4085    1.0000 </r>
       <r>  -15.3889    1.0000 </r>
       <r>  -15.3883    1.0000 </r>
       <r>  -15.3823    1.0000 </r>
       <r>  -15.3813    1.0000 </r>
       <r>  -15.3751    1.0000 </r>
       <r>  -15.3734    1.0000 </r>
       <r>  -15.3694    1.0000 </r>
       <r>  -15.3683    1.0000 </r>
       <r>  -15.3491    1.0000 </r>
       <r>  -15.3480    1.0000 </r>
       <r>  -15.3405    1.0000 </r>
       <r>  -15.3404    1.0000 </r>
       <r>  -15.3267    1.0000 </r>
       <r>  -15.3257    1.0000 </r>
       <r>  -15.3179    1.0000 </r>
       <r>  -15.3176    1.0000 </r>
       <r>   -6.8605    1.0000 </r>
       <r>   -6.7540    1.0000 </r>
       <r>   -6.7223    1.0000 </r>
       <r>   -6.6713    1.0000 </r>
       <r>   -1.4837    1.0000 </r>
       <r>   -1.2093    1.0000 </r>
       <r>   -0.9404    1.0000 </r>
       <r>   -0.8734    1.0000 </r>
       <r>    0.6221    1.0000 </r>
       <r>    1.0019    1.0000 </r>
       <r>    1.2701    1.0000 </r>
       <r>    1.5470    1.0000 </r>
       <r>    2.0382    1.0000 </r>
       <r>    2.2165    1.0000 </r>
       <r>    2.7076    1.0000 </r>
       <r>    3.1559    1.0000 </r>
       <r>    3.3069    1.0000 </r>
       <r>    3.4399    1.0000 </r>
       <r>    4.5017    1.0000 </r>
       <r>    4.5634    1.0000 </r>
       <r>    7.5145    0.0000 </r>
       <r>    8.2713    0.0000 </r>
       <r>    9.0677    0.0000 </r>
       <r>    9.3818    0.0000 </r>
       <r>   10.2579    0.0000 </r>
       <r>   10.2933    0.0000 </r>
       <r>   10.4419    0.0000 </r>
       <r>   10.8192    0.0000 </r>
       <r>   10.8382    0.0000 </r>
       <r>   11.3247    0.0000 </r>
       <r>   11.7985    0.0000 </r>
       <r>   11.9171    0.0000 </r>
       <r>   12.0561    0.0000 </r>
       <r>   12.4351    0.0000 </r>
       <r>   12.7979    0.0000 </r>
       <r>   13.0684    0.0000 </r>
       <r>   15.5935    0.0000 </r>
       <r>   15.7524    0.0000 </r>
       <r>   16.6743    0.0000 </r>
       <r>   16.7516    0.0000 </r>
       <r>   16.9906    0.0000 </r>
       <r>   17.1308    0.0000 </r>
       <r>   17.6010    0.0000 </r>
       <r>   17.6374    0.0000 </r>
      </set>
      <set comment="kpoint 36">
       <r>  -15.4193    1.0000 </r>
       <r>  -15.4179    1.0000 </r>
       <r>  -15.4087    1.0000 </r>
       <r>  -15.4084    1.0000 </r>
       <r>  -15.3896    1.0000 </r>
       <r>  -15.3875    1.0000 </r>
       <r>  -15.3827    1.0000 </r>
       <r>  -15.3810    1.0000 </r>
       <r>  -15.3748    1.0000 </r>
       <r>  -15.3737    1.0000 </r>
       <r>  -15.3693    1.0000 </r>
       <r>  -15.3683    1.0000 </r>
       <r>  -15.3489    1.0000 </r>
       <r>  -15.3482    1.0000 </r>
       <r>  -15.3405    1.0000 </r>
       <r>  -15.3404    1.0000 </r>
       <r>  -15.3271    1.0000 </r>
       <r>  -15.3252    1.0000 </r>
       <r>  -15.3183    1.0000 </r>
       <r>  -15.3174    1.0000 </r>
       <r>   -6.8573    1.0000 </r>
       <r>   -6.7516    1.0000 </r>
       <r>   -6.7263    1.0000 </r>
       <r>   -6.6733    1.0000 </r>
       <r>   -1.4769    1.0000 </r>
       <r>   -1.2156    1.0000 </r>
       <r>   -0.9666    1.0000 </r>
       <r>   -0.8466    1.0000 </r>
       <r>    0.6159    1.0000 </r>
       <r>    1.0144    1.0000 </r>
       <r>    1.2527    1.0000 </r>
       <r>    1.5587    1.0000 </r>
       <r>    2.0477    1.0000 </r>
       <r>    2.2078    1.0000 </r>
       <r>    2.7214    1.0000 </r>
       <r>    3.1509    1.0000 </r>
       <r>    3.2956    1.0000 </r>
       <r>    3.4355    1.0000 </r>
       <r>    4.5162    1.0000 </r>
       <r>    4.5540    1.0000 </r>
       <r>    7.5136    0.0000 </r>
       <r>    8.2734    0.0000 </r>
       <r>    9.0511    0.0000 </r>
       <r>    9.3930    0.0000 </r>
       <r>   10.2621    0.0000 </r>
       <r>   10.3258    0.0000 </r>
       <r>   10.4270    0.0000 </r>
       <r>   10.8214    0.0000 </r>
       <r>   10.8234    0.0000 </r>
       <r>   11.3319    0.0000 </r>
       <r>   11.7835    0.0000 </r>
       <r>   11.9272    0.0000 </r>
       <r>   12.0528    0.0000 </r>
       <r>   12.4219    0.0000 </r>
       <r>   12.7824    0.0000 </r>
       <r>   13.0793    0.0000 </r>
       <r>   15.5922    0.0000 </r>
       <r>   15.7704    0.0000 </r>
       <r>   16.6874    0.0000 </r>
       <r>   16.7680    0.0000 </r>
       <r>   16.9838    0.0000 </r>
       <r>   17.1475    0.0000 </r>
       <r>   17.5848    0.0000 </r>
       <r>   17.6350    0.0000 </r>
      </set>
      <set comment="kpoint 37">
       <r>  -15.4212    1.0000 </r>
       <r>  -15.4207    1.0000 </r>
       <r>  -15.4104    1.0000 </r>
       <r>  -15.4104    1.0000 </r>
       <r>  -15.3893    1.0000 </r>
       <r>  -15.3880    1.0000 </r>
       <r>  -15.3818    1.0000 </r>
       <r>  -15.3804    1.0000 </r>
       <r>  -15.3742    1.0000 </r>
       <r>  -15.3740    1.0000 </r>
       <r>  -15.3686    1.0000 </r>
       <r>  -15.3686    1.0000 </r>
       <r>  -15.3476    1.0000 </r>
       <r>  -15.3474    1.0000 </r>
       <r>  -15.3395    1.0000 </r>
       <r>  -15.3394    1.0000 </r>
       <r>  -15.3263    1.0000 </r>
       <r>  -15.3259    1.0000 </r>
       <r>  -15.3179    1.0000 </r>
       <r>  -15.3173    1.0000 </r>
       <r>   -6.7451    1.0000 </r>
       <r>   -6.7413    1.0000 </r>
       <r>   -6.6696    1.0000 </r>
       <r>   -6.6670    1.0000 </r>
       <r>   -1.2143    1.0000 </r>
       <r>   -1.2019    1.0000 </r>
       <r>   -0.7768    1.0000 </r>
       <r>   -0.7461    1.0000 </r>
       <r>    0.5409    1.0000 </r>
       <r>    0.5535    1.0000 </r>
       <r>    1.1518    1.0000 </r>
       <r>    1.1728    1.0000 </r>
       <r>    1.9058    1.0000 </r>
       <r>    1.9168    1.0000 </r>
       <r>    2.6454    1.0000 </r>
       <r>    2.6510    1.0000 </r>
       <r>    3.3488    1.0000 </r>
       <r>    3.3552    1.0000 </r>
       <r>    4.3745    1.0000 </r>
       <r>    4.3886    1.0000 </r>
       <r>    8.2183    0.0000 </r>
       <r>    8.2193    0.0000 </r>
       <r>    9.0800    0.0000 </r>
       <r>    9.0952    0.0000 </r>
       <r>   10.3580    0.0000 </r>
       <r>   10.3690    0.0000 </r>
       <r>   10.7909    0.0000 </r>
       <r>   10.8168    0.0000 </r>
       <r>   11.7033    0.0000 </r>
       <r>   11.7127    0.0000 </r>
       <r>   12.3410    0.0000 </r>
       <r>   12.3480    0.0000 </r>
       <r>   12.6657    0.0000 </r>
       <r>   12.6774    0.0000 </r>
       <r>   12.8413    0.0000 </r>
       <r>   12.8543    0.0000 </r>
       <r>   15.9902    0.0000 </r>
       <r>   16.0063    0.0000 </r>
       <r>   16.6929    0.0000 </r>
       <r>   16.7047    0.0000 </r>
       <r>   16.9471    0.0000 </r>
       <r>   16.9523    0.0000 </r>
       <r>   17.7913    0.0000 </r>
       <r>   17.8026    0.0000 </r>
      </set>
      <set comment="kpoint 38">
       <r>  -15.4149    1.0000 </r>
       <r>  -15.4061    1.0000 </r>
       <r>  -15.3968    1.0000 </r>
       <r>  -15.3940    1.0000 </r>
       <r>  -15.3906    1.0000 </r>
       <r>  -15.3884    1.0000 </r>
       <r>  -15.3883    1.0000 </r>
       <r>  -15.3845    1.0000 </r>
       <r>  -15.3792    1.0000 </r>
       <r>  -15.3780    1.0000 </r>
       <r>  -15.3772    1.0000 </r>
       <r>  -15.3756    1.0000 </r>
       <r>  -15.3647    1.0000 </r>
       <r>  -15.3621    1.0000 </r>
       <r>  -15.3431    1.0000 </r>
       <r>  -15.3392    1.0000 </r>
       <r>  -15.3313    1.0000 </r>
       <r>  -15.3282    1.0000 </r>
       <r>  -15.3119    1.0000 </r>
       <r>  -15.3072    1.0000 </r>
       <r>   -8.1040    1.0000 </r>
       <r>   -7.9124    1.0000 </r>
       <r>   -6.9090    1.0000 </r>
       <r>   -6.6213    1.0000 </r>
       <r>   -1.3099    1.0000 </r>
       <r>   -0.8662    1.0000 </r>
       <r>    0.7161    1.0000 </r>
       <r>    0.8311    1.0000 </r>
       <r>    1.2159    1.0000 </r>
       <r>    2.0486    1.0000 </r>
       <r>    2.4197    1.0000 </r>
       <r>    2.5418    1.0000 </r>
       <r>    2.6751    1.0000 </r>
       <r>    3.0378    1.0000 </r>
       <r>    3.6845    1.0000 </r>
       <r>    3.7003    1.0000 </r>
       <r>    3.7182    1.0000 </r>
       <r>    4.0704    1.0000 </r>
       <r>    5.2336    1.0000 </r>
       <r>    5.3056    1.0000 </r>
       <r>    7.6379    0.0000 </r>
       <r>    8.4634    0.0000 </r>
       <r>    8.5519    0.0000 </r>
       <r>    9.0520    0.0000 </r>
       <r>    9.5016    0.0000 </r>
       <r>    9.6456    0.0000 </r>
       <r>    9.9053    0.0000 </r>
       <r>   10.1166    0.0000 </r>
       <r>   10.6491    0.0000 </r>
       <r>   10.8257    0.0000 </r>
       <r>   11.3365    0.0000 </r>
       <r>   11.3799    0.0000 </r>
       <r>   11.6230    0.0000 </r>
       <r>   11.8764    0.0000 </r>
       <r>   12.1986    0.0000 </r>
       <r>   12.4624    0.0000 </r>
       <r>   13.0147    0.0000 </r>
       <r>   13.4061    0.0000 </r>
       <r>   13.9249    0.0000 </r>
       <r>   14.3282    0.0000 </r>
       <r>   14.5226    0.0000 </r>
       <r>   14.5395    0.0000 </r>
       <r>   14.8570    0.0000 </r>
       <r>   14.8672    0.0000 </r>
      </set>
      <set comment="kpoint 39">
       <r>  -15.4139    1.0000 </r>
       <r>  -15.4057    1.0000 </r>
       <r>  -15.3956    1.0000 </r>
       <r>  -15.3931    1.0000 </r>
       <r>  -15.3914    1.0000 </r>
       <r>  -15.3894    1.0000 </r>
       <r>  -15.3888    1.0000 </r>
       <r>  -15.3848    1.0000 </r>
       <r>  -15.3795    1.0000 </r>
       <r>  -15.3778    1.0000 </r>
       <r>  -15.3769    1.0000 </r>
       <r>  -15.3738    1.0000 </r>
       <r>  -15.3639    1.0000 </r>
       <r>  -15.3621    1.0000 </r>
       <r>  -15.3432    1.0000 </r>
       <r>  -15.3393    1.0000 </r>
       <r>  -15.3316    1.0000 </r>
       <r>  -15.3286    1.0000 </r>
       <r>  -15.3117    1.0000 </r>
       <r>  -15.3074    1.0000 </r>
       <r>   -8.0313    1.0000 </r>
       <r>   -7.8434    1.0000 </r>
       <r>   -6.8938    1.0000 </r>
       <r>   -6.6221    1.0000 </r>
       <r>   -1.5786    1.0000 </r>
       <r>   -1.0925    1.0000 </r>
       <r>    0.2683    1.0000 </r>
       <r>    0.4970    1.0000 </r>
       <r>    1.2664    1.0000 </r>
       <r>    2.2060    1.0000 </r>
       <r>    2.5296    1.0000 </r>
       <r>    2.7803    1.0000 </r>
       <r>    2.8318    1.0000 </r>
       <r>    3.2230    1.0000 </r>
       <r>    3.7766    1.0000 </r>
       <r>    3.8793    1.0000 </r>
       <r>    4.1282    1.0000 </r>
       <r>    4.2445    1.0000 </r>
       <r>    5.1267    1.0000 </r>
       <r>    5.3068    1.0000 </r>
       <r>    7.5935    0.0000 </r>
       <r>    8.3029    0.0000 </r>
       <r>    8.7463    0.0000 </r>
       <r>    9.0033    0.0000 </r>
       <r>    9.0065    0.0000 </r>
       <r>    9.3284    0.0000 </r>
       <r>    9.4372    0.0000 </r>
       <r>    9.9358    0.0000 </r>
       <r>   10.4709    0.0000 </r>
       <r>   10.8572    0.0000 </r>
       <r>   10.9900    0.0000 </r>
       <r>   11.2818    0.0000 </r>
       <r>   11.3746    0.0000 </r>
       <r>   11.5316    0.0000 </r>
       <r>   12.1289    0.0000 </r>
       <r>   12.6608    0.0000 </r>
       <r>   12.9693    0.0000 </r>
       <r>   13.4764    0.0000 </r>
       <r>   13.9358    0.0000 </r>
       <r>   14.1457    0.0000 </r>
       <r>   15.0398    0.0000 </r>
       <r>   15.2511    0.0000 </r>
       <r>   15.4273    0.0000 </r>
       <r>   15.5287    0.0000 </r>
      </set>
      <set comment="kpoint 40">
       <r>  -15.4112    1.0000 </r>
       <r>  -15.4047    1.0000 </r>
       <r>  -15.3937    1.0000 </r>
       <r>  -15.3932    1.0000 </r>
       <r>  -15.3921    1.0000 </r>
       <r>  -15.3912    1.0000 </r>
       <r>  -15.3894    1.0000 </r>
       <r>  -15.3861    1.0000 </r>
       <r>  -15.3802    1.0000 </r>
       <r>  -15.3787    1.0000 </r>
       <r>  -15.3738    1.0000 </r>
       <r>  -15.3697    1.0000 </r>
       <r>  -15.3629    1.0000 </r>
       <r>  -15.3615    1.0000 </r>
       <r>  -15.3431    1.0000 </r>
       <r>  -15.3395    1.0000 </r>
       <r>  -15.3318    1.0000 </r>
       <r>  -15.3294    1.0000 </r>
       <r>  -15.3112    1.0000 </r>
       <r>  -15.3080    1.0000 </r>
       <r>   -7.8266    1.0000 </r>
       <r>   -7.6502    1.0000 </r>
       <r>   -6.8775    1.0000 </r>
       <r>   -6.6493    1.0000 </r>
       <r>   -2.0920    1.0000 </r>
       <r>   -1.6065    1.0000 </r>
       <r>   -0.4949    1.0000 </r>
       <r>   -0.1444    1.0000 </r>
       <r>    1.4555    1.0000 </r>
       <r>    2.4977    1.0000 </r>
       <r>    2.8436    1.0000 </r>
       <r>    3.0783    1.0000 </r>
       <r>    3.3248    1.0000 </r>
       <r>    3.6309    1.0000 </r>
       <r>    3.9538    1.0000 </r>
       <r>    4.2511    1.0000 </r>
       <r>    4.4990    1.0000 </r>
       <r>    4.7499    1.0000 </r>
       <r>    5.0975    1.0000 </r>
       <r>    5.3945    1.0000 </r>
       <r>    7.4684    0.0000 </r>
       <r>    7.7925    0.0000 </r>
       <r>    8.0799    0.0000 </r>
       <r>    8.3032    0.0000 </r>
       <r>    8.5168    0.0000 </r>
       <r>    8.6400    0.0000 </r>
       <r>    9.1201    0.0000 </r>
       <r>    9.8368    0.0000 </r>
       <r>    9.8694    0.0000 </r>
       <r>   10.3651    0.0000 </r>
       <r>   10.6811    0.0000 </r>
       <r>   10.8284    0.0000 </r>
       <r>   11.4165    0.0000 </r>
       <r>   11.6883    0.0000 </r>
       <r>   12.6003    0.0000 </r>
       <r>   13.1157    0.0000 </r>
       <r>   13.2946    0.0000 </r>
       <r>   13.8886    0.0000 </r>
       <r>   14.1988    0.0000 </r>
       <r>   14.2200    0.0000 </r>
       <r>   15.2502    0.0000 </r>
       <r>   15.6541    0.0000 </r>
       <r>   16.4097    0.0000 </r>
       <r>   16.5555    0.0000 </r>
      </set>
      <set comment="kpoint 41">
       <r>  -15.4079    1.0000 </r>
       <r>  -15.4042    1.0000 </r>
       <r>  -15.3958    1.0000 </r>
       <r>  -15.3950    1.0000 </r>
       <r>  -15.3915    1.0000 </r>
       <r>  -15.3903    1.0000 </r>
       <r>  -15.3897    1.0000 </r>
       <r>  -15.3880    1.0000 </r>
       <r>  -15.3804    1.0000 </r>
       <r>  -15.3794    1.0000 </r>
       <r>  -15.3698    1.0000 </r>
       <r>  -15.3664    1.0000 </r>
       <r>  -15.3624    1.0000 </r>
       <r>  -15.3605    1.0000 </r>
       <r>  -15.3421    1.0000 </r>
       <r>  -15.3399    1.0000 </r>
       <r>  -15.3316    1.0000 </r>
       <r>  -15.3304    1.0000 </r>
       <r>  -15.3106    1.0000 </r>
       <r>  -15.3088    1.0000 </r>
       <r>   -7.5377    1.0000 </r>
       <r>   -7.3877    1.0000 </r>
       <r>   -6.9248    1.0000 </r>
       <r>   -6.7562    1.0000 </r>
       <r>   -2.4433    1.0000 </r>
       <r>   -2.1141    1.0000 </r>
       <r>   -1.0313    1.0000 </r>
       <r>   -0.7672    1.0000 </r>
       <r>    1.8765    1.0000 </r>
       <r>    2.8095    1.0000 </r>
       <r>    3.2838    1.0000 </r>
       <r>    3.3006    1.0000 </r>
       <r>    3.4973    1.0000 </r>
       <r>    3.9512    1.0000 </r>
       <r>    4.0756    1.0000 </r>
       <r>    4.2822    1.0000 </r>
       <r>    4.8150    1.0000 </r>
       <r>    4.9839    1.0000 </r>
       <r>    5.6235    1.0000 </r>
       <r>    5.8270    1.0000 </r>
       <r>    6.8891    0.0000 </r>
       <r>    7.3013    0.0000 </r>
       <r>    7.3920    0.0000 </r>
       <r>    7.7232    0.0000 </r>
       <r>    7.7639    0.0000 </r>
       <r>    8.1468    0.0000 </r>
       <r>    8.6027    0.0000 </r>
       <r>    9.0630    0.0000 </r>
       <r>    9.4133    0.0000 </r>
       <r>    9.4472    0.0000 </r>
       <r>   10.9305    0.0000 </r>
       <r>   11.1918    0.0000 </r>
       <r>   12.5591    0.0000 </r>
       <r>   12.8018    0.0000 </r>
       <r>   13.1953    0.0000 </r>
       <r>   13.5626    0.0000 </r>
       <r>   13.8600    0.0000 </r>
       <r>   14.3159    0.0000 </r>
       <r>   14.5738    0.0000 </r>
       <r>   14.5947    0.0000 </r>
       <r>   15.3816    0.0000 </r>
       <r>   15.5711    0.0000 </r>
       <r>   15.5852    0.0000 </r>
       <r>   16.3881    0.0000 </r>
      </set>
      <set comment="kpoint 42">
       <r>  -15.4052    1.0000 </r>
       <r>  -15.4052    1.0000 </r>
       <r>  -15.3964    1.0000 </r>
       <r>  -15.3964    1.0000 </r>
       <r>  -15.3906    1.0000 </r>
       <r>  -15.3906    1.0000 </r>
       <r>  -15.3894    1.0000 </r>
       <r>  -15.3894    1.0000 </r>
       <r>  -15.3800    1.0000 </r>
       <r>  -15.3800    1.0000 </r>
       <r>  -15.3667    1.0000 </r>
       <r>  -15.3667    1.0000 </r>
       <r>  -15.3610    1.0000 </r>
       <r>  -15.3610    1.0000 </r>
       <r>  -15.3407    1.0000 </r>
       <r>  -15.3407    1.0000 </r>
       <r>  -15.3311    1.0000 </r>
       <r>  -15.3311    1.0000 </r>
       <r>  -15.3097    1.0000 </r>
       <r>  -15.3097    1.0000 </r>
       <r>   -7.2862    1.0000 </r>
       <r>   -7.2862    1.0000 </r>
       <r>   -6.9342    1.0000 </r>
       <r>   -6.9342    1.0000 </r>
       <r>   -2.4393    1.0000 </r>
       <r>   -2.4393    1.0000 </r>
       <r>   -1.1180    1.0000 </r>
       <r>   -1.1180    1.0000 </r>
       <r>    2.4443    1.0000 </r>
       <r>    2.4443    1.0000 </r>
       <r>    3.5862    1.0000 </r>
       <r>    3.5862    1.0000 </r>
       <r>    3.7025    1.0000 </r>
       <r>    3.7025    1.0000 </r>
       <r>    4.1016    1.0000 </r>
       <r>    4.1016    1.0000 </r>
       <r>    5.3446    1.0000 </r>
       <r>    5.3446    1.0000 </r>
       <r>    5.7133    1.0000 </r>
       <r>    5.7133    1.0000 </r>
       <r>    6.9199    0.0000 </r>
       <r>    6.9199    0.0000 </r>
       <r>    7.2922    0.0000 </r>
       <r>    7.2922    0.0000 </r>
       <r>    7.5970    0.0000 </r>
       <r>    7.5970    0.0000 </r>
       <r>    8.8592    0.0000 </r>
       <r>    8.8592    0.0000 </r>
       <r>    8.8853    0.0000 </r>
       <r>    8.8853    0.0000 </r>
       <r>   11.2088    0.0000 </r>
       <r>   11.2088    0.0000 </r>
       <r>   13.4969    0.0000 </r>
       <r>   13.4969    0.0000 </r>
       <r>   14.1194    0.0000 </r>
       <r>   14.1194    0.0000 </r>
       <r>   14.2088    0.0000 </r>
       <r>   14.2088    0.0000 </r>
       <r>   14.5179    0.0000 </r>
       <r>   14.5179    0.0000 </r>
       <r>   15.7732    0.0000 </r>
       <r>   15.7732    0.0000 </r>
       <r>   15.7982    0.0000 </r>
       <r>   15.7982    0.0000 </r>
      </set>
      <set comment="kpoint 43">
       <r>  -15.4115    1.0000 </r>
       <r>  -15.4034    1.0000 </r>
       <r>  -15.3954    1.0000 </r>
       <r>  -15.3930    1.0000 </r>
       <r>  -15.3914    1.0000 </r>
       <r>  -15.3901    1.0000 </r>
       <r>  -15.3895    1.0000 </r>
       <r>  -15.3862    1.0000 </r>
       <r>  -15.3815    1.0000 </r>
       <r>  -15.3797    1.0000 </r>
       <r>  -15.3759    1.0000 </r>
       <r>  -15.3735    1.0000 </r>
       <r>  -15.3630    1.0000 </r>
       <r>  -15.3617    1.0000 </r>
       <r>  -15.3417    1.0000 </r>
       <r>  -15.3383    1.0000 </r>
       <r>  -15.3318    1.0000 </r>
       <r>  -15.3294    1.0000 </r>
       <r>  -15.3127    1.0000 </r>
       <r>  -15.3086    1.0000 </r>
       <r>   -8.0338    1.0000 </r>
       <r>   -7.8472    1.0000 </r>
       <r>   -6.8807    1.0000 </r>
       <r>   -6.6106    1.0000 </r>
       <r>   -1.4278    1.0000 </r>
       <r>   -0.9981    1.0000 </r>
       <r>    0.4381    1.0000 </r>
       <r>    0.4472    1.0000 </r>
       <r>    1.2332    1.0000 </r>
       <r>    2.1120    1.0000 </r>
       <r>    2.3367    1.0000 </r>
       <r>    2.6592    1.0000 </r>
       <r>    2.8601    1.0000 </r>
       <r>    3.1475    1.0000 </r>
       <r>    3.6638    1.0000 </r>
       <r>    3.7636    1.0000 </r>
       <r>    4.0642    1.0000 </r>
       <r>    4.1074    1.0000 </r>
       <r>    5.2619    1.0000 </r>
       <r>    5.2992    1.0000 </r>
       <r>    7.7324    0.0000 </r>
       <r>    8.4431    0.0000 </r>
       <r>    8.6720    0.0000 </r>
       <r>    8.9360    0.0000 </r>
       <r>    9.0928    0.0000 </r>
       <r>    9.4175    0.0000 </r>
       <r>    9.4336    0.0000 </r>
       <r>    9.9596    0.0000 </r>
       <r>   10.5489    0.0000 </r>
       <r>   11.0274    0.0000 </r>
       <r>   11.0313    0.0000 </r>
       <r>   11.3068    0.0000 </r>
       <r>   11.4960    0.0000 </r>
       <r>   11.6183    0.0000 </r>
       <r>   11.8241    0.0000 </r>
       <r>   12.2268    0.0000 </r>
       <r>   12.5743    0.0000 </r>
       <r>   13.5792    0.0000 </r>
       <r>   13.8623    0.0000 </r>
       <r>   14.3784    0.0000 </r>
       <r>   15.2785    0.0000 </r>
       <r>   15.2980    0.0000 </r>
       <r>   15.3390    0.0000 </r>
       <r>   15.4508    0.0000 </r>
      </set>
      <set comment="kpoint 44">
       <r>  -15.4107    1.0000 </r>
       <r>  -15.4031    1.0000 </r>
       <r>  -15.3943    1.0000 </r>
       <r>  -15.3927    1.0000 </r>
       <r>  -15.3921    1.0000 </r>
       <r>  -15.3911    1.0000 </r>
       <r>  -15.3897    1.0000 </r>
       <r>  -15.3864    1.0000 </r>
       <r>  -15.3819    1.0000 </r>
       <r>  -15.3803    1.0000 </r>
       <r>  -15.3747    1.0000 </r>
       <r>  -15.3719    1.0000 </r>
       <r>  -15.3626    1.0000 </r>
       <r>  -15.3614    1.0000 </r>
       <r>  -15.3418    1.0000 </r>
       <r>  -15.3382    1.0000 </r>
       <r>  -15.3321    1.0000 </r>
       <r>  -15.3298    1.0000 </r>
       <r>  -15.3125    1.0000 </r>
       <r>  -15.3087    1.0000 </r>
       <r>   -7.9621    1.0000 </r>
       <r>   -7.7792    1.0000 </r>
       <r>   -6.8650    1.0000 </r>
       <r>   -6.6098    1.0000 </r>
       <r>   -1.6278    1.0000 </r>
       <r>   -1.1541    1.0000 </r>
       <r>    0.0984    1.0000 </r>
       <r>    0.2668    1.0000 </r>
       <r>    1.2966    1.0000 </r>
       <r>    2.0301    1.0000 </r>
       <r>    2.2507    1.0000 </r>
       <r>    2.5821    1.0000 </r>
       <r>    3.0782    1.0000 </r>
       <r>    3.4244    1.0000 </r>
       <r>    3.5921    1.0000 </r>
       <r>    3.7497    1.0000 </r>
       <r>    4.4964    1.0000 </r>
       <r>    4.7410    1.0000 </r>
       <r>    5.1638    1.0000 </r>
       <r>    5.3197    1.0000 </r>
       <r>    7.6547    0.0000 </r>
       <r>    7.9140    0.0000 </r>
       <r>    8.3036    0.0000 </r>
       <r>    8.7378    0.0000 </r>
       <r>    8.9126    0.0000 </r>
       <r>    9.2059    0.0000 </r>
       <r>    9.6593    0.0000 </r>
       <r>    9.9732    0.0000 </r>
       <r>   10.3225    0.0000 </r>
       <r>   10.5004    0.0000 </r>
       <r>   10.8832    0.0000 </r>
       <r>   10.9901    0.0000 </r>
       <r>   11.7532    0.0000 </r>
       <r>   12.0089    0.0000 </r>
       <r>   12.1288    0.0000 </r>
       <r>   12.5103    0.0000 </r>
       <r>   12.9673    0.0000 </r>
       <r>   13.7370    0.0000 </r>
       <r>   14.0702    0.0000 </r>
       <r>   14.6157    0.0000 </r>
       <r>   14.8207    0.0000 </r>
       <r>   15.2190    0.0000 </r>
       <r>   15.5507    0.0000 </r>
       <r>   15.7665    0.0000 </r>
      </set>
      <set comment="kpoint 45">
       <r>  -15.4108    1.0000 </r>
       <r>  -15.4031    1.0000 </r>
       <r>  -15.3944    1.0000 </r>
       <r>  -15.3926    1.0000 </r>
       <r>  -15.3919    1.0000 </r>
       <r>  -15.3911    1.0000 </r>
       <r>  -15.3895    1.0000 </r>
       <r>  -15.3867    1.0000 </r>
       <r>  -15.3819    1.0000 </r>
       <r>  -15.3803    1.0000 </r>
       <r>  -15.3746    1.0000 </r>
       <r>  -15.3719    1.0000 </r>
       <r>  -15.3627    1.0000 </r>
       <r>  -15.3615    1.0000 </r>
       <r>  -15.3418    1.0000 </r>
       <r>  -15.3382    1.0000 </r>
       <r>  -15.3321    1.0000 </r>
       <r>  -15.3298    1.0000 </r>
       <r>  -15.3125    1.0000 </r>
       <r>  -15.3087    1.0000 </r>
       <r>   -7.9619    1.0000 </r>
       <r>   -7.7790    1.0000 </r>
       <r>   -6.8653    1.0000 </r>
       <r>   -6.6103    1.0000 </r>
       <r>   -1.6281    1.0000 </r>
       <r>   -1.1534    1.0000 </r>
       <r>    0.0957    1.0000 </r>
       <r>    0.2625    1.0000 </r>
       <r>    1.3021    1.0000 </r>
       <r>    2.0412    1.0000 </r>
       <r>    2.2520    1.0000 </r>
       <r>    2.5825    1.0000 </r>
       <r>    3.0827    1.0000 </r>
       <r>    3.4294    1.0000 </r>
       <r>    3.5891    1.0000 </r>
       <r>    3.7439    1.0000 </r>
       <r>    4.4818    1.0000 </r>
       <r>    4.7339    1.0000 </r>
       <r>    5.1618    1.0000 </r>
       <r>    5.3214    1.0000 </r>
       <r>    7.6611    0.0000 </r>
       <r>    7.9303    0.0000 </r>
       <r>    8.3116    0.0000 </r>
       <r>    8.7589    0.0000 </r>
       <r>    8.9121    0.0000 </r>
       <r>    9.1972    0.0000 </r>
       <r>    9.6403    0.0000 </r>
       <r>    9.9741    0.0000 </r>
       <r>   10.3004    0.0000 </r>
       <r>   10.4766    0.0000 </r>
       <r>   10.8750    0.0000 </r>
       <r>   10.9889    0.0000 </r>
       <r>   11.7640    0.0000 </r>
       <r>   12.0222    0.0000 </r>
       <r>   12.1352    0.0000 </r>
       <r>   12.5214    0.0000 </r>
       <r>   12.9666    0.0000 </r>
       <r>   13.7328    0.0000 </r>
       <r>   14.0836    0.0000 </r>
       <r>   14.6247    0.0000 </r>
       <r>   14.8176    0.0000 </r>
       <r>   15.2085    0.0000 </r>
       <r>   15.5430    0.0000 </r>
       <r>   15.7702    0.0000 </r>
      </set>
      <set comment="kpoint 46">
       <r>  -15.4086    1.0000 </r>
       <r>  -15.4024    1.0000 </r>
       <r>  -15.3957    1.0000 </r>
       <r>  -15.3947    1.0000 </r>
       <r>  -15.3910    1.0000 </r>
       <r>  -15.3906    1.0000 </r>
       <r>  -15.3900    1.0000 </r>
       <r>  -15.3869    1.0000 </r>
       <r>  -15.3827    1.0000 </r>
       <r>  -15.3813    1.0000 </r>
       <r>  -15.3720    1.0000 </r>
       <r>  -15.3684    1.0000 </r>
       <r>  -15.3620    1.0000 </r>
       <r>  -15.3601    1.0000 </r>
       <r>  -15.3416    1.0000 </r>
       <r>  -15.3382    1.0000 </r>
       <r>  -15.3326    1.0000 </r>
       <r>  -15.3306    1.0000 </r>
       <r>  -15.3120    1.0000 </r>
       <r>  -15.3091    1.0000 </r>
       <r>   -7.7607    1.0000 </r>
       <r>   -7.5896    1.0000 </r>
       <r>   -6.8468    1.0000 </r>
       <r>   -6.6319    1.0000 </r>
       <r>   -2.0501    1.0000 </r>
       <r>   -1.5689    1.0000 </r>
       <r>   -0.5131    1.0000 </r>
       <r>   -0.2081    1.0000 </r>
       <r>    1.5005    1.0000 </r>
       <r>    2.0461    1.0000 </r>
       <r>    2.2723    1.0000 </r>
       <r>    2.9111    1.0000 </r>
       <r>    3.0799    1.0000 </r>
       <r>    3.4462    1.0000 </r>
       <r>    4.0531    1.0000 </r>
       <r>    4.2165    1.0000 </r>
       <r>    4.9411    1.0000 </r>
       <r>    5.0736    1.0000 </r>
       <r>    5.1800    1.0000 </r>
       <r>    5.3827    1.0000 </r>
       <r>    7.2582    0.0000 </r>
       <r>    7.4201    0.0000 </r>
       <r>    7.8523    0.0000 </r>
       <r>    8.0313    0.0000 </r>
       <r>    8.6582    0.0000 </r>
       <r>    9.0184    0.0000 </r>
       <r>    9.3492    0.0000 </r>
       <r>    9.5235    0.0000 </r>
       <r>   10.1600    0.0000 </r>
       <r>   10.3213    0.0000 </r>
       <r>   10.8505    0.0000 </r>
       <r>   10.9430    0.0000 </r>
       <r>   12.0058    0.0000 </r>
       <r>   12.0915    0.0000 </r>
       <r>   12.8934    0.0000 </r>
       <r>   12.9914    0.0000 </r>
       <r>   13.3993    0.0000 </r>
       <r>   13.8823    0.0000 </r>
       <r>   14.1688    0.0000 </r>
       <r>   14.7436    0.0000 </r>
       <r>   14.9028    0.0000 </r>
       <r>   15.5232    0.0000 </r>
       <r>   15.8887    0.0000 </r>
       <r>   16.2329    0.0000 </r>
      </set>
      <set comment="kpoint 47">
       <r>  -15.4088    1.0000 </r>
       <r>  -15.4025    1.0000 </r>
       <r>  -15.3957    1.0000 </r>
       <r>  -15.3945    1.0000 </r>
       <r>  -15.3916    1.0000 </r>
       <r>  -15.3899    1.0000 </r>
       <r>  -15.3896    1.0000 </r>
       <r>  -15.3877    1.0000 </r>
       <r>  -15.3825    1.0000 </r>
       <r>  -15.3812    1.0000 </r>
       <r>  -15.3720    1.0000 </r>
       <r>  -15.3683    1.0000 </r>
       <r>  -15.3620    1.0000 </r>
       <r>  -15.3602    1.0000 </r>
       <r>  -15.3416    1.0000 </r>
       <r>  -15.3382    1.0000 </r>
       <r>  -15.3326    1.0000 </r>
       <r>  -15.3306    1.0000 </r>
       <r>  -15.3120    1.0000 </r>
       <r>  -15.3091    1.0000 </r>
       <r>   -7.7603    1.0000 </r>
       <r>   -7.5892    1.0000 </r>
       <r>   -6.8475    1.0000 </r>
       <r>   -6.6327    1.0000 </r>
       <r>   -2.0496    1.0000 </r>
       <r>   -1.5682    1.0000 </r>
       <r>   -0.5150    1.0000 </r>
       <r>   -0.2125    1.0000 </r>
       <r>    1.5061    1.0000 </r>
       <r>    2.0555    1.0000 </r>
       <r>    2.2724    1.0000 </r>
       <r>    2.9166    1.0000 </r>
       <r>    3.0868    1.0000 </r>
       <r>    3.4464    1.0000 </r>
       <r>    4.0478    1.0000 </r>
       <r>    4.2091    1.0000 </r>
       <r>    4.9317    1.0000 </r>
       <r>    5.0639    1.0000 </r>
       <r>    5.1727    1.0000 </r>
       <r>    5.3769    1.0000 </r>
       <r>    7.2795    0.0000 </r>
       <r>    7.4374    0.0000 </r>
       <r>    7.8607    0.0000 </r>
       <r>    8.0324    0.0000 </r>
       <r>    8.6732    0.0000 </r>
       <r>    9.0099    0.0000 </r>
       <r>    9.3408    0.0000 </r>
       <r>    9.5067    0.0000 </r>
       <r>   10.1600    0.0000 </r>
       <r>   10.2962    0.0000 </r>
       <r>   10.8417    0.0000 </r>
       <r>   10.9345    0.0000 </r>
       <r>   12.0133    0.0000 </r>
       <r>   12.1057    0.0000 </r>
       <r>   12.9030    0.0000 </r>
       <r>   12.9812    0.0000 </r>
       <r>   13.4116    0.0000 </r>
       <r>   13.8776    0.0000 </r>
       <r>   14.1766    0.0000 </r>
       <r>   14.7447    0.0000 </r>
       <r>   14.9114    0.0000 </r>
       <r>   15.5199    0.0000 </r>
       <r>   15.8959    0.0000 </r>
       <r>   16.2273    0.0000 </r>
      </set>
      <set comment="kpoint 48">
       <r>  -15.4059    1.0000 </r>
       <r>  -15.4021    1.0000 </r>
       <r>  -15.3988    1.0000 </r>
       <r>  -15.3976    1.0000 </r>
       <r>  -15.3911    1.0000 </r>
       <r>  -15.3909    1.0000 </r>
       <r>  -15.3885    1.0000 </r>
       <r>  -15.3868    1.0000 </r>
       <r>  -15.3830    1.0000 </r>
       <r>  -15.3820    1.0000 </r>
       <r>  -15.3687    1.0000 </r>
       <r>  -15.3658    1.0000 </r>
       <r>  -15.3607    1.0000 </r>
       <r>  -15.3589    1.0000 </r>
       <r>  -15.3406    1.0000 </r>
       <r>  -15.3385    1.0000 </r>
       <r>  -15.3326    1.0000 </r>
       <r>  -15.3315    1.0000 </r>
       <r>  -15.3112    1.0000 </r>
       <r>  -15.3097    1.0000 </r>
       <r>   -7.4782    1.0000 </r>
       <r>   -7.3333    1.0000 </r>
       <r>   -6.8892    1.0000 </r>
       <r>   -6.7294    1.0000 </r>
       <r>   -2.3593    1.0000 </r>
       <r>   -2.0352    1.0000 </r>
       <r>   -0.9736    1.0000 </r>
       <r>   -0.7318    1.0000 </r>
       <r>    1.8720    1.0000 </r>
       <r>    2.3398    1.0000 </r>
       <r>    2.6210    1.0000 </r>
       <r>    3.0225    1.0000 </r>
       <r>    3.3287    1.0000 </r>
       <r>    3.4533    1.0000 </r>
       <r>    3.8579    1.0000 </r>
       <r>    4.3343    1.0000 </r>
       <r>    4.9535    1.0000 </r>
       <r>    5.1431    1.0000 </r>
       <r>    5.2991    1.0000 </r>
       <r>    5.3916    1.0000 </r>
       <r>    7.0754    0.0000 </r>
       <r>    7.3350    0.0000 </r>
       <r>    7.5809    0.0000 </r>
       <r>    7.9278    0.0000 </r>
       <r>    8.2303    0.0000 </r>
       <r>    8.6487    0.0000 </r>
       <r>    8.7374    0.0000 </r>
       <r>    9.0403    0.0000 </r>
       <r>   10.0412    0.0000 </r>
       <r>   10.1991    0.0000 </r>
       <r>   10.8148    0.0000 </r>
       <r>   11.0870    0.0000 </r>
       <r>   12.6025    0.0000 </r>
       <r>   12.8833    0.0000 </r>
       <r>   13.1272    0.0000 </r>
       <r>   13.3874    0.0000 </r>
       <r>   13.9341    0.0000 </r>
       <r>   14.2787    0.0000 </r>
       <r>   14.4474    0.0000 </r>
       <r>   14.6336    0.0000 </r>
       <r>   15.3063    0.0000 </r>
       <r>   15.6886    0.0000 </r>
       <r>   15.9471    0.0000 </r>
       <r>   16.6467    0.0000 </r>
      </set>
      <set comment="kpoint 49">
       <r>  -15.4062    1.0000 </r>
       <r>  -15.4021    1.0000 </r>
       <r>  -15.3988    1.0000 </r>
       <r>  -15.3973    1.0000 </r>
       <r>  -15.3913    1.0000 </r>
       <r>  -15.3906    1.0000 </r>
       <r>  -15.3883    1.0000 </r>
       <r>  -15.3874    1.0000 </r>
       <r>  -15.3827    1.0000 </r>
       <r>  -15.3821    1.0000 </r>
       <r>  -15.3687    1.0000 </r>
       <r>  -15.3658    1.0000 </r>
       <r>  -15.3607    1.0000 </r>
       <r>  -15.3589    1.0000 </r>
       <r>  -15.3406    1.0000 </r>
       <r>  -15.3385    1.0000 </r>
       <r>  -15.3326    1.0000 </r>
       <r>  -15.3315    1.0000 </r>
       <r>  -15.3112    1.0000 </r>
       <r>  -15.3097    1.0000 </r>
       <r>   -7.4776    1.0000 </r>
       <r>   -7.3328    1.0000 </r>
       <r>   -6.8899    1.0000 </r>
       <r>   -6.7304    1.0000 </r>
       <r>   -2.3582    1.0000 </r>
       <r>   -2.0354    1.0000 </r>
       <r>   -0.9732    1.0000 </r>
       <r>   -0.7353    1.0000 </r>
       <r>    1.8762    1.0000 </r>
       <r>    2.3456    1.0000 </r>
       <r>    2.6218    1.0000 </r>
       <r>    3.0249    1.0000 </r>
       <r>    3.3394    1.0000 </r>
       <r>    3.4464    1.0000 </r>
       <r>    3.8566    1.0000 </r>
       <r>    4.3299    1.0000 </r>
       <r>    4.9503    1.0000 </r>
       <r>    5.1374    1.0000 </r>
       <r>    5.2865    1.0000 </r>
       <r>    5.3837    1.0000 </r>
       <r>    7.0989    0.0000 </r>
       <r>    7.3506    0.0000 </r>
       <r>    7.5796    0.0000 </r>
       <r>    7.9357    0.0000 </r>
       <r>    8.2214    0.0000 </r>
       <r>    8.6534    0.0000 </r>
       <r>    8.7312    0.0000 </r>
       <r>    9.0328    0.0000 </r>
       <r>   10.0358    0.0000 </r>
       <r>   10.1864    0.0000 </r>
       <r>   10.8216    0.0000 </r>
       <r>   11.0783    0.0000 </r>
       <r>   12.5968    0.0000 </r>
       <r>   12.8871    0.0000 </r>
       <r>   13.1284    0.0000 </r>
       <r>   13.3970    0.0000 </r>
       <r>   13.9250    0.0000 </r>
       <r>   14.2725    0.0000 </r>
       <r>   14.4561    0.0000 </r>
       <r>   14.6510    0.0000 </r>
       <r>   15.3117    0.0000 </r>
       <r>   15.6859    0.0000 </r>
       <r>   15.9466    0.0000 </r>
       <r>   16.6494    0.0000 </r>
      </set>
      <set comment="kpoint 50">
       <r>  -15.4036    1.0000 </r>
       <r>  -15.4033    1.0000 </r>
       <r>  -15.3995    1.0000 </r>
       <r>  -15.3992    1.0000 </r>
       <r>  -15.3916    1.0000 </r>
       <r>  -15.3913    1.0000 </r>
       <r>  -15.3874    1.0000 </r>
       <r>  -15.3872    1.0000 </r>
       <r>  -15.3827    1.0000 </r>
       <r>  -15.3825    1.0000 </r>
       <r>  -15.3662    1.0000 </r>
       <r>  -15.3662    1.0000 </r>
       <r>  -15.3591    1.0000 </r>
       <r>  -15.3591    1.0000 </r>
       <r>  -15.3393    1.0000 </r>
       <r>  -15.3393    1.0000 </r>
       <r>  -15.3322    1.0000 </r>
       <r>  -15.3321    1.0000 </r>
       <r>  -15.3105    1.0000 </r>
       <r>  -15.3104    1.0000 </r>
       <r>   -7.2343    1.0000 </r>
       <r>   -7.2339    1.0000 </r>
       <r>   -6.8977    1.0000 </r>
       <r>   -6.8972    1.0000 </r>
       <r>   -2.3490    1.0000 </r>
       <r>   -2.3479    1.0000 </r>
       <r>   -1.0479    1.0000 </r>
       <r>   -1.0454    1.0000 </r>
       <r>    2.3408    1.0000 </r>
       <r>    2.3464    1.0000 </r>
       <r>    2.9732    1.0000 </r>
       <r>    2.9761    1.0000 </r>
       <r>    3.3203    1.0000 </r>
       <r>    3.3281    1.0000 </r>
       <r>    3.9610    1.0000 </r>
       <r>    3.9647    1.0000 </r>
       <r>    5.0190    1.0000 </r>
       <r>    5.0255    1.0000 </r>
       <r>    5.3754    1.0000 </r>
       <r>    5.3818    1.0000 </r>
       <r>    7.2329    0.0000 </r>
       <r>    7.2454    0.0000 </r>
       <r>    7.6456    0.0000 </r>
       <r>    7.6565    0.0000 </r>
       <r>    8.2341    0.0000 </r>
       <r>    8.2448    0.0000 </r>
       <r>    8.9009    0.0000 </r>
       <r>    8.9064    0.0000 </r>
       <r>    9.7789    0.0000 </r>
       <r>    9.7847    0.0000 </r>
       <r>   11.0552    0.0000 </r>
       <r>   11.0651    0.0000 </r>
       <r>   12.8071    0.0000 </r>
       <r>   12.8263    0.0000 </r>
       <r>   13.9187    0.0000 </r>
       <r>   13.9369    0.0000 </r>
       <r>   14.3091    0.0000 </r>
       <r>   14.3157    0.0000 </r>
       <r>   15.2132    0.0000 </r>
       <r>   15.2158    0.0000 </r>
       <r>   15.7444    0.0000 </r>
       <r>   15.7502    0.0000 </r>
       <r>   15.9343    0.0000 </r>
       <r>   15.9364    0.0000 </r>
      </set>
      <set comment="kpoint 51">
       <r>  -15.4034    1.0000 </r>
       <r>  -15.3998    1.0000 </r>
       <r>  -15.3939    1.0000 </r>
       <r>  -15.3928    1.0000 </r>
       <r>  -15.3919    1.0000 </r>
       <r>  -15.3904    1.0000 </r>
       <r>  -15.3896    1.0000 </r>
       <r>  -15.3890    1.0000 </r>
       <r>  -15.3856    1.0000 </r>
       <r>  -15.3847    1.0000 </r>
       <r>  -15.3726    1.0000 </r>
       <r>  -15.3696    1.0000 </r>
       <r>  -15.3609    1.0000 </r>
       <r>  -15.3597    1.0000 </r>
       <r>  -15.3384    1.0000 </r>
       <r>  -15.3378    1.0000 </r>
       <r>  -15.3328    1.0000 </r>
       <r>  -15.3317    1.0000 </r>
       <r>  -15.3144    1.0000 </r>
       <r>  -15.3118    1.0000 </r>
       <r>   -7.8318    1.0000 </r>
       <r>   -7.6616    1.0000 </r>
       <r>   -6.8182    1.0000 </r>
       <r>   -6.6032    1.0000 </r>
       <r>   -1.7224    1.0000 </r>
       <r>   -1.3342    1.0000 </r>
       <r>   -0.3470    1.0000 </r>
       <r>   -0.1771    1.0000 </r>
       <r>    1.3746    1.0000 </r>
       <r>    2.3096    1.0000 </r>
       <r>    2.5041    1.0000 </r>
       <r>    2.7810    1.0000 </r>
       <r>    3.1994    1.0000 </r>
       <r>    3.3857    1.0000 </r>
       <r>    3.8036    1.0000 </r>
       <r>    3.9043    1.0000 </r>
       <r>    4.1999    1.0000 </r>
       <r>    4.5036    1.0000 </r>
       <r>    5.2561    1.0000 </r>
       <r>    5.3965    1.0000 </r>
       <r>    7.3196    0.0000 </r>
       <r>    8.0078    0.0000 </r>
       <r>    8.0459    0.0000 </r>
       <r>    8.4901    0.0000 </r>
       <r>    8.6488    0.0000 </r>
       <r>    9.1850    0.0000 </r>
       <r>    9.2816    0.0000 </r>
       <r>    9.8859    0.0000 </r>
       <r>   10.0592    0.0000 </r>
       <r>   10.4640    0.0000 </r>
       <r>   10.6008    0.0000 </r>
       <r>   10.6390    0.0000 </r>
       <r>   11.2836    0.0000 </r>
       <r>   11.4505    0.0000 </r>
       <r>   12.3670    0.0000 </r>
       <r>   12.3794    0.0000 </r>
       <r>   12.9033    0.0000 </r>
       <r>   13.4693    0.0000 </r>
       <r>   14.5343    0.0000 </r>
       <r>   14.7480    0.0000 </r>
       <r>   15.8062    0.0000 </r>
       <r>   15.9459    0.0000 </r>
       <r>   16.0215    0.0000 </r>
       <r>   16.4097    0.0000 </r>
      </set>
      <set comment="kpoint 52">
       <r>  -15.4040    1.0000 </r>
       <r>  -15.4003    1.0000 </r>
       <r>  -15.3956    1.0000 </r>
       <r>  -15.3933    1.0000 </r>
       <r>  -15.3918    1.0000 </r>
       <r>  -15.3901    1.0000 </r>
       <r>  -15.3895    1.0000 </r>
       <r>  -15.3875    1.0000 </r>
       <r>  -15.3861    1.0000 </r>
       <r>  -15.3847    1.0000 </r>
       <r>  -15.3718    1.0000 </r>
       <r>  -15.3684    1.0000 </r>
       <r>  -15.3609    1.0000 </r>
       <r>  -15.3588    1.0000 </r>
       <r>  -15.3385    1.0000 </r>
       <r>  -15.3374    1.0000 </r>
       <r>  -15.3331    1.0000 </r>
       <r>  -15.3322    1.0000 </r>
       <r>  -15.3142    1.0000 </r>
       <r>  -15.3117    1.0000 </r>
       <r>   -7.7634    1.0000 </r>
       <r>   -7.5972    1.0000 </r>
       <r>   -6.8009    1.0000 </r>
       <r>   -6.5972    1.0000 </r>
       <r>   -1.7791    1.0000 </r>
       <r>   -1.3497    1.0000 </r>
       <r>   -0.4091    1.0000 </r>
       <r>   -0.2830    1.0000 </r>
       <r>    1.4297    1.0000 </r>
       <r>    1.8155    1.0000 </r>
       <r>    2.1419    1.0000 </r>
       <r>    2.6437    1.0000 </r>
       <r>    2.9999    1.0000 </r>
       <r>    3.3765    1.0000 </r>
       <r>    3.9287    1.0000 </r>
       <r>    4.0221    1.0000 </r>
       <r>    4.7270    1.0000 </r>
       <r>    4.8871    1.0000 </r>
       <r>    5.2754    1.0000 </r>
       <r>    5.3758    1.0000 </r>
       <r>    7.1193    0.0000 </r>
       <r>    7.3727    0.0000 </r>
       <r>    8.0492    0.0000 </r>
       <r>    8.2518    0.0000 </r>
       <r>    8.7340    0.0000 </r>
       <r>    9.0521    0.0000 </r>
       <r>    9.4678    0.0000 </r>
       <r>    9.6365    0.0000 </r>
       <r>   10.0756    0.0000 </r>
       <r>   10.4411    0.0000 </r>
       <r>   10.6986    0.0000 </r>
       <r>   10.9895    0.0000 </r>
       <r>   11.8366    0.0000 </r>
       <r>   12.2676    0.0000 </r>
       <r>   12.6958    0.0000 </r>
       <r>   12.7197    0.0000 </r>
       <r>   13.1109    0.0000 </r>
       <r>   13.7728    0.0000 </r>
       <r>   14.3543    0.0000 </r>
       <r>   14.6406    0.0000 </r>
       <r>   15.1719    0.0000 </r>
       <r>   15.5802    0.0000 </r>
       <r>   15.7760    0.0000 </r>
       <r>   16.0057    0.0000 </r>
      </set>
      <set comment="kpoint 53">
       <r>  -15.4043    1.0000 </r>
       <r>  -15.4004    1.0000 </r>
       <r>  -15.3952    1.0000 </r>
       <r>  -15.3928    1.0000 </r>
       <r>  -15.3920    1.0000 </r>
       <r>  -15.3903    1.0000 </r>
       <r>  -15.3896    1.0000 </r>
       <r>  -15.3883    1.0000 </r>
       <r>  -15.3857    1.0000 </r>
       <r>  -15.3843    1.0000 </r>
       <r>  -15.3718    1.0000 </r>
       <r>  -15.3684    1.0000 </r>
       <r>  -15.3609    1.0000 </r>
       <r>  -15.3588    1.0000 </r>
       <r>  -15.3385    1.0000 </r>
       <r>  -15.3374    1.0000 </r>
       <r>  -15.3331    1.0000 </r>
       <r>  -15.3321    1.0000 </r>
       <r>  -15.3142    1.0000 </r>
       <r>  -15.3118    1.0000 </r>
       <r>   -7.7630    1.0000 </r>
       <r>   -7.5968    1.0000 </r>
       <r>   -6.8016    1.0000 </r>
       <r>   -6.5981    1.0000 </r>
       <r>   -1.7791    1.0000 </r>
       <r>   -1.3475    1.0000 </r>
       <r>   -0.4131    1.0000 </r>
       <r>   -0.2877    1.0000 </r>
       <r>    1.4377    1.0000 </r>
       <r>    1.8224    1.0000 </r>
       <r>    2.1426    1.0000 </r>
       <r>    2.6537    1.0000 </r>
       <r>    3.0021    1.0000 </r>
       <r>    3.3783    1.0000 </r>
       <r>    3.9229    1.0000 </r>
       <r>    4.0134    1.0000 </r>
       <r>    4.7170    1.0000 </r>
       <r>    4.8812    1.0000 </r>
       <r>    5.2676    1.0000 </r>
       <r>    5.3728    1.0000 </r>
       <r>    7.1314    0.0000 </r>
       <r>    7.3870    0.0000 </r>
       <r>    8.0499    0.0000 </r>
       <r>    8.2685    0.0000 </r>
       <r>    8.7546    0.0000 </r>
       <r>    9.0425    0.0000 </r>
       <r>    9.4517    0.0000 </r>
       <r>    9.6316    0.0000 </r>
       <r>   10.0689    0.0000 </r>
       <r>   10.4091    0.0000 </r>
       <r>   10.6924    0.0000 </r>
       <r>   10.9767    0.0000 </r>
       <r>   11.8492    0.0000 </r>
       <r>   12.2788    0.0000 </r>
       <r>   12.7033    0.0000 </r>
       <r>   12.7185    0.0000 </r>
       <r>   13.1237    0.0000 </r>
       <r>   13.7659    0.0000 </r>
       <r>   14.3614    0.0000 </r>
       <r>   14.6476    0.0000 </r>
       <r>   15.1827    0.0000 </r>
       <r>   15.5731    0.0000 </r>
       <r>   15.7795    0.0000 </r>
       <r>   16.0041    0.0000 </r>
      </set>
      <set comment="kpoint 54">
       <r>  -15.4058    1.0000 </r>
       <r>  -15.4019    1.0000 </r>
       <r>  -15.3993    1.0000 </r>
       <r>  -15.3964    1.0000 </r>
       <r>  -15.3908    1.0000 </r>
       <r>  -15.3892    1.0000 </r>
       <r>  -15.3889    1.0000 </r>
       <r>  -15.3863    1.0000 </r>
       <r>  -15.3852    1.0000 </r>
       <r>  -15.3844    1.0000 </r>
       <r>  -15.3700    1.0000 </r>
       <r>  -15.3664    1.0000 </r>
       <r>  -15.3594    1.0000 </r>
       <r>  -15.3569    1.0000 </r>
       <r>  -15.3381    1.0000 </r>
       <r>  -15.3366    1.0000 </r>
       <r>  -15.3336    1.0000 </r>
       <r>  -15.3334    1.0000 </r>
       <r>  -15.3136    1.0000 </r>
       <r>  -15.3117    1.0000 </r>
       <r>   -7.5732    1.0000 </r>
       <r>   -7.4192    1.0000 </r>
       <r>   -6.7757    1.0000 </r>
       <r>   -6.6023    1.0000 </r>
       <r>   -1.9501    1.0000 </r>
       <r>   -1.4909    1.0000 </r>
       <r>   -0.6413    1.0000 </r>
       <r>   -0.4619    1.0000 </r>
       <r>    1.3765    1.0000 </r>
       <r>    1.4989    1.0000 </r>
       <r>    1.9162    1.0000 </r>
       <r>    2.5270    1.0000 </r>
       <r>    2.5638    1.0000 </r>
       <r>    3.2077    1.0000 </r>
       <r>    4.1371    1.0000 </r>
       <r>    4.3920    1.0000 </r>
       <r>    4.4708    1.0000 </r>
       <r>    4.6257    1.0000 </r>
       <r>    5.2699    1.0000 </r>
       <r>    5.4163    1.0000 </r>
       <r>    7.2570    0.0000 </r>
       <r>    7.6484    0.0000 </r>
       <r>    7.7504    0.0000 </r>
       <r>    8.1830    0.0000 </r>
       <r>    8.4615    0.0000 </r>
       <r>    8.9019    0.0000 </r>
       <r>    9.3372    0.0000 </r>
       <r>    9.9156    0.0000 </r>
       <r>   10.4317    0.0000 </r>
       <r>   10.7967    0.0000 </r>
       <r>   11.0477    0.0000 </r>
       <r>   11.1789    0.0000 </r>
       <r>   12.2170    0.0000 </r>
       <r>   13.0026    0.0000 </r>
       <r>   13.3233    0.0000 </r>
       <r>   13.3980    0.0000 </r>
       <r>   13.6516    0.0000 </r>
       <r>   13.9273    0.0000 </r>
       <r>   14.1990    0.0000 </r>
       <r>   14.6548    0.0000 </r>
       <r>   14.8600    0.0000 </r>
       <r>   15.2721    0.0000 </r>
       <r>   15.9835    0.0000 </r>
       <r>   16.1197    0.0000 </r>
      </set>
      <set comment="kpoint 55">
       <r>  -15.4062    1.0000 </r>
       <r>  -15.4021    1.0000 </r>
       <r>  -15.3988    1.0000 </r>
       <r>  -15.3959    1.0000 </r>
       <r>  -15.3906    1.0000 </r>
       <r>  -15.3904    1.0000 </r>
       <r>  -15.3886    1.0000 </r>
       <r>  -15.3869    1.0000 </r>
       <r>  -15.3847    1.0000 </r>
       <r>  -15.3839    1.0000 </r>
       <r>  -15.3700    1.0000 </r>
       <r>  -15.3663    1.0000 </r>
       <r>  -15.3594    1.0000 </r>
       <r>  -15.3569    1.0000 </r>
       <r>  -15.3381    1.0000 </r>
       <r>  -15.3366    1.0000 </r>
       <r>  -15.3337    1.0000 </r>
       <r>  -15.3333    1.0000 </r>
       <r>  -15.3136    1.0000 </r>
       <r>  -15.3118    1.0000 </r>
       <r>   -7.5723    1.0000 </r>
       <r>   -7.4184    1.0000 </r>
       <r>   -6.7770    1.0000 </r>
       <r>   -6.6039    1.0000 </r>
       <r>   -1.9489    1.0000 </r>
       <r>   -1.4888    1.0000 </r>
       <r>   -0.6448    1.0000 </r>
       <r>   -0.4693    1.0000 </r>
       <r>    1.3837    1.0000 </r>
       <r>    1.5067    1.0000 </r>
       <r>    1.9146    1.0000 </r>
       <r>    2.5340    1.0000 </r>
       <r>    2.5827    1.0000 </r>
       <r>    3.2019    1.0000 </r>
       <r>    4.1263    1.0000 </r>
       <r>    4.3876    1.0000 </r>
       <r>    4.4636    1.0000 </r>
       <r>    4.6145    1.0000 </r>
       <r>    5.2623    1.0000 </r>
       <r>    5.4095    1.0000 </r>
       <r>    7.2797    0.0000 </r>
       <r>    7.6620    0.0000 </r>
       <r>    7.7559    0.0000 </r>
       <r>    8.1925    0.0000 </r>
       <r>    8.4679    0.0000 </r>
       <r>    8.8952    0.0000 </r>
       <r>    9.3344    0.0000 </r>
       <r>    9.9059    0.0000 </r>
       <r>   10.4290    0.0000 </r>
       <r>   10.7735    0.0000 </r>
       <r>   11.0338    0.0000 </r>
       <r>   11.1612    0.0000 </r>
       <r>   12.2098    0.0000 </r>
       <r>   13.0047    0.0000 </r>
       <r>   13.3311    0.0000 </r>
       <r>   13.4100    0.0000 </r>
       <r>   13.6605    0.0000 </r>
       <r>   13.9367    0.0000 </r>
       <r>   14.2158    0.0000 </r>
       <r>   14.6661    0.0000 </r>
       <r>   14.8695    0.0000 </r>
       <r>   15.2735    0.0000 </r>
       <r>   15.9772    0.0000 </r>
       <r>   16.1078    0.0000 </r>
      </set>
      <set comment="kpoint 56">
       <r>  -15.4075    1.0000 </r>
       <r>  -15.4052    1.0000 </r>
       <r>  -15.4016    1.0000 </r>
       <r>  -15.3999    1.0000 </r>
       <r>  -15.3903    1.0000 </r>
       <r>  -15.3893    1.0000 </r>
       <r>  -15.3881    1.0000 </r>
       <r>  -15.3862    1.0000 </r>
       <r>  -15.3837    1.0000 </r>
       <r>  -15.3829    1.0000 </r>
       <r>  -15.3679    1.0000 </r>
       <r>  -15.3656    1.0000 </r>
       <r>  -15.3566    1.0000 </r>
       <r>  -15.3550    1.0000 </r>
       <r>  -15.3371    1.0000 </r>
       <r>  -15.3355    1.0000 </r>
       <r>  -15.3346    1.0000 </r>
       <r>  -15.3342    1.0000 </r>
       <r>  -15.3129    1.0000 </r>
       <r>  -15.3118    1.0000 </r>
       <r>   -7.3117    1.0000 </r>
       <r>   -7.1835    1.0000 </r>
       <r>   -6.8013    1.0000 </r>
       <r>   -6.6693    1.0000 </r>
       <r>   -2.1184    1.0000 </r>
       <r>   -1.8143    1.0000 </r>
       <r>   -0.8419    1.0000 </r>
       <r>   -0.6816    1.0000 </r>
       <r>    1.4143    1.0000 </r>
       <r>    1.5569    1.0000 </r>
       <r>    2.1589    1.0000 </r>
       <r>    2.3080    1.0000 </r>
       <r>    2.5507    1.0000 </r>
       <r>    3.2740    1.0000 </r>
       <r>    3.7039    1.0000 </r>
       <r>    3.8832    1.0000 </r>
       <r>    4.1438    1.0000 </r>
       <r>    4.2154    1.0000 </r>
       <r>    4.9712    1.0000 </r>
       <r>    5.2036    1.0000 </r>
       <r>    7.4330    0.0000 </r>
       <r>    8.0006    0.0000 </r>
       <r>    8.2008    0.0000 </r>
       <r>    8.3770    0.0000 </r>
       <r>    8.9726    0.0000 </r>
       <r>    9.2147    0.0000 </r>
       <r>    9.4289    0.0000 </r>
       <r>    9.9349    0.0000 </r>
       <r>   10.4567    0.0000 </r>
       <r>   10.7934    0.0000 </r>
       <r>   11.1521    0.0000 </r>
       <r>   11.2949    0.0000 </r>
       <r>   12.2057    0.0000 </r>
       <r>   12.6417    0.0000 </r>
       <r>   13.2337    0.0000 </r>
       <r>   13.8085    0.0000 </r>
       <r>   14.0010    0.0000 </r>
       <r>   14.3736    0.0000 </r>
       <r>   14.9300    0.0000 </r>
       <r>   15.1223    0.0000 </r>
       <r>   15.4569    0.0000 </r>
       <r>   15.6113    0.0000 </r>
       <r>   16.5812    0.0000 </r>
       <r>   17.0022    0.0000 </r>
      </set>
      <set comment="kpoint 57">
       <r>  -15.4079    1.0000 </r>
       <r>  -15.4051    1.0000 </r>
       <r>  -15.4015    1.0000 </r>
       <r>  -15.3995    1.0000 </r>
       <r>  -15.3904    1.0000 </r>
       <r>  -15.3893    1.0000 </r>
       <r>  -15.3887    1.0000 </r>
       <r>  -15.3859    1.0000 </r>
       <r>  -15.3837    1.0000 </r>
       <r>  -15.3827    1.0000 </r>
       <r>  -15.3679    1.0000 </r>
       <r>  -15.3655    1.0000 </r>
       <r>  -15.3566    1.0000 </r>
       <r>  -15.3551    1.0000 </r>
       <r>  -15.3371    1.0000 </r>
       <r>  -15.3356    1.0000 </r>
       <r>  -15.3346    1.0000 </r>
       <r>  -15.3341    1.0000 </r>
       <r>  -15.3129    1.0000 </r>
       <r>  -15.3120    1.0000 </r>
       <r>   -7.3105    1.0000 </r>
       <r>   -7.1825    1.0000 </r>
       <r>   -6.8027    1.0000 </r>
       <r>   -6.6711    1.0000 </r>
       <r>   -2.1159    1.0000 </r>
       <r>   -1.8149    1.0000 </r>
       <r>   -0.8404    1.0000 </r>
       <r>   -0.6892    1.0000 </r>
       <r>    1.4179    1.0000 </r>
       <r>    1.5600    1.0000 </r>
       <r>    2.1628    1.0000 </r>
       <r>    2.3133    1.0000 </r>
       <r>    2.5610    1.0000 </r>
       <r>    3.2760    1.0000 </r>
       <r>    3.6958    1.0000 </r>
       <r>    3.8806    1.0000 </r>
       <r>    4.1317    1.0000 </r>
       <r>    4.2110    1.0000 </r>
       <r>    4.9632    1.0000 </r>
       <r>    5.2051    1.0000 </r>
       <r>    7.4452    0.0000 </r>
       <r>    8.0081    0.0000 </r>
       <r>    8.2082    0.0000 </r>
       <r>    8.3734    0.0000 </r>
       <r>    8.9844    0.0000 </r>
       <r>    9.2125    0.0000 </r>
       <r>    9.4240    0.0000 </r>
       <r>    9.9292    0.0000 </r>
       <r>   10.4630    0.0000 </r>
       <r>   10.7786    0.0000 </r>
       <r>   11.1404    0.0000 </r>
       <r>   11.2785    0.0000 </r>
       <r>   12.1848    0.0000 </r>
       <r>   12.6648    0.0000 </r>
       <r>   13.2220    0.0000 </r>
       <r>   13.8170    0.0000 </r>
       <r>   14.0076    0.0000 </r>
       <r>   14.3844    0.0000 </r>
       <r>   14.9501    0.0000 </r>
       <r>   15.1304    0.0000 </r>
       <r>   15.4650    0.0000 </r>
       <r>   15.6074    0.0000 </r>
       <r>   16.5861    0.0000 </r>
       <r>   17.0055    0.0000 </r>
      </set>
      <set comment="kpoint 58">
       <r>  -15.4078    1.0000 </r>
       <r>  -15.4074    1.0000 </r>
       <r>  -15.4018    1.0000 </r>
       <r>  -15.4016    1.0000 </r>
       <r>  -15.3899    1.0000 </r>
       <r>  -15.3897    1.0000 </r>
       <r>  -15.3874    1.0000 </r>
       <r>  -15.3868    1.0000 </r>
       <r>  -15.3830    1.0000 </r>
       <r>  -15.3822    1.0000 </r>
       <r>  -15.3662    1.0000 </r>
       <r>  -15.3662    1.0000 </r>
       <r>  -15.3548    1.0000 </r>
       <r>  -15.3548    1.0000 </r>
       <r>  -15.3358    1.0000 </r>
       <r>  -15.3356    1.0000 </r>
       <r>  -15.3347    1.0000 </r>
       <r>  -15.3347    1.0000 </r>
       <r>  -15.3123    1.0000 </r>
       <r>  -15.3122    1.0000 </r>
       <r>   -7.0930    1.0000 </r>
       <r>   -7.0921    1.0000 </r>
       <r>   -6.8050    1.0000 </r>
       <r>   -6.8041    1.0000 </r>
       <r>   -2.0850    1.0000 </r>
       <r>   -2.0824    1.0000 </r>
       <r>   -0.8638    1.0000 </r>
       <r>   -0.8577    1.0000 </r>
       <r>    1.7772    1.0000 </r>
       <r>    1.7784    1.0000 </r>
       <r>    2.0040    1.0000 </r>
       <r>    2.0081    1.0000 </r>
       <r>    2.9372    1.0000 </r>
       <r>    2.9494    1.0000 </r>
       <r>    3.6530    1.0000 </r>
       <r>    3.6572    1.0000 </r>
       <r>    4.0214    1.0000 </r>
       <r>    4.0337    1.0000 </r>
       <r>    4.8138    1.0000 </r>
       <r>    4.8225    1.0000 </r>
       <r>    7.7672    0.0000 </r>
       <r>    7.7816    0.0000 </r>
       <r>    8.7658    0.0000 </r>
       <r>    8.7718    0.0000 </r>
       <r>    9.0241    0.0000 </r>
       <r>    9.0327    0.0000 </r>
       <r>    9.8999    0.0000 </r>
       <r>    9.9071    0.0000 </r>
       <r>   10.6377    0.0000 </r>
       <r>   10.6464    0.0000 </r>
       <r>   10.9665    0.0000 </r>
       <r>   10.9747    0.0000 </r>
       <r>   12.2757    0.0000 </r>
       <r>   12.3010    0.0000 </r>
       <r>   13.4822    0.0000 </r>
       <r>   13.5089    0.0000 </r>
       <r>   14.6854    0.0000 </r>
       <r>   14.6950    0.0000 </r>
       <r>   15.8813    0.0000 </r>
       <r>   15.8860    0.0000 </r>
       <r>   16.0245    0.0000 </r>
       <r>   16.0267    0.0000 </r>
       <r>   16.6255    0.0000 </r>
       <r>   16.6304    0.0000 </r>
      </set>
      <set comment="kpoint 59">
       <r>  -15.4020    1.0000 </r>
       <r>  -15.4003    1.0000 </r>
       <r>  -15.3969    1.0000 </r>
       <r>  -15.3948    1.0000 </r>
       <r>  -15.3895    1.0000 </r>
       <r>  -15.3890    1.0000 </r>
       <r>  -15.3881    1.0000 </r>
       <r>  -15.3879    1.0000 </r>
       <r>  -15.3858    1.0000 </r>
       <r>  -15.3819    1.0000 </r>
       <r>  -15.3703    1.0000 </r>
       <r>  -15.3673    1.0000 </r>
       <r>  -15.3587    1.0000 </r>
       <r>  -15.3558    1.0000 </r>
       <r>  -15.3415    1.0000 </r>
       <r>  -15.3409    1.0000 </r>
       <r>  -15.3314    1.0000 </r>
       <r>  -15.3281    1.0000 </r>
       <r>  -15.3163    1.0000 </r>
       <r>  -15.3155    1.0000 </r>
       <r>   -7.5263    1.0000 </r>
       <r>   -7.3893    1.0000 </r>
       <r>   -6.7880    1.0000 </r>
       <r>   -6.6651    1.0000 </r>
       <r>   -2.0090    1.0000 </r>
       <r>   -1.6476    1.0000 </r>
       <r>   -1.1503    1.0000 </r>
       <r>   -0.8533    1.0000 </r>
       <r>    1.7227    1.0000 </r>
       <r>    2.6698    1.0000 </r>
       <r>    2.8497    1.0000 </r>
       <r>    3.0855    1.0000 </r>
       <r>    3.2942    1.0000 </r>
       <r>    3.7197    1.0000 </r>
       <r>    3.9674    1.0000 </r>
       <r>    4.0257    1.0000 </r>
       <r>    4.3129    1.0000 </r>
       <r>    4.5069    1.0000 </r>
       <r>    5.3055    1.0000 </r>
       <r>    5.6064    1.0000 </r>
       <r>    6.6012    0.0000 </r>
       <r>    7.1246    0.0000 </r>
       <r>    7.8358    0.0000 </r>
       <r>    7.8694    0.0000 </r>
       <r>    8.3342    0.0000 </r>
       <r>    8.5473    0.0000 </r>
       <r>    8.5623    0.0000 </r>
       <r>    9.1007    0.0000 </r>
       <r>    9.3356    0.0000 </r>
       <r>    9.9431    0.0000 </r>
       <r>   10.0616    0.0000 </r>
       <r>   10.4847    0.0000 </r>
       <r>   12.4123    0.0000 </r>
       <r>   12.7548    0.0000 </r>
       <r>   12.7570    0.0000 </r>
       <r>   13.4050    0.0000 </r>
       <r>   13.7988    0.0000 </r>
       <r>   14.1166    0.0000 </r>
       <r>   14.4917    0.0000 </r>
       <r>   15.1003    0.0000 </r>
       <r>   15.1878    0.0000 </r>
       <r>   15.4125    0.0000 </r>
       <r>   16.3708    0.0000 </r>
       <r>   16.4841    0.0000 </r>
      </set>
      <set comment="kpoint 60">
       <r>  -15.4043    1.0000 </r>
       <r>  -15.4017    1.0000 </r>
       <r>  -15.3993    1.0000 </r>
       <r>  -15.3967    1.0000 </r>
       <r>  -15.3893    1.0000 </r>
       <r>  -15.3889    1.0000 </r>
       <r>  -15.3872    1.0000 </r>
       <r>  -15.3862    1.0000 </r>
       <r>  -15.3852    1.0000 </r>
       <r>  -15.3813    1.0000 </r>
       <r>  -15.3700    1.0000 </r>
       <r>  -15.3670    1.0000 </r>
       <r>  -15.3578    1.0000 </r>
       <r>  -15.3550    1.0000 </r>
       <r>  -15.3412    1.0000 </r>
       <r>  -15.3405    1.0000 </r>
       <r>  -15.3314    1.0000 </r>
       <r>  -15.3284    1.0000 </r>
       <r>  -15.3162    1.0000 </r>
       <r>  -15.3153    1.0000 </r>
       <r>   -7.4650    1.0000 </r>
       <r>   -7.3322    1.0000 </r>
       <r>   -6.7656    1.0000 </r>
       <r>   -6.6482    1.0000 </r>
       <r>   -1.9566    1.0000 </r>
       <r>   -1.5782    1.0000 </r>
       <r>   -1.1009    1.0000 </r>
       <r>   -0.8548    1.0000 </r>
       <r>    1.7082    1.0000 </r>
       <r>    1.9069    1.0000 </r>
       <r>    2.3659    1.0000 </r>
       <r>    2.8165    1.0000 </r>
       <r>    3.1528    1.0000 </r>
       <r>    3.4087    1.0000 </r>
       <r>    3.8745    1.0000 </r>
       <r>    4.2326    1.0000 </r>
       <r>    4.6075    1.0000 </r>
       <r>    4.6597    1.0000 </r>
       <r>    5.0679    1.0000 </r>
       <r>    5.1888    1.0000 </r>
       <r>    7.1362    0.0000 </r>
       <r>    7.2022    0.0000 </r>
       <r>    7.5559    0.0000 </r>
       <r>    7.7705    0.0000 </r>
       <r>    8.5153    0.0000 </r>
       <r>    8.8093    0.0000 </r>
       <r>    8.9399    0.0000 </r>
       <r>    9.3752    0.0000 </r>
       <r>    9.7479    0.0000 </r>
       <r>   10.2168    0.0000 </r>
       <r>   10.5368    0.0000 </r>
       <r>   10.7581    0.0000 </r>
       <r>   12.2650    0.0000 </r>
       <r>   12.8845    0.0000 </r>
       <r>   13.1872    0.0000 </r>
       <r>   13.5439    0.0000 </r>
       <r>   13.8628    0.0000 </r>
       <r>   13.8953    0.0000 </r>
       <r>   14.2841    0.0000 </r>
       <r>   14.9370    0.0000 </r>
       <r>   15.3007    0.0000 </r>
       <r>   15.4501    0.0000 </r>
       <r>   16.5043    0.0000 </r>
       <r>   16.6911    0.0000 </r>
      </set>
      <set comment="kpoint 61">
       <r>  -15.4046    1.0000 </r>
       <r>  -15.4018    1.0000 </r>
       <r>  -15.3991    1.0000 </r>
       <r>  -15.3964    1.0000 </r>
       <r>  -15.3906    1.0000 </r>
       <r>  -15.3887    1.0000 </r>
       <r>  -15.3869    1.0000 </r>
       <r>  -15.3860    1.0000 </r>
       <r>  -15.3848    1.0000 </r>
       <r>  -15.3812    1.0000 </r>
       <r>  -15.3700    1.0000 </r>
       <r>  -15.3670    1.0000 </r>
       <r>  -15.3578    1.0000 </r>
       <r>  -15.3550    1.0000 </r>
       <r>  -15.3411    1.0000 </r>
       <r>  -15.3405    1.0000 </r>
       <r>  -15.3315    1.0000 </r>
       <r>  -15.3284    1.0000 </r>
       <r>  -15.3161    1.0000 </r>
       <r>  -15.3154    1.0000 </r>
       <r>   -7.4644    1.0000 </r>
       <r>   -7.3315    1.0000 </r>
       <r>   -6.7666    1.0000 </r>
       <r>   -6.6493    1.0000 </r>
       <r>   -1.9558    1.0000 </r>
       <r>   -1.5745    1.0000 </r>
       <r>   -1.1043    1.0000 </r>
       <r>   -0.8595    1.0000 </r>
       <r>    1.7162    1.0000 </r>
       <r>    1.9111    1.0000 </r>
       <r>    2.3660    1.0000 </r>
       <r>    2.8287    1.0000 </r>
       <r>    3.1507    1.0000 </r>
       <r>    3.4079    1.0000 </r>
       <r>    3.8711    1.0000 </r>
       <r>    4.2256    1.0000 </r>
       <r>    4.5992    1.0000 </r>
       <r>    4.6545    1.0000 </r>
       <r>    5.0624    1.0000 </r>
       <r>    5.1873    1.0000 </r>
       <r>    7.1391    0.0000 </r>
       <r>    7.2164    0.0000 </r>
       <r>    7.5627    0.0000 </r>
       <r>    7.7763    0.0000 </r>
       <r>    8.5213    0.0000 </r>
       <r>    8.8047    0.0000 </r>
       <r>    8.9384    0.0000 </r>
       <r>    9.3633    0.0000 </r>
       <r>    9.7579    0.0000 </r>
       <r>   10.1970    0.0000 </r>
       <r>   10.5359    0.0000 </r>
       <r>   10.7472    0.0000 </r>
       <r>   12.2602    0.0000 </r>
       <r>   12.8910    0.0000 </r>
       <r>   13.1909    0.0000 </r>
       <r>   13.5462    0.0000 </r>
       <r>   13.8578    0.0000 </r>
       <r>   13.9009    0.0000 </r>
       <r>   14.2919    0.0000 </r>
       <r>   14.9490    0.0000 </r>
       <r>   15.3046    0.0000 </r>
       <r>   15.4497    0.0000 </r>
       <r>   16.5068    0.0000 </r>
       <r>   16.6828    0.0000 </r>
      </set>
      <set comment="kpoint 62">
       <r>  -15.4092    1.0000 </r>
       <r>  -15.4064    1.0000 </r>
       <r>  -15.4034    1.0000 </r>
       <r>  -15.4011    1.0000 </r>
       <r>  -15.3900    1.0000 </r>
       <r>  -15.3891    1.0000 </r>
       <r>  -15.3844    1.0000 </r>
       <r>  -15.3835    1.0000 </r>
       <r>  -15.3830    1.0000 </r>
       <r>  -15.3801    1.0000 </r>
       <r>  -15.3693    1.0000 </r>
       <r>  -15.3665    1.0000 </r>
       <r>  -15.3550    1.0000 </r>
       <r>  -15.3528    1.0000 </r>
       <r>  -15.3402    1.0000 </r>
       <r>  -15.3395    1.0000 </r>
       <r>  -15.3315    1.0000 </r>
       <r>  -15.3291    1.0000 </r>
       <r>  -15.3158    1.0000 </r>
       <r>  -15.3150    1.0000 </r>
       <r>   -7.2976    1.0000 </r>
       <r>   -7.1771    1.0000 </r>
       <r>   -6.7226    1.0000 </r>
       <r>   -6.6194    1.0000 </r>
       <r>   -1.8446    1.0000 </r>
       <r>   -1.4474    1.0000 </r>
       <r>   -0.9760    1.0000 </r>
       <r>   -0.8567    1.0000 </r>
       <r>    1.1555    1.0000 </r>
       <r>    1.3663    1.0000 </r>
       <r>    2.1074    1.0000 </r>
       <r>    2.2311    1.0000 </r>
       <r>    2.4228    1.0000 </r>
       <r>    3.1039    1.0000 </r>
       <r>    3.6096    1.0000 </r>
       <r>    3.8534    1.0000 </r>
       <r>    3.9831    1.0000 </r>
       <r>    4.3004    1.0000 </r>
       <r>    4.7960    1.0000 </r>
       <r>    5.2157    1.0000 </r>
       <r>    7.3020    0.0000 </r>
       <r>    7.8803    0.0000 </r>
       <r>    8.2223    0.0000 </r>
       <r>    8.4273    0.0000 </r>
       <r>    8.7573    0.0000 </r>
       <r>    8.9544    0.0000 </r>
       <r>    9.7405    0.0000 </r>
       <r>   10.0060    0.0000 </r>
       <r>   10.2025    0.0000 </r>
       <r>   10.4939    0.0000 </r>
       <r>   11.4414    0.0000 </r>
       <r>   11.6739    0.0000 </r>
       <r>   12.1698    0.0000 </r>
       <r>   12.6517    0.0000 </r>
       <r>   13.3344    0.0000 </r>
       <r>   13.9385    0.0000 </r>
       <r>   14.1864    0.0000 </r>
       <r>   14.2981    0.0000 </r>
       <r>   14.6340    0.0000 </r>
       <r>   14.8819    0.0000 </r>
       <r>   15.4025    0.0000 </r>
       <r>   16.0018    0.0000 </r>
       <r>   16.1501    0.0000 </r>
       <r>   16.5326    0.0000 </r>
      </set>
      <set comment="kpoint 63">
       <r>  -15.4096    1.0000 </r>
       <r>  -15.4062    1.0000 </r>
       <r>  -15.4034    1.0000 </r>
       <r>  -15.4007    1.0000 </r>
       <r>  -15.3908    1.0000 </r>
       <r>  -15.3890    1.0000 </r>
       <r>  -15.3841    1.0000 </r>
       <r>  -15.3837    1.0000 </r>
       <r>  -15.3825    1.0000 </r>
       <r>  -15.3800    1.0000 </r>
       <r>  -15.3692    1.0000 </r>
       <r>  -15.3665    1.0000 </r>
       <r>  -15.3550    1.0000 </r>
       <r>  -15.3529    1.0000 </r>
       <r>  -15.3401    1.0000 </r>
       <r>  -15.3395    1.0000 </r>
       <r>  -15.3315    1.0000 </r>
       <r>  -15.3290    1.0000 </r>
       <r>  -15.3157    1.0000 </r>
       <r>  -15.3152    1.0000 </r>
       <r>   -7.2962    1.0000 </r>
       <r>   -7.1759    1.0000 </r>
       <r>   -6.7245    1.0000 </r>
       <r>   -6.6214    1.0000 </r>
       <r>   -1.8421    1.0000 </r>
       <r>   -1.4423    1.0000 </r>
       <r>   -0.9816    1.0000 </r>
       <r>   -0.8643    1.0000 </r>
       <r>    1.1587    1.0000 </r>
       <r>    1.3688    1.0000 </r>
       <r>    2.1158    1.0000 </r>
       <r>    2.2449    1.0000 </r>
       <r>    2.4271    1.0000 </r>
       <r>    3.1056    1.0000 </r>
       <r>    3.6035    1.0000 </r>
       <r>    3.8482    1.0000 </r>
       <r>    3.9645    1.0000 </r>
       <r>    4.2937    1.0000 </r>
       <r>    4.7949    1.0000 </r>
       <r>    5.2155    1.0000 </r>
       <r>    7.3104    0.0000 </r>
       <r>    7.8886    0.0000 </r>
       <r>    8.2360    0.0000 </r>
       <r>    8.4206    0.0000 </r>
       <r>    8.7716    0.0000 </r>
       <r>    8.9473    0.0000 </r>
       <r>    9.7435    0.0000 </r>
       <r>   10.0084    0.0000 </r>
       <r>   10.1994    0.0000 </r>
       <r>   10.4685    0.0000 </r>
       <r>   11.4308    0.0000 </r>
       <r>   11.6556    0.0000 </r>
       <r>   12.1543    0.0000 </r>
       <r>   12.6658    0.0000 </r>
       <r>   13.3219    0.0000 </r>
       <r>   13.9579    0.0000 </r>
       <r>   14.1974    0.0000 </r>
       <r>   14.3012    0.0000 </r>
       <r>   14.6507    0.0000 </r>
       <r>   14.8978    0.0000 </r>
       <r>   15.4152    0.0000 </r>
       <r>   16.0099    0.0000 </r>
       <r>   16.1402    0.0000 </r>
       <r>   16.5221    0.0000 </r>
      </set>
      <set comment="kpoint 64">
       <r>  -15.4132    1.0000 </r>
       <r>  -15.4117    1.0000 </r>
       <r>  -15.4068    1.0000 </r>
       <r>  -15.4056    1.0000 </r>
       <r>  -15.3902    1.0000 </r>
       <r>  -15.3896    1.0000 </r>
       <r>  -15.3825    1.0000 </r>
       <r>  -15.3817    1.0000 </r>
       <r>  -15.3806    1.0000 </r>
       <r>  -15.3795    1.0000 </r>
       <r>  -15.3682    1.0000 </r>
       <r>  -15.3665    1.0000 </r>
       <r>  -15.3517    1.0000 </r>
       <r>  -15.3505    1.0000 </r>
       <r>  -15.3389    1.0000 </r>
       <r>  -15.3384    1.0000 </r>
       <r>  -15.3311    1.0000 </r>
       <r>  -15.3298    1.0000 </r>
       <r>  -15.3153    1.0000 </r>
       <r>  -15.3148    1.0000 </r>
       <r>   -7.0774    1.0000 </r>
       <r>   -6.9808    1.0000 </r>
       <r>   -6.7131    1.0000 </r>
       <r>   -6.6297    1.0000 </r>
       <r>   -1.7655    1.0000 </r>
       <r>   -1.5085    1.0000 </r>
       <r>   -0.7938    1.0000 </r>
       <r>   -0.7599    1.0000 </r>
       <r>    0.8615    1.0000 </r>
       <r>    1.0954    1.0000 </r>
       <r>    1.6526    1.0000 </r>
       <r>    1.8846    1.0000 </r>
       <r>    2.1927    1.0000 </r>
       <r>    2.6247    1.0000 </r>
       <r>    2.8461    1.0000 </r>
       <r>    3.4559    1.0000 </r>
       <r>    3.7194    1.0000 </r>
       <r>    4.0677    1.0000 </r>
       <r>    4.4490    1.0000 </r>
       <r>    4.7774    1.0000 </r>
       <r>    7.6031    0.0000 </r>
       <r>    8.2423    0.0000 </r>
       <r>    8.8611    0.0000 </r>
       <r>    9.0643    0.0000 </r>
       <r>    9.1534    0.0000 </r>
       <r>    9.5565    0.0000 </r>
       <r>   10.5525    0.0000 </r>
       <r>   10.6291    0.0000 </r>
       <r>   10.7511    0.0000 </r>
       <r>   10.9214    0.0000 </r>
       <r>   11.9237    0.0000 </r>
       <r>   11.9992    0.0000 </r>
       <r>   12.1384    0.0000 </r>
       <r>   12.3499    0.0000 </r>
       <r>   13.1574    0.0000 </r>
       <r>   13.4739    0.0000 </r>
       <r>   14.9783    0.0000 </r>
       <r>   15.3571    0.0000 </r>
       <r>   15.5108    0.0000 </r>
       <r>   15.5312    0.0000 </r>
       <r>   16.0129    0.0000 </r>
       <r>   16.1748    0.0000 </r>
       <r>   16.4097    0.0000 </r>
       <r>   16.7636    0.0000 </r>
      </set>
      <set comment="kpoint 65">
       <r>  -15.4136    1.0000 </r>
       <r>  -15.4114    1.0000 </r>
       <r>  -15.4070    1.0000 </r>
       <r>  -15.4053    1.0000 </r>
       <r>  -15.3908    1.0000 </r>
       <r>  -15.3894    1.0000 </r>
       <r>  -15.3821    1.0000 </r>
       <r>  -15.3820    1.0000 </r>
       <r>  -15.3804    1.0000 </r>
       <r>  -15.3793    1.0000 </r>
       <r>  -15.3682    1.0000 </r>
       <r>  -15.3665    1.0000 </r>
       <r>  -15.3516    1.0000 </r>
       <r>  -15.3506    1.0000 </r>
       <r>  -15.3389    1.0000 </r>
       <r>  -15.3385    1.0000 </r>
       <r>  -15.3312    1.0000 </r>
       <r>  -15.3297    1.0000 </r>
       <r>  -15.3152    1.0000 </r>
       <r>  -15.3150    1.0000 </r>
       <r>   -7.0755    1.0000 </r>
       <r>   -6.9793    1.0000 </r>
       <r>   -6.7151    1.0000 </r>
       <r>   -6.6321    1.0000 </r>
       <r>   -1.7610    1.0000 </r>
       <r>   -1.5096    1.0000 </r>
       <r>   -0.7908    1.0000 </r>
       <r>   -0.7698    1.0000 </r>
       <r>    0.8599    1.0000 </r>
       <r>    1.0891    1.0000 </r>
       <r>    1.6668    1.0000 </r>
       <r>    1.9002    1.0000 </r>
       <r>    2.2016    1.0000 </r>
       <r>    2.6230    1.0000 </r>
       <r>    2.8374    1.0000 </r>
       <r>    3.4511    1.0000 </r>
       <r>    3.6993    1.0000 </r>
       <r>    4.0717    1.0000 </r>
       <r>    4.4408    1.0000 </r>
       <r>    4.7863    1.0000 </r>
       <r>    7.6074    0.0000 </r>
       <r>    8.2468    0.0000 </r>
       <r>    8.8542    0.0000 </r>
       <r>    9.0720    0.0000 </r>
       <r>    9.1596    0.0000 </r>
       <r>    9.5652    0.0000 </r>
       <r>   10.5425    0.0000 </r>
       <r>   10.6365    0.0000 </r>
       <r>   10.7451    0.0000 </r>
       <r>   10.9085    0.0000 </r>
       <r>   11.9165    0.0000 </r>
       <r>   11.9849    0.0000 </r>
       <r>   12.1234    0.0000 </r>
       <r>   12.3635    0.0000 </r>
       <r>   13.1362    0.0000 </r>
       <r>   13.4920    0.0000 </r>
       <r>   14.9878    0.0000 </r>
       <r>   15.3720    0.0000 </r>
       <r>   15.5257    0.0000 </r>
       <r>   15.5431    0.0000 </r>
       <r>   16.0169    0.0000 </r>
       <r>   16.1878    0.0000 </r>
       <r>   16.4247    0.0000 </r>
       <r>   16.7481    0.0000 </r>
      </set>
      <set comment="kpoint 66">
       <r>  -15.4146    1.0000 </r>
       <r>  -15.4142    1.0000 </r>
       <r>  -15.4080    1.0000 </r>
       <r>  -15.4077    1.0000 </r>
       <r>  -15.3904    1.0000 </r>
       <r>  -15.3899    1.0000 </r>
       <r>  -15.3815    1.0000 </r>
       <r>  -15.3813    1.0000 </r>
       <r>  -15.3797    1.0000 </r>
       <r>  -15.3793    1.0000 </r>
       <r>  -15.3671    1.0000 </r>
       <r>  -15.3671    1.0000 </r>
       <r>  -15.3499    1.0000 </r>
       <r>  -15.3499    1.0000 </r>
       <r>  -15.3382    1.0000 </r>
       <r>  -15.3381    1.0000 </r>
       <r>  -15.3304    1.0000 </r>
       <r>  -15.3304    1.0000 </r>
       <r>  -15.3150    1.0000 </r>
       <r>  -15.3148    1.0000 </r>
       <r>   -6.9063    1.0000 </r>
       <r>   -6.9050    1.0000 </r>
       <r>   -6.7062    1.0000 </r>
       <r>   -6.7049    1.0000 </r>
       <r>   -1.6788    1.0000 </r>
       <r>   -1.6740    1.0000 </r>
       <r>   -0.6949    1.0000 </r>
       <r>   -0.6833    1.0000 </r>
       <r>    1.0712    1.0000 </r>
       <r>    1.0786    1.0000 </r>
       <r>    1.3469    1.0000 </r>
       <r>    1.3612    1.0000 </r>
       <r>    2.3188    1.0000 </r>
       <r>    2.3338    1.0000 </r>
       <r>    2.9297    1.0000 </r>
       <r>    2.9415    1.0000 </r>
       <r>    3.7658    1.0000 </r>
       <r>    3.7830    1.0000 </r>
       <r>    4.5034    1.0000 </r>
       <r>    4.5136    1.0000 </r>
       <r>    7.8487    0.0000 </r>
       <r>    7.8701    0.0000 </r>
       <r>    9.1433    0.0000 </r>
       <r>    9.1617    0.0000 </r>
       <r>   10.1021    0.0000 </r>
       <r>   10.1109    0.0000 </r>
       <r>   10.3182    0.0000 </r>
       <r>   10.3282    0.0000 </r>
       <r>   11.4586    0.0000 </r>
       <r>   11.4675    0.0000 </r>
       <r>   11.8559    0.0000 </r>
       <r>   11.8576    0.0000 </r>
       <r>   12.2664    0.0000 </r>
       <r>   12.2860    0.0000 </r>
       <r>   13.1913    0.0000 </r>
       <r>   13.2170    0.0000 </r>
       <r>   15.1100    0.0000 </r>
       <r>   15.1229    0.0000 </r>
       <r>   16.3738    0.0000 </r>
       <r>   16.3792    0.0000 </r>
       <r>   16.6309    0.0000 </r>
       <r>   16.6425    0.0000 </r>
       <r>   17.1864    0.0000 </r>
       <r>   17.1900    0.0000 </r>
      </set>
      <set comment="kpoint 67">
       <r>  -15.4034    1.0000 </r>
       <r>  -15.4016    1.0000 </r>
       <r>  -15.4007    1.0000 </r>
       <r>  -15.3987    1.0000 </r>
       <r>  -15.3890    1.0000 </r>
       <r>  -15.3889    1.0000 </r>
       <r>  -15.3875    1.0000 </r>
       <r>  -15.3866    1.0000 </r>
       <r>  -15.3775    1.0000 </r>
       <r>  -15.3744    1.0000 </r>
       <r>  -15.3705    1.0000 </r>
       <r>  -15.3702    1.0000 </r>
       <r>  -15.3538    1.0000 </r>
       <r>  -15.3515    1.0000 </r>
       <r>  -15.3476    1.0000 </r>
       <r>  -15.3467    1.0000 </r>
       <r>  -15.3256    1.0000 </r>
       <r>  -15.3233    1.0000 </r>
       <r>  -15.3200    1.0000 </r>
       <r>  -15.3190    1.0000 </r>
       <r>   -7.1735    1.0000 </r>
       <r>   -7.0957    1.0000 </r>
       <r>   -6.8728    1.0000 </r>
       <r>   -6.8588    1.0000 </r>
       <r>   -2.0617    1.0000 </r>
       <r>   -1.7632    1.0000 </r>
       <r>   -1.6975    1.0000 </r>
       <r>   -1.4079    1.0000 </r>
       <r>    2.2396    1.0000 </r>
       <r>    2.7979    1.0000 </r>
       <r>    3.1714    1.0000 </r>
       <r>    3.4181    1.0000 </r>
       <r>    3.4263    1.0000 </r>
       <r>    3.8378    1.0000 </r>
       <r>    3.8520    1.0000 </r>
       <r>    3.8893    1.0000 </r>
       <r>    4.5582    1.0000 </r>
       <r>    4.7365    1.0000 </r>
       <r>    5.1125    1.0000 </r>
       <r>    5.2354    1.0000 </r>
       <r>    6.8307    0.0000 </r>
       <r>    7.0379    0.0000 </r>
       <r>    7.3333    0.0000 </r>
       <r>    7.5347    0.0000 </r>
       <r>    7.8315    0.0000 </r>
       <r>    8.0223    0.0000 </r>
       <r>    8.0268    0.0000 </r>
       <r>    8.3539    0.0000 </r>
       <r>    8.9637    0.0000 </r>
       <r>    9.3801    0.0000 </r>
       <r>   10.2048    0.0000 </r>
       <r>   10.3735    0.0000 </r>
       <r>   13.2153    0.0000 </r>
       <r>   13.5553    0.0000 </r>
       <r>   13.9517    0.0000 </r>
       <r>   14.0042    0.0000 </r>
       <r>   14.4505    0.0000 </r>
       <r>   14.5328    0.0000 </r>
       <r>   14.7292    0.0000 </r>
       <r>   15.1517    0.0000 </r>
       <r>   15.7862    0.0000 </r>
       <r>   15.8033    0.0000 </r>
       <r>   16.0403    0.0000 </r>
       <r>   16.3261    0.0000 </r>
      </set>
      <set comment="kpoint 68">
       <r>  -15.4058    1.0000 </r>
       <r>  -15.4044    1.0000 </r>
       <r>  -15.4023    1.0000 </r>
       <r>  -15.4008    1.0000 </r>
       <r>  -15.3890    1.0000 </r>
       <r>  -15.3881    1.0000 </r>
       <r>  -15.3872    1.0000 </r>
       <r>  -15.3857    1.0000 </r>
       <r>  -15.3767    1.0000 </r>
       <r>  -15.3740    1.0000 </r>
       <r>  -15.3703    1.0000 </r>
       <r>  -15.3698    1.0000 </r>
       <r>  -15.3528    1.0000 </r>
       <r>  -15.3508    1.0000 </r>
       <r>  -15.3467    1.0000 </r>
       <r>  -15.3459    1.0000 </r>
       <r>  -15.3256    1.0000 </r>
       <r>  -15.3237    1.0000 </r>
       <r>  -15.3196    1.0000 </r>
       <r>  -15.3190    1.0000 </r>
       <r>   -7.1245    1.0000 </r>
       <r>   -7.0500    1.0000 </r>
       <r>   -6.8398    1.0000 </r>
       <r>   -6.8256    1.0000 </r>
       <r>   -1.9676    1.0000 </r>
       <r>   -1.6785    1.0000 </r>
       <r>   -1.6052    1.0000 </r>
       <r>   -1.3439    1.0000 </r>
       <r>    2.1507    1.0000 </r>
       <r>    2.2971    1.0000 </r>
       <r>    2.6104    1.0000 </r>
       <r>    2.8770    1.0000 </r>
       <r>    3.0397    1.0000 </r>
       <r>    3.4622    1.0000 </r>
       <r>    3.6355    1.0000 </r>
       <r>    4.0241    1.0000 </r>
       <r>    4.4385    1.0000 </r>
       <r>    4.7329    1.0000 </r>
       <r>    4.7636    1.0000 </r>
       <r>    5.0305    1.0000 </r>
       <r>    7.1063    0.0000 </r>
       <r>    7.1778    0.0000 </r>
       <r>    7.3365    0.0000 </r>
       <r>    7.6045    0.0000 </r>
       <r>    8.4265    0.0000 </r>
       <r>    8.6944    0.0000 </r>
       <r>    8.8647    0.0000 </r>
       <r>    9.2404    0.0000 </r>
       <r>    9.3198    0.0000 </r>
       <r>    9.9297    0.0000 </r>
       <r>   10.2092    0.0000 </r>
       <r>   10.2930    0.0000 </r>
       <r>   12.4614    0.0000 </r>
       <r>   12.8315    0.0000 </r>
       <r>   13.8643    0.0000 </r>
       <r>   14.2529    0.0000 </r>
       <r>   14.6509    0.0000 </r>
       <r>   14.8506    0.0000 </r>
       <r>   14.9573    0.0000 </r>
       <r>   15.5093    0.0000 </r>
       <r>   15.8970    0.0000 </r>
       <r>   16.0103    0.0000 </r>
       <r>   16.5004    0.0000 </r>
       <r>   16.8077    0.0000 </r>
      </set>
      <set comment="kpoint 69">
       <r>  -15.4060    1.0000 </r>
       <r>  -15.4040    1.0000 </r>
       <r>  -15.4026    1.0000 </r>
       <r>  -15.4006    1.0000 </r>
       <r>  -15.3894    1.0000 </r>
       <r>  -15.3884    1.0000 </r>
       <r>  -15.3863    1.0000 </r>
       <r>  -15.3860    1.0000 </r>
       <r>  -15.3766    1.0000 </r>
       <r>  -15.3740    1.0000 </r>
       <r>  -15.3703    1.0000 </r>
       <r>  -15.3699    1.0000 </r>
       <r>  -15.3528    1.0000 </r>
       <r>  -15.3509    1.0000 </r>
       <r>  -15.3467    1.0000 </r>
       <r>  -15.3458    1.0000 </r>
       <r>  -15.3257    1.0000 </r>
       <r>  -15.3234    1.0000 </r>
       <r>  -15.3199    1.0000 </r>
       <r>  -15.3189    1.0000 </r>
       <r>   -7.1235    1.0000 </r>
       <r>   -7.0492    1.0000 </r>
       <r>   -6.8412    1.0000 </r>
       <r>   -6.8264    1.0000 </r>
       <r>   -1.9659    1.0000 </r>
       <r>   -1.6804    1.0000 </r>
       <r>   -1.6016    1.0000 </r>
       <r>   -1.3484    1.0000 </r>
       <r>    2.1576    1.0000 </r>
       <r>    2.2973    1.0000 </r>
       <r>    2.6130    1.0000 </r>
       <r>    2.8672    1.0000 </r>
       <r>    3.0532    1.0000 </r>
       <r>    3.4488    1.0000 </r>
       <r>    3.6449    1.0000 </r>
       <r>    4.0187    1.0000 </r>
       <r>    4.4367    1.0000 </r>
       <r>    4.7282    1.0000 </r>
       <r>    4.7634    1.0000 </r>
       <r>    5.0299    1.0000 </r>
       <r>    7.1177    0.0000 </r>
       <r>    7.1696    0.0000 </r>
       <r>    7.3449    0.0000 </r>
       <r>    7.6024    0.0000 </r>
       <r>    8.4284    0.0000 </r>
       <r>    8.6924    0.0000 </r>
       <r>    8.8620    0.0000 </r>
       <r>    9.2419    0.0000 </r>
       <r>    9.3217    0.0000 </r>
       <r>    9.9240    0.0000 </r>
       <r>   10.2026    0.0000 </r>
       <r>   10.2969    0.0000 </r>
       <r>   12.4494    0.0000 </r>
       <r>   12.8430    0.0000 </r>
       <r>   13.8509    0.0000 </r>
       <r>   14.2702    0.0000 </r>
       <r>   14.6478    0.0000 </r>
       <r>   14.8535    0.0000 </r>
       <r>   14.9608    0.0000 </r>
       <r>   15.5101    0.0000 </r>
       <r>   15.9025    0.0000 </r>
       <r>   16.0127    0.0000 </r>
       <r>   16.4941    0.0000 </r>
       <r>   16.8089    0.0000 </r>
      </set>
      <set comment="kpoint 70">
       <r>  -15.4113    1.0000 </r>
       <r>  -15.4103    1.0000 </r>
       <r>  -15.4068    1.0000 </r>
       <r>  -15.4058    1.0000 </r>
       <r>  -15.3888    1.0000 </r>
       <r>  -15.3880    1.0000 </r>
       <r>  -15.3853    1.0000 </r>
       <r>  -15.3843    1.0000 </r>
       <r>  -15.3750    1.0000 </r>
       <r>  -15.3732    1.0000 </r>
       <r>  -15.3697    1.0000 </r>
       <r>  -15.3691    1.0000 </r>
       <r>  -15.3503    1.0000 </r>
       <r>  -15.3490    1.0000 </r>
       <r>  -15.3444    1.0000 </r>
       <r>  -15.3439    1.0000 </r>
       <r>  -15.3255    1.0000 </r>
       <r>  -15.3242    1.0000 </r>
       <r>  -15.3191    1.0000 </r>
       <r>  -15.3189    1.0000 </r>
       <r>   -6.9955    1.0000 </r>
       <r>   -6.9311    1.0000 </r>
       <r>   -6.7629    1.0000 </r>
       <r>   -6.7469    1.0000 </r>
       <r>   -1.7076    1.0000 </r>
       <r>   -1.4545    1.0000 </r>
       <r>   -1.3442    1.0000 </r>
       <r>   -1.1812    1.0000 </r>
       <r>    1.3643    1.0000 </r>
       <r>    1.6183    1.0000 </r>
       <r>    1.9187    1.0000 </r>
       <r>    2.1102    1.0000 </r>
       <r>    2.4604    1.0000 </r>
       <r>    2.9459    1.0000 </r>
       <r>    3.1233    1.0000 </r>
       <r>    3.5745    1.0000 </r>
       <r>    3.7634    1.0000 </r>
       <r>    4.1307    1.0000 </r>
       <r>    4.3964    1.0000 </r>
       <r>    4.7850    1.0000 </r>
       <r>    7.5337    0.0000 </r>
       <r>    7.9089    0.0000 </r>
       <r>    8.4586    0.0000 </r>
       <r>    8.7453    0.0000 </r>
       <r>    9.0835    0.0000 </r>
       <r>    9.1907    0.0000 </r>
       <r>    9.6449    0.0000 </r>
       <r>    9.7803    0.0000 </r>
       <r>   10.4075    0.0000 </r>
       <r>   10.6447    0.0000 </r>
       <r>   11.0372    0.0000 </r>
       <r>   11.4001    0.0000 </r>
       <r>   12.0896    0.0000 </r>
       <r>   12.2498    0.0000 </r>
       <r>   13.5216    0.0000 </r>
       <r>   13.6052    0.0000 </r>
       <r>   14.9303    0.0000 </r>
       <r>   15.2679    0.0000 </r>
       <r>   15.4178    0.0000 </r>
       <r>   15.9962    0.0000 </r>
       <r>   16.3538    0.0000 </r>
       <r>   16.5259    0.0000 </r>
       <r>   16.9276    0.0000 </r>
       <r>   17.2157    0.0000 </r>
      </set>
      <set comment="kpoint 71">
       <r>  -15.4117    1.0000 </r>
       <r>  -15.4099    1.0000 </r>
       <r>  -15.4071    1.0000 </r>
       <r>  -15.4055    1.0000 </r>
       <r>  -15.3893    1.0000 </r>
       <r>  -15.3878    1.0000 </r>
       <r>  -15.3852    1.0000 </r>
       <r>  -15.3841    1.0000 </r>
       <r>  -15.3748    1.0000 </r>
       <r>  -15.3732    1.0000 </r>
       <r>  -15.3698    1.0000 </r>
       <r>  -15.3691    1.0000 </r>
       <r>  -15.3502    1.0000 </r>
       <r>  -15.3491    1.0000 </r>
       <r>  -15.3444    1.0000 </r>
       <r>  -15.3439    1.0000 </r>
       <r>  -15.3258    1.0000 </r>
       <r>  -15.3239    1.0000 </r>
       <r>  -15.3195    1.0000 </r>
       <r>  -15.3186    1.0000 </r>
       <r>   -6.9935    1.0000 </r>
       <r>   -6.9295    1.0000 </r>
       <r>   -6.7654    1.0000 </r>
       <r>   -6.7485    1.0000 </r>
       <r>   -1.7037    1.0000 </r>
       <r>   -1.4544    1.0000 </r>
       <r>   -1.3419    1.0000 </r>
       <r>   -1.1895    1.0000 </r>
       <r>    1.3641    1.0000 </r>
       <r>    1.6209    1.0000 </r>
       <r>    1.9218    1.0000 </r>
       <r>    2.1110    1.0000 </r>
       <r>    2.4713    1.0000 </r>
       <r>    2.9363    1.0000 </r>
       <r>    3.1332    1.0000 </r>
       <r>    3.5667    1.0000 </r>
       <r>    3.7497    1.0000 </r>
       <r>    4.1374    1.0000 </r>
       <r>    4.3884    1.0000 </r>
       <r>    4.7897    1.0000 </r>
       <r>    7.5372    0.0000 </r>
       <r>    7.9086    0.0000 </r>
       <r>    8.4640    0.0000 </r>
       <r>    8.7465    0.0000 </r>
       <r>    9.0891    0.0000 </r>
       <r>    9.1868    0.0000 </r>
       <r>    9.6516    0.0000 </r>
       <r>    9.7734    0.0000 </r>
       <r>   10.3965    0.0000 </r>
       <r>   10.6494    0.0000 </r>
       <r>   11.0351    0.0000 </r>
       <r>   11.3910    0.0000 </r>
       <r>   12.0800    0.0000 </r>
       <r>   12.2578    0.0000 </r>
       <r>   13.5022    0.0000 </r>
       <r>   13.6242    0.0000 </r>
       <r>   14.9368    0.0000 </r>
       <r>   15.2740    0.0000 </r>
       <r>   15.4270    0.0000 </r>
       <r>   16.0008    0.0000 </r>
       <r>   16.3541    0.0000 </r>
       <r>   16.5265    0.0000 </r>
       <r>   16.9332    0.0000 </r>
       <r>   17.2046    0.0000 </r>
      </set>
      <set comment="kpoint 72">
       <r>  -15.4165    1.0000 </r>
       <r>  -15.4161    1.0000 </r>
       <r>  -15.4112    1.0000 </r>
       <r>  -15.4108    1.0000 </r>
       <r>  -15.3888    1.0000 </r>
       <r>  -15.3881    1.0000 </r>
       <r>  -15.3841    1.0000 </r>
       <r>  -15.3833    1.0000 </r>
       <r>  -15.3733    1.0000 </r>
       <r>  -15.3724    1.0000 </r>
       <r>  -15.3689    1.0000 </r>
       <r>  -15.3684    1.0000 </r>
       <r>  -15.3474    1.0000 </r>
       <r>  -15.3468    1.0000 </r>
       <r>  -15.3421    1.0000 </r>
       <r>  -15.3418    1.0000 </r>
       <r>  -15.3252    1.0000 </r>
       <r>  -15.3247    1.0000 </r>
       <r>  -15.3187    1.0000 </r>
       <r>  -15.3186    1.0000 </r>
       <r>   -6.8415    1.0000 </r>
       <r>   -6.7946    1.0000 </r>
       <r>   -6.6957    1.0000 </r>
       <r>   -6.6765    1.0000 </r>
       <r>   -1.3897    1.0000 </r>
       <r>   -1.2266    1.0000 </r>
       <r>   -1.0066    1.0000 </r>
       <r>   -0.9488    1.0000 </r>
       <r>    0.7909    1.0000 </r>
       <r>    1.1381    1.0000 </r>
       <r>    1.1939    1.0000 </r>
       <r>    1.6109    1.0000 </r>
       <r>    1.8354    1.0000 </r>
       <r>    2.2195    1.0000 </r>
       <r>    2.3615    1.0000 </r>
       <r>    2.8524    1.0000 </r>
       <r>    3.6729    1.0000 </r>
       <r>    3.9790    1.0000 </r>
       <r>    4.3684    1.0000 </r>
       <r>    4.5290    1.0000 </r>
       <r>    7.8520    0.0000 </r>
       <r>    8.1678    0.0000 </r>
       <r>    8.6026    0.0000 </r>
       <r>    8.8899    0.0000 </r>
       <r>    9.9742    0.0000 </r>
       <r>   10.0271    0.0000 </r>
       <r>   10.4571    0.0000 </r>
       <r>   10.5855    0.0000 </r>
       <r>   11.5550    0.0000 </r>
       <r>   11.8136    0.0000 </r>
       <r>   12.1317    0.0000 </r>
       <r>   12.1625    0.0000 </r>
       <r>   12.2393    0.0000 </r>
       <r>   12.5051    0.0000 </r>
       <r>   13.1632    0.0000 </r>
       <r>   13.2810    0.0000 </r>
       <r>   15.1588    0.0000 </r>
       <r>   15.3683    0.0000 </r>
       <r>   16.1560    0.0000 </r>
       <r>   16.3704    0.0000 </r>
       <r>   16.8095    0.0000 </r>
       <r>   16.9268    0.0000 </r>
       <r>   17.1036    0.0000 </r>
       <r>   17.1512    0.0000 </r>
      </set>
      <set comment="kpoint 73">
       <r>  -15.4169    1.0000 </r>
       <r>  -15.4156    1.0000 </r>
       <r>  -15.4115    1.0000 </r>
       <r>  -15.4105    1.0000 </r>
       <r>  -15.3892    1.0000 </r>
       <r>  -15.3878    1.0000 </r>
       <r>  -15.3842    1.0000 </r>
       <r>  -15.3830    1.0000 </r>
       <r>  -15.3732    1.0000 </r>
       <r>  -15.3724    1.0000 </r>
       <r>  -15.3689    1.0000 </r>
       <r>  -15.3684    1.0000 </r>
       <r>  -15.3474    1.0000 </r>
       <r>  -15.3469    1.0000 </r>
       <r>  -15.3421    1.0000 </r>
       <r>  -15.3418    1.0000 </r>
       <r>  -15.3255    1.0000 </r>
       <r>  -15.3243    1.0000 </r>
       <r>  -15.3190    1.0000 </r>
       <r>  -15.3184    1.0000 </r>
       <r>   -6.8388    1.0000 </r>
       <r>   -6.7929    1.0000 </r>
       <r>   -6.6983    1.0000 </r>
       <r>   -6.6788    1.0000 </r>
       <r>   -1.3838    1.0000 </r>
       <r>   -1.2256    1.0000 </r>
       <r>   -1.0225    1.0000 </r>
       <r>   -0.9406    1.0000 </r>
       <r>    0.7828    1.0000 </r>
       <r>    1.1343    1.0000 </r>
       <r>    1.1996    1.0000 </r>
       <r>    1.6299    1.0000 </r>
       <r>    1.8392    1.0000 </r>
       <r>    2.2094    1.0000 </r>
       <r>    2.3671    1.0000 </r>
       <r>    2.8437    1.0000 </r>
       <r>    3.6648    1.0000 </r>
       <r>    3.9830    1.0000 </r>
       <r>    4.3614    1.0000 </r>
       <r>    4.5364    1.0000 </r>
       <r>    7.8478    0.0000 </r>
       <r>    8.1850    0.0000 </r>
       <r>    8.5860    0.0000 </r>
       <r>    8.8956    0.0000 </r>
       <r>    9.9837    0.0000 </r>
       <r>   10.0354    0.0000 </r>
       <r>   10.4480    0.0000 </r>
       <r>   10.5716    0.0000 </r>
       <r>   11.5589    0.0000 </r>
       <r>   11.8208    0.0000 </r>
       <r>   12.1336    0.0000 </r>
       <r>   12.1479    0.0000 </r>
       <r>   12.2518    0.0000 </r>
       <r>   12.4869    0.0000 </r>
       <r>   13.1504    0.0000 </r>
       <r>   13.2923    0.0000 </r>
       <r>   15.1666    0.0000 </r>
       <r>   15.3699    0.0000 </r>
       <r>   16.1724    0.0000 </r>
       <r>   16.3617    0.0000 </r>
       <r>   16.8192    0.0000 </r>
       <r>   16.9309    0.0000 </r>
       <r>   17.1175    0.0000 </r>
       <r>   17.1604    0.0000 </r>
      </set>
      <set comment="kpoint 74">
       <r>  -15.4187    1.0000 </r>
       <r>  -15.4183    1.0000 </r>
       <r>  -15.4131    1.0000 </r>
       <r>  -15.4128    1.0000 </r>
       <r>  -15.3891    1.0000 </r>
       <r>  -15.3881    1.0000 </r>
       <r>  -15.3838    1.0000 </r>
       <r>  -15.3828    1.0000 </r>
       <r>  -15.3724    1.0000 </r>
       <r>  -15.3723    1.0000 </r>
       <r>  -15.3684    1.0000 </r>
       <r>  -15.3683    1.0000 </r>
       <r>  -15.3461    1.0000 </r>
       <r>  -15.3460    1.0000 </r>
       <r>  -15.3410    1.0000 </r>
       <r>  -15.3410    1.0000 </r>
       <r>  -15.3250    1.0000 </r>
       <r>  -15.3247    1.0000 </r>
       <r>  -15.3187    1.0000 </r>
       <r>  -15.3183    1.0000 </r>
       <r>   -6.7433    1.0000 </r>
       <r>   -6.7414    1.0000 </r>
       <r>   -6.6699    1.0000 </r>
       <r>   -6.6686    1.0000 </r>
       <r>   -1.2080    1.0000 </r>
       <r>   -1.2003    1.0000 </r>
       <r>   -0.8042    1.0000 </r>
       <r>   -0.7880    1.0000 </r>
       <r>    0.7328    1.0000 </r>
       <r>    0.7521    1.0000 </r>
       <r>    1.1522    1.0000 </r>
       <r>    1.1780    1.0000 </r>
       <r>    1.7287    1.0000 </r>
       <r>    1.7388    1.0000 </r>
       <r>    2.2671    1.0000 </r>
       <r>    2.2779    1.0000 </r>
       <r>    3.8675    1.0000 </r>
       <r>    3.8768    1.0000 </r>
       <r>    4.4052    1.0000 </r>
       <r>    4.4135    1.0000 </r>
       <r>    8.0232    0.0000 </r>
       <r>    8.0512    0.0000 </r>
       <r>    8.5732    0.0000 </r>
       <r>    8.5992    0.0000 </r>
       <r>   10.6249    0.0000 </r>
       <r>   10.6313    0.0000 </r>
       <r>   10.8066    0.0000 </r>
       <r>   10.8122    0.0000 </r>
       <r>   12.1960    0.0000 </r>
       <r>   12.2167    0.0000 </r>
       <r>   12.4863    0.0000 </r>
       <r>   12.4936    0.0000 </r>
       <r>   12.5994    0.0000 </r>
       <r>   12.6054    0.0000 </r>
       <r>   13.1690    0.0000 </r>
       <r>   13.1879    0.0000 </r>
       <r>   15.4262    0.0000 </r>
       <r>   15.4387    0.0000 </r>
       <r>   16.3566    0.0000 </r>
       <r>   16.3752    0.0000 </r>
       <r>   16.9460    0.0000 </r>
       <r>   16.9488    0.0000 </r>
       <r>   17.1581    0.0000 </r>
       <r>   17.1654    0.0000 </r>
      </set>
     </set>
    </set>
   </array>
  </eigenvalues>
  <separator name="orbital magnetization" >
   <v name="MAGDIPOLOUT">      0.00000000      0.00000000      0.00000000</v>
  </separator>
  <dos>
   <i name="efermi">      5.97217369 </i>
   <total>
    <array>
     <dimension dim="1">gridpoints</dimension>
     <dimension dim="2">spin</dimension>
     <field>energy</field>
     <field>total</field>
     <field>integrated</field>
     <set>
      <set comment="spin 1">
       <r>   -17.0824     0.0000     0.0000 </r>
       <r>   -16.9605     0.0000     0.0000 </r>
       <r>   -16.8387     0.0000     0.0000 </r>
       <r>   -16.7169     0.0000     0.0000 </r>
       <r>   -16.5951     0.0000     0.0000 </r>
       <r>   -16.4733     0.0000     0.0000 </r>
       <r>   -16.3514     0.0000     0.0000 </r>
       <r>   -16.2296     0.0000     0.0000 </r>
       <r>   -16.1078     0.0000     0.0000 </r>
       <r>   -15.9860     0.0000     0.0000 </r>
       <r>   -15.8642     0.0000     0.0000 </r>
       <r>   -15.7423     0.0000     0.0000 </r>
       <r>   -15.6205     0.0000     0.0000 </r>
       <r>   -15.4987     0.0000     0.0000 </r>
       <r>   -15.3769   154.4926    18.8204 </r>
       <r>   -15.2551    65.9744    40.0000 </r>
       <r>   -15.1332     0.0000    40.0000 </r>
       <r>   -15.0114     0.0000    40.0000 </r>
       <r>   -14.8896     0.0000    40.0000 </r>
       <r>   -14.7678     0.0000    40.0000 </r>
       <r>   -14.6460     0.0000    40.0000 </r>
       <r>   -14.5241     0.0000    40.0000 </r>
       <r>   -14.4023     0.0000    40.0000 </r>
       <r>   -14.2805     0.0000    40.0000 </r>
       <r>   -14.1587     0.0000    40.0000 </r>
       <r>   -14.0368     0.0000    40.0000 </r>
       <r>   -13.9150     0.0000    40.0000 </r>
       <r>   -13.7932     0.0000    40.0000 </r>
       <r>   -13.6714     0.0000    40.0000 </r>
       <r>   -13.5496     0.0000    40.0000 </r>
       <r>   -13.4277     0.0000    40.0000 </r>
       <r>   -13.3059     0.0000    40.0000 </r>
       <r>   -13.1841     0.0000    40.0000 </r>
       <r>   -13.0623     0.0000    40.0000 </r>
       <r>   -12.9405     0.0000    40.0000 </r>
       <r>   -12.8186     0.0000    40.0000 </r>
       <r>   -12.6968     0.0000    40.0000 </r>
       <r>   -12.5750     0.0000    40.0000 </r>
       <r>   -12.4532     0.0000    40.0000 </r>
       <r>   -12.3314     0.0000    40.0000 </r>
       <r>   -12.2095     0.0000    40.0000 </r>
       <r>   -12.0877     0.0000    40.0000 </r>
       <r>   -11.9659     0.0000    40.0000 </r>
       <r>   -11.8441     0.0000    40.0000 </r>
       <r>   -11.7223     0.0000    40.0000 </r>
       <r>   -11.6004     0.0000    40.0000 </r>
       <r>   -11.4786     0.0000    40.0000 </r>
       <r>   -11.3568     0.0000    40.0000 </r>
       <r>   -11.2350     0.0000    40.0000 </r>
       <r>   -11.1132     0.0000    40.0000 </r>
       <r>   -10.9913     0.0000    40.0000 </r>
       <r>   -10.8695     0.0000    40.0000 </r>
       <r>   -10.7477     0.0000    40.0000 </r>
       <r>   -10.6259     0.0000    40.0000 </r>
       <r>   -10.5041     0.0000    40.0000 </r>
       <r>   -10.3822     0.0000    40.0000 </r>
       <r>   -10.2604     0.0000    40.0000 </r>
       <r>   -10.1386     0.0000    40.0000 </r>
       <r>   -10.0168     0.0000    40.0000 </r>
       <r>    -9.8950     0.0000    40.0000 </r>
       <r>    -9.7731     0.0000    40.0000 </r>
       <r>    -9.6513     0.0000    40.0000 </r>
       <r>    -9.5295     0.0000    40.0000 </r>
       <r>    -9.4077     0.0000    40.0000 </r>
       <r>    -9.2858     0.0000    40.0000 </r>
       <r>    -9.1640     0.0000    40.0000 </r>
       <r>    -9.0422     0.0000    40.0000 </r>
       <r>    -8.9204     0.0000    40.0000 </r>
       <r>    -8.7986     0.0000    40.0000 </r>
       <r>    -8.6767     0.0000    40.0000 </r>
       <r>    -8.5549     0.0000    40.0000 </r>
       <r>    -8.4331     0.0000    40.0000 </r>
       <r>    -8.3113     0.0000    40.0000 </r>
       <r>    -8.1895     0.0026    40.0003 </r>
       <r>    -8.0676     0.4560    40.0648 </r>
       <r>    -7.9458     0.6014    40.2492 </r>
       <r>    -7.8240     1.7354    40.4799 </r>
       <r>    -7.7022     1.9830    40.7694 </r>
       <r>    -7.5804     2.3652    41.1215 </r>
       <r>    -7.4585     2.9119    41.5584 </r>
       <r>    -7.3367     1.4996    41.8679 </r>
       <r>    -7.2149     2.2864    42.4082 </r>
       <r>    -7.0931     2.0717    42.9005 </r>
       <r>    -6.9713     3.9798    43.6052 </r>
       <r>    -6.8494     7.5156    44.7396 </r>
       <r>    -6.7276     8.5552    46.1626 </r>
       <r>    -6.6058     7.9493    47.5147 </r>
       <r>    -6.4840     1.8947    47.9993 </r>
       <r>    -6.3622     0.0000    48.0000 </r>
       <r>    -6.2403     0.0000    48.0000 </r>
       <r>    -6.1185     0.0000    48.0000 </r>
       <r>    -5.9967     0.0000    48.0000 </r>
       <r>    -5.8749     0.0000    48.0000 </r>
       <r>    -5.7531     0.0000    48.0000 </r>
       <r>    -5.6312     0.0000    48.0000 </r>
       <r>    -5.5094     0.0000    48.0000 </r>
       <r>    -5.3876     0.0000    48.0000 </r>
       <r>    -5.2658     0.0000    48.0000 </r>
       <r>    -5.1440     0.0000    48.0000 </r>
       <r>    -5.0221     0.0000    48.0000 </r>
       <r>    -4.9003     0.0000    48.0000 </r>
       <r>    -4.7785     0.0000    48.0000 </r>
       <r>    -4.6567     0.0000    48.0000 </r>
       <r>    -4.5348     0.0000    48.0000 </r>
       <r>    -4.4130     0.0000    48.0000 </r>
       <r>    -4.2912     0.0000    48.0000 </r>
       <r>    -4.1694     0.0000    48.0000 </r>
       <r>    -4.0476     0.0000    48.0000 </r>
       <r>    -3.9257     0.0000    48.0000 </r>
       <r>    -3.8039     0.0000    48.0000 </r>
       <r>    -3.6821     0.0000    48.0000 </r>
       <r>    -3.5603     0.0000    48.0000 </r>
       <r>    -3.4385     0.0000    48.0000 </r>
       <r>    -3.3166     0.0000    48.0000 </r>
       <r>    -3.1948     0.0000    48.0000 </r>
       <r>    -3.0730     0.0000    48.0000 </r>
       <r>    -2.9512     0.0000    48.0000 </r>
       <r>    -2.8294     0.0000    48.0000 </r>
       <r>    -2.7075     0.0000    48.0000 </r>
       <r>    -2.5857     0.1345    48.0164 </r>
       <r>    -2.4639     0.4567    48.0741 </r>
       <r>    -2.3421     1.4015    48.3189 </r>
       <r>    -2.2203     0.6762    48.4157 </r>
       <r>    -2.0984     2.2111    48.7138 </r>
       <r>    -1.9766     1.8766    49.0990 </r>
       <r>    -1.8548     1.1916    49.4785 </r>
       <r>    -1.7330     1.9642    49.9430 </r>
       <r>    -1.6112     2.5919    50.4454 </r>
       <r>    -1.4893     2.0291    50.8953 </r>
       <r>    -1.3675     2.5204    51.3719 </r>
       <r>    -1.2457     0.6128    51.7135 </r>
       <r>    -1.1239     3.1177    52.2965 </r>
       <r>    -1.0021     2.6027    52.8078 </r>
       <r>    -0.8802     1.4051    53.2545 </r>
       <r>    -0.7584     3.1690    54.0805 </r>
       <r>    -0.6366     2.1573    54.5684 </r>
       <r>    -0.5148     1.6481    54.8026 </r>
       <r>    -0.3929     1.6705    55.0831 </r>
       <r>    -0.2711     1.3989    55.2908 </r>
       <r>    -0.1493     1.2146    55.4720 </r>
       <r>    -0.0275     0.3040    55.5370 </r>
       <r>     0.0943     0.5947    55.6095 </r>
       <r>     0.2162     0.0000    55.6574 </r>
       <r>     0.3380     1.2161    55.8056 </r>
       <r>     0.4598     0.7553    55.8976 </r>
       <r>     0.5816     0.3040    55.9907 </r>
       <r>     0.7034     0.0055    56.0285 </r>
       <r>     0.8253     1.2465    56.2722 </r>
       <r>     0.9471     0.5809    56.4597 </r>
       <r>     1.0689     1.0522    56.6560 </r>
       <r>     1.1907     2.7461    57.1216 </r>
       <r>     1.3125     2.1737    57.4963 </r>
       <r>     1.4344     4.2124    58.0965 </r>
       <r>     1.5562     2.2972    58.4928 </r>
       <r>     1.6780     1.8071    58.8776 </r>
       <r>     1.7998     2.6023    59.3077 </r>
       <r>     1.9216     3.5141    59.9559 </r>
       <r>     2.0435     2.6368    60.3860 </r>
       <r>     2.1653     3.7040    60.9790 </r>
       <r>     2.2871     4.7970    61.7788 </r>
       <r>     2.4089     3.7672    62.5052 </r>
       <r>     2.5307     2.4856    63.0065 </r>
       <r>     2.6526     3.9996    63.7280 </r>
       <r>     2.7744     1.2638    64.0614 </r>
       <r>     2.8962     4.0653    64.7175 </r>
       <r>     3.0180     4.2041    65.5492 </r>
       <r>     3.1398     3.0790    66.0788 </r>
       <r>     3.2617     3.0190    66.6641 </r>
       <r>     3.3835     3.9033    67.4199 </r>
       <r>     3.5053     5.8387    68.4613 </r>
       <r>     3.6271     4.1065    68.9910 </r>
       <r>     3.7489     4.0329    69.8339 </r>
       <r>     3.8708     3.1140    70.4812 </r>
       <r>     3.9926     4.3891    71.3032 </r>
       <r>     4.1144     5.3807    72.2666 </r>
       <r>     4.2362     2.6868    72.9199 </r>
       <r>     4.3581     4.1026    73.5461 </r>
       <r>     4.4799     2.9824    74.2244 </r>
       <r>     4.6017     2.1628    74.8283 </r>
       <r>     4.7235     2.1862    75.2663 </r>
       <r>     4.8453     4.6408    76.1950 </r>
       <r>     4.9672     2.3962    76.5697 </r>
       <r>     5.0890     4.1333    77.2813 </r>
       <r>     5.2108     4.1685    78.0171 </r>
       <r>     5.3326     5.6116    79.0262 </r>
       <r>     5.4544     4.1506    79.6538 </r>
       <r>     5.5763     0.6339    79.7624 </r>
       <r>     5.6981     0.6128    79.8895 </r>
       <r>     5.8199     0.1998    79.9503 </r>
       <r>     5.9417     0.1520    80.0000 </r>
       <r>     6.0635     0.0000    80.0000 </r>
       <r>     6.1854     0.0000    80.0000 </r>
       <r>     6.3072     0.0265    80.0032 </r>
       <r>     6.4290     0.3049    80.0834 </r>
       <r>     6.5508     0.6079    80.1759 </r>
       <r>     6.6726     1.1655    80.3179 </r>
       <r>     6.7945     1.3721    80.4912 </r>
       <r>     6.9163     1.5619    80.7366 </r>
       <r>     7.0381     0.6110    80.8615 </r>
       <r>     7.1599     3.3921    81.4410 </r>
       <r>     7.2817     2.7123    81.9323 </r>
       <r>     7.4036     2.5690    82.5630 </r>
       <r>     7.5254     1.5802    82.9610 </r>
       <r>     7.6472     3.8429    83.6441 </r>
       <r>     7.7690     1.9588    84.1183 </r>
       <r>     7.8908     4.2758    84.8635 </r>
       <r>     8.0127     1.3152    85.2806 </r>
       <r>     8.1345     0.4684    85.6959 </r>
       <r>     8.2563     5.0543    86.3842 </r>
       <r>     8.3781     2.9802    86.8723 </r>
       <r>     8.4999     4.4119    87.5097 </r>
       <r>     8.6218     2.9747    88.1494 </r>
       <r>     8.7436     2.9615    88.7219 </r>
       <r>     8.8654     3.7250    89.5464 </r>
       <r>     8.9872     5.1300    90.5416 </r>
       <r>     9.1091     5.1430    91.4599 </r>
       <r>     9.2309     3.9164    92.0327 </r>
       <r>     9.3527     5.2269    92.7386 </r>
       <r>     9.4745     3.4890    93.3324 </r>
       <r>     9.5963     1.5788    93.6738 </r>
       <r>     9.7182     1.9765    94.1111 </r>
       <r>     9.8400     2.0010    94.5215 </r>
       <r>     9.9618     5.2872    95.2367 </r>
       <r>    10.0836     3.6207    95.8670 </r>
       <r>    10.2054     3.1018    96.3501 </r>
       <r>    10.3273     4.3500    97.0392 </r>
       <r>    10.4491     3.4667    97.6908 </r>
       <r>    10.5709     3.2505    98.4330 </r>
       <r>    10.6927     4.5542    99.2307 </r>
       <r>    10.8145     4.9854    99.9684 </r>
       <r>    10.9364     3.0843   100.6906 </r>
       <r>    11.0582     4.4871   101.5281 </r>
       <r>    11.1800     1.7035   101.8927 </r>
       <r>    11.3018     1.9971   102.2248 </r>
       <r>    11.4236     3.0258   102.7205 </r>
       <r>    11.5455     2.3248   103.2739 </r>
       <r>    11.6673     1.8862   103.6835 </r>
       <r>    11.7891     2.4092   104.1546 </r>
       <r>    11.9109     2.1875   104.6369 </r>
       <r>    12.0327     2.9008   105.0941 </r>
       <r>    12.1546     4.6890   105.7101 </r>
       <r>    12.2764     5.0027   106.5446 </r>
       <r>    12.3982     1.9861   106.9179 </r>
       <r>    12.5200     2.6814   107.3729 </r>
       <r>    12.6418     2.3852   107.7257 </r>
       <r>    12.7637     3.5545   108.4238 </r>
       <r>    12.8855     2.4343   108.8614 </r>
       <r>    13.0073     3.2037   109.5292 </r>
       <r>    13.1291     2.3798   109.8732 </r>
       <r>    13.2510     3.9251   110.5985 </r>
       <r>    13.3728     2.2763   110.9903 </r>
       <r>    13.4946     1.9967   111.5303 </r>
       <r>    13.6164     2.5287   112.0025 </r>
       <r>    13.7382     0.7871   112.2440 </r>
       <r>    13.8601     2.6100   112.7254 </r>
       <r>    13.9819     4.1229   113.5948 </r>
       <r>    14.1037     1.5652   114.0796 </r>
       <r>    14.2255     4.4653   114.7477 </r>
       <r>    14.3473     3.7690   115.2554 </r>
       <r>    14.4692     1.8368   115.7423 </r>
       <r>    14.5910     2.4443   116.1496 </r>
       <r>    14.7128     4.7003   116.8226 </r>
       <r>    14.8346     1.6866   117.2610 </r>
       <r>    14.9564     4.0697   117.9773 </r>
       <r>    15.0783     1.0645   118.2408 </r>
       <r>    15.2001     4.0238   118.8420 </r>
       <r>    15.3219     5.1786   119.6679 </r>
       <r>    15.4437     5.3528   120.5039 </r>
       <r>    15.5655     4.5923   121.2446 </r>
       <r>    15.6874     2.2043   121.7130 </r>
       <r>    15.8092     4.8503   122.4798 </r>
       <r>    15.9310     3.0608   122.9284 </r>
       <r>    16.0528     5.6591   123.8561 </r>
       <r>    16.1746     2.7763   124.2827 </r>
       <r>    16.2965     1.7982   124.6265 </r>
       <r>    16.4183     4.4371   125.2257 </r>
       <r>    16.5401     3.3209   125.7564 </r>
       <r>    16.6619     2.5595   126.2748 </r>
       <r>    16.7837     1.6692   126.6478 </r>
       <r>    16.9056     0.9107   126.9258 </r>
       <r>    17.0274     1.5231   127.3337 </r>
       <r>    17.1492     1.0214   127.4948 </r>
       <r>    17.2710     0.7601   127.8519 </r>
       <r>    17.3928     0.0000   127.8889 </r>
       <r>    17.5147     0.0000   127.8889 </r>
       <r>    17.6365     0.4611   127.9451 </r>
       <r>    17.7583     0.0000   127.9630 </r>
       <r>    17.8801     0.1520   128.0000 </r>
       <r>    18.0020     0.0000   128.0000 </r>
       <r>    18.1238     0.0000   128.0000 </r>
       <r>    18.2456     0.0000   128.0000 </r>
       <r>    18.3674     0.0000   128.0000 </r>
       <r>    18.4892     0.0000   128.0000 </r>
       <r>    18.6111     0.0000   128.0000 </r>
       <r>    18.7329     0.0000   128.0000 </r>
       <r>    18.8547     0.0000   128.0000 </r>
       <r>    18.9765     0.0000   128.0000 </r>
       <r>    19.0983     0.0000   128.0000 </r>
       <r>    19.2202     0.0000   128.0000 </r>
       <r>    19.3420     0.0000   128.0000 </r>
       <r>    19.4638     0.0000   128.0000 </r>
      </set>
     </set>
    </array>
   </total>
  </dos>
 </calculation>
 <structure name="finalpos" >
  <crystal>
   <varray name="basis" >
    <v>       4.34539863       0.00000000       0.00000000 </v>
    <v>       0.00000000       4.11936655       0.00000000 </v>
    <v>       0.00000000       0.00000000      11.35478920 </v>
   </varray>
   <i name="volume">    203.25401695 </i>
   <varray name="rec_basis" >
    <v>       0.23012848       0.00000000       0.00000000 </v>
    <v>       0.00000000       0.24275577       0.00000000 </v>
    <v>       0.00000000       0.00000000       0.08806857 </v>
   </varray>
  </crystal>
  <varray name="positions" >
   <v>       0.09903631       0.24930268       0.11539711 </v>
   <v>       0.40096369       0.25069732       0.61539711 </v>
   <v>       0.59903631       0.74930268       0.38460289 </v>
   <v>       0.90096369       0.75069732       0.88460289 </v>
   <v>       0.02605052       0.25106527       0.35675466 </v>
   <v>       0.47394948       0.24893473       0.85675466 </v>
   <v>       0.52605052       0.75106527       0.14324534 </v>
   <v>       0.97394948       0.74893473       0.64324534 </v>
  </varray>
 </structure>
</modeling>
