<?xml version="1.0" encoding="ISO-8859-1"?>
<modeling>
 <generator>
  <i name="program" type="string">vasp </i>
  <i name="version" type="string">6.2.0  </i>
  <i name="subversion" type="string">18Jan21 (build Mar  1 2021 20:13:55) complex                          parallel </i>
  <i name="platform" type="string">HPECrayEX_GCC </i>
  <i name="date" type="string">2026 03 07 </i>
  <i name="time" type="string">19:48:42 </i>
 </generator>
 <incar>
  <i type="string" name="SYSTEM">Pnma SnSe</i>
  <i type="string" name="PREC">Accurate</i>
  <i type="string" name="ALGO">Normal</i>
  <i type="logical" name="ADDGRID"> T  </i>
  <i type="int" name="NELM">   250</i>
  <i type="int" name="NELMIN">     5</i>
  <i name="EDIFF">      0.00000001</i>
  <i type="int" name="NSW">     0</i>
  <i type="int" name="ISIF">     2</i>
  <i name="ENCUT">    700.00000000</i>
  <i type="logical" name="LREAL"> F  </i>
  <i type="int" name="ISMEAR">     0</i>
  <i name="SIGMA">      0.01000000</i>
  <i type="logical" name="LWAVE"> F  </i>
  <i type="logical" name="LCHARG"> F  </i>
  <i type="logical" name="LASPH"> T  </i>
  <i type="string" name="GGA">PS</i>
  <i type="logical" name="LEPSILON"> T  </i>
  <i type="int" name="IVDW">    11</i>
 </incar>
 <primitive_cell>
  <structure name="primitive_cell" >
   <crystal>
    <varray name="basis" >
     <v>       4.34539863       0.00000000       0.00000000 </v>
     <v>       0.00000000       4.11936655       0.00000000 </v>
     <v>       0.00000000       0.00000000      11.35478920 </v>
    </varray>
    <i name="volume">    203.25401695 </i>
    <varray name="rec_basis" >
     <v>       0.23012848       0.00000000       0.00000000 </v>
     <v>       0.00000000       0.24275577       0.00000000 </v>
     <v>       0.00000000       0.00000000       0.08806857 </v>
    </varray>
   </crystal>
   <varray name="positions" >
    <v>       0.09893052       0.25000000       0.11517728 </v>
    <v>       0.40106948       0.25000000       0.61517728 </v>
    <v>       0.59893052       0.75000000       0.38482272 </v>
    <v>       0.90106948       0.75000000       0.88482272 </v>
    <v>       0.02605685       0.25000000       0.35716751 </v>
    <v>       0.47394315       0.25000000       0.85716751 </v>
    <v>       0.52605685       0.75000000       0.14283249 </v>
    <v>       0.97394315       0.75000000       0.64283249 </v>
   </varray>
  </structure>
  <varray name="primitive_index" >
   <v type="int" >        1 </v>
   <v type="int" >        2 </v>
   <v type="int" >        3 </v>
   <v type="int" >        4 </v>
   <v type="int" >        5 </v>
   <v type="int" >        6 </v>
   <v type="int" >        7 </v>
   <v type="int" >        8 </v>
  </varray>
 </primitive_cell>
 <kpoints>
  <generation param="Gamma">
   <v type="int" name="divisions">       8        9        3 </v>
   <v name="usershift">      0.00000000       0.00000000       0.00000000 </v>
   <v name="genvec1">      0.12500000       0.00000000       0.00000000 </v>
   <v name="genvec2">      0.00000000       0.11111111       0.00000000 </v>
   <v name="genvec3">      0.00000000       0.00000000       0.33333333 </v>
   <v name="shift">      0.00000000       0.00000000       0.00000000 </v>
  </generation>
  <varray name="kpointlist" >
   <v>       0.00000000       0.00000000       0.00000000 </v>
   <v>       0.12500000       0.00000000       0.00000000 </v>
   <v>       0.25000000       0.00000000       0.00000000 </v>
   <v>       0.37500000       0.00000000       0.00000000 </v>
   <v>       0.50000000       0.00000000       0.00000000 </v>
   <v>       0.00000000       0.11111111       0.00000000 </v>
   <v>       0.12500000       0.11111111       0.00000000 </v>
   <v>       0.25000000       0.11111111       0.00000000 </v>
   <v>       0.37500000       0.11111111       0.00000000 </v>
   <v>       0.50000000       0.11111111       0.00000000 </v>
   <v>       0.00000000       0.22222222       0.00000000 </v>
   <v>       0.12500000       0.22222222       0.00000000 </v>
   <v>       0.25000000       0.22222222       0.00000000 </v>
   <v>       0.37500000       0.22222222       0.00000000 </v>
   <v>       0.50000000       0.22222222       0.00000000 </v>
   <v>       0.00000000       0.33333333       0.00000000 </v>
   <v>       0.12500000       0.33333333       0.00000000 </v>
   <v>       0.25000000       0.33333333       0.00000000 </v>
   <v>       0.37500000       0.33333333       0.00000000 </v>
   <v>       0.50000000       0.33333333       0.00000000 </v>
   <v>       0.00000000       0.44444444       0.00000000 </v>
   <v>       0.12500000       0.44444444       0.00000000 </v>
   <v>       0.25000000       0.44444444       0.00000000 </v>
   <v>       0.37500000       0.44444444       0.00000000 </v>
   <v>       0.50000000       0.44444444       0.00000000 </v>
   <v>       0.00000000       0.00000000       0.33333333 </v>
   <v>       0.12500000       0.00000000       0.33333333 </v>
   <v>       0.25000000       0.00000000       0.33333333 </v>
   <v>       0.37500000       0.00000000       0.33333333 </v>
   <v>       0.50000000       0.00000000       0.33333333 </v>
   <v>       0.00000000       0.11111111       0.33333333 </v>
   <v>       0.12500000       0.11111111       0.33333333 </v>
   <v>       0.25000000       0.11111111       0.33333333 </v>
   <v>       0.37500000       0.11111111       0.33333333 </v>
   <v>       0.50000000       0.11111111       0.33333333 </v>
   <v>       0.00000000       0.22222222       0.33333333 </v>
   <v>       0.12500000       0.22222222       0.33333333 </v>
   <v>       0.25000000       0.22222222       0.33333333 </v>
   <v>       0.37500000       0.22222222       0.33333333 </v>
   <v>       0.50000000       0.22222222       0.33333333 </v>
   <v>       0.00000000       0.33333333       0.33333333 </v>
   <v>       0.12500000       0.33333333       0.33333333 </v>
   <v>       0.25000000       0.33333333       0.33333333 </v>
   <v>       0.37500000       0.33333333       0.33333333 </v>
   <v>       0.50000000       0.33333333       0.33333333 </v>
   <v>       0.00000000       0.44444444       0.33333333 </v>
   <v>       0.12500000       0.44444444       0.33333333 </v>
   <v>       0.25000000       0.44444444       0.33333333 </v>
   <v>       0.37500000       0.44444444       0.33333333 </v>
   <v>       0.50000000       0.44444444       0.33333333 </v>
  </varray>
  <varray name="weights" >
   <v>       0.00462963 </v>
   <v>       0.00925926 </v>
   <v>       0.00925926 </v>
   <v>       0.00925926 </v>
   <v>       0.00462963 </v>
   <v>       0.00925926 </v>
   <v>       0.01851852 </v>
   <v>       0.01851852 </v>
   <v>       0.01851852 </v>
   <v>       0.00925926 </v>
   <v>       0.00925926 </v>
   <v>       0.01851852 </v>
   <v>       0.01851852 </v>
   <v>       0.01851852 </v>
   <v>       0.00925926 </v>
   <v>       0.00925926 </v>
   <v>       0.01851852 </v>
   <v>       0.01851852 </v>
   <v>       0.01851852 </v>
   <v>       0.00925926 </v>
   <v>       0.00925926 </v>
   <v>       0.01851852 </v>
   <v>       0.01851852 </v>
   <v>       0.01851852 </v>
   <v>       0.00925926 </v>
   <v>       0.00925926 </v>
   <v>       0.01851852 </v>
   <v>       0.01851852 </v>
   <v>       0.01851852 </v>
   <v>       0.00925926 </v>
   <v>       0.01851852 </v>
   <v>       0.03703704 </v>
   <v>       0.03703704 </v>
   <v>       0.03703704 </v>
   <v>       0.01851852 </v>
   <v>       0.01851852 </v>
   <v>       0.03703704 </v>
   <v>       0.03703704 </v>
   <v>       0.03703704 </v>
   <v>       0.01851852 </v>
   <v>       0.01851852 </v>
   <v>       0.03703704 </v>
   <v>       0.03703704 </v>
   <v>       0.03703704 </v>
   <v>       0.01851852 </v>
   <v>       0.01851852 </v>
   <v>       0.03703704 </v>
   <v>       0.03703704 </v>
   <v>       0.03703704 </v>
   <v>       0.01851852 </v>
  </varray>
 </kpoints>
 <parameters>
  <separator name="general" >
   <i type="string" name="SYSTEM">Pnma SnSe</i>
   <i type="logical" name="LCOMPAT"> F  </i>
  </separator>
  <separator name="electronic" >
   <i type="string" name="PREC">accura</i>
   <i name="ENMAX">    700.00000000</i>
   <i name="ENAUG">    446.84200000</i>
   <i name="EDIFF">      0.00000001</i>
   <i type="int" name="IALGO">    38</i>
   <i type="int" name="IWAVPR">    10</i>
   <i type="int" name="NBANDS">    64</i>
   <i type="int" name="NBANDSLOW">    -1</i>
   <i type="int" name="NBANDSHIGH">    -1</i>
   <i name="NELECT">     80.00000000</i>
   <i type="int" name="TURBO">     0</i>
   <i type="int" name="IRESTART">     0</i>
   <i type="int" name="NREBOOT">     0</i>
   <i type="int" name="NMIN">     0</i>
   <i name="EREF">      0.00000000</i>
   <separator name="electronic smearing" >
    <i type="int" name="ISMEAR">     0</i>
    <i name="SIGMA">      0.01000000</i>
    <i name="KSPACING">      0.50000000</i>
    <i type="logical" name="KGAMMA"> T  </i>
    <i type="logical" name="KBLOWUP"> T  </i>
   </separator>
   <separator name="electronic projectors" >
    <i type="logical" name="LREAL"> F  </i>
    <v name="ROPT">      0.00000000      0.00000000</v>
    <i type="int" name="LMAXPAW">  -100</i>
    <i type="int" name="LMAXMIX">     2</i>
    <i type="logical" name="NLSPLINE"> F  </i>
   </separator>
   <separator name="electronic startup" >
    <i type="int" name="ISTART">     0</i>
    <i type="int" name="ICHARG">     2</i>
    <i type="int" name="INIWAV">     1</i>
   </separator>
   <separator name="electronic spin" >
    <i type="int" name="ISPIN">     1</i>
    <i type="logical" name="LNONCOLLINEAR"> F  </i>
    <v name="MAGMOM">      1.00000000      1.00000000      1.00000000      1.00000000      1.00000000      1.00000000      1.00000000      1.00000000</v>
    <i name="NUPDOWN">     -1.00000000</i>
    <i type="logical" name="LSORBIT"> F  </i>
    <v name="SAXIS">      0.00000000      0.00000000      1.00000000</v>
    <i type="logical" name="LSPIRAL"> F  </i>
    <v name="QSPIRAL">      0.00000000      0.00000000      0.00000000</v>
    <i type="logical" name="LZEROZ"> F  </i>
   </separator>
   <separator name="electronic exchange-correlation" >
    <i type="logical" name="LASPH"> T  </i>
    <i type="logical" name="LMETAGGA"> F  </i>
   </separator>
   <separator name="electronic convergence" >
    <i type="int" name="NELM">   250</i>
    <i type="int" name="NELMDL">    -5</i>
    <i type="int" name="NELMIN">     5</i>
    <i name="ENINI">    700.00000000</i>
    <separator name="electronic convergence detail" >
     <i type="logical" name="LDIAG"> T  </i>
     <i type="logical" name="LSUBROT"> F  </i>
     <i name="WEIMIN">      0.00000000</i>
     <i name="EBREAK">      0.00000000</i>
     <i name="DEPER">      0.30000000</i>
     <i type="int" name="NRMM">     4</i>
     <i name="TIME">      0.40000000</i>
    </separator>
   </separator>
   <separator name="electronic mixer" >
    <i name="AMIX">      0.40000000</i>
    <i name="BMIX">      1.00000000</i>
    <i name="AMIN">      0.10000000</i>
    <i name="AMIX_MAG">      1.60000000</i>
    <i name="BMIX_MAG">      1.00000000</i>
    <separator name="electronic mixer details" >
     <i type="int" name="IMIX">     4</i>
     <i type="logical" name="MIXFIRST"> F  </i>
     <i type="int" name="MAXMIX">   -45</i>
     <i name="WC">    100.00000000</i>
     <i type="int" name="INIMIX">     1</i>
     <i type="int" name="MIXPRE">     1</i>
     <i type="int" name="MREMOVE">     5</i>
    </separator>
   </separator>
   <separator name="electronic dipolcorrection" >
    <i type="logical" name="LDIPOL"> F  </i>
    <i type="logical" name="LMONO"> F  </i>
    <i type="int" name="IDIPOL">     0</i>
    <i name="EPSILON">      1.00000000</i>
    <v name="DIPOL">   -100.00000000   -100.00000000   -100.00000000</v>
    <i name="EFIELD">      0.00000000</i>
   </separator>
  </separator>
  <separator name="grids" >
   <i type="int" name="NGX">    40</i>
   <i type="int" name="NGY">    36</i>
   <i type="int" name="NGZ">    98</i>
   <i type="int" name="NGXF">    80</i>
   <i type="int" name="NGYF">    72</i>
   <i type="int" name="NGZF">   196</i>
   <i type="logical" name="ADDGRID"> T  </i>
  </separator>
  <separator name="ionic" >
   <i type="int" name="NSW">     0</i>
   <i type="int" name="IBRION">    -1</i>
   <i type="int" name="MDALGO">     0</i>
   <i type="int" name="ISIF">     2</i>
   <i name="PSTRESS">      0.00000000</i>
   <i name="EDIFFG">      0.00000010</i>
   <i type="int" name="NFREE">     0</i>
   <i name="POTIM">      0.50000000</i>
   <i name="SMASS">     -3.00000000</i>
   <i name="SCALEE">      1.00000000</i>
  </separator>
  <separator name="ionic md" >
   <i name="TEBEG">      0.00010000</i>
   <i name="TEEND">      0.00010000</i>
   <i type="int" name="NBLOCK">     1</i>
   <i type="int" name="KBLOCK">     1</i>
   <i type="int" name="NPACO">   256</i>
   <i name="APACO">     16.00000000</i>
  </separator>
  <separator name="symmetry" >
   <i type="int" name="ISYM">     2</i>
   <i name="SYMPREC">      0.00001000</i>
  </separator>
  <separator name="dos" >
   <i type="int" name="LORBIT">     0</i>
   <v name="RWIGS">     -1.00000000     -1.00000000</v>
   <i type="int" name="NEDOS">   301</i>
   <i name="EMIN">     10.00000000</i>
   <i name="EMAX">    -10.00000000</i>
   <i name="EFERMI">      0.00000000</i>
  </separator>
  <separator name="writing" >
   <i type="int" name="NWRITE">     2</i>
   <i type="logical" name="LWAVE"> F  </i>
   <i type="logical" name="LDOWNSAMPLE"> F  </i>
   <i type="logical" name="LCHARG"> F  </i>
   <i type="logical" name="LPARD"> F  </i>
   <i type="logical" name="LVTOT"> F  </i>
   <i type="logical" name="LVHAR"> F  </i>
   <i type="logical" name="LELF"> F  </i>
   <i type="logical" name="LOPTICS"> F  </i>
   <v name="STM">      0.00000000      0.00000000      0.00000000      0.00000000      0.00000000      0.00000000      0.00000000</v>
  </separator>
  <separator name="performance" >
   <i type="int" name="NPAR">    32</i>
   <i type="int" name="NSIM">     4</i>
   <i type="int" name="NBLK">    -1</i>
   <i type="logical" name="LPLANE"> T  </i>
   <i type="logical" name="LSCALAPACK"> T  </i>
   <i type="logical" name="LSCAAWARE"> F  </i>
   <i type="logical" name="LSCALU"> F  </i>
   <i type="logical" name="LASYNC"> F  </i>
   <i type="logical" name="LORBITALREAL"> F  </i>
  </separator>
  <separator name="miscellaneous" >
   <i type="int" name="IDIOT">     3</i>
   <i type="int" name="PHON_NSTRUCT">    -1</i>
   <i type="logical" name="LMUSIC"> F  </i>
   <v name="POMASS">    118.71000000     78.96000000</v>
   <v name="DARWINR">      0.00000000      0.00000000</v>
   <v name="DARWINV">      1.00000000      1.00000000</v>
   <i type="logical" name="LCORR"> T  </i>
  </separator>
  <i type="logical" name="GGA_COMPAT"> T  </i>
  <i type="logical" name="LBERRY"> F  </i>
  <i type="int" name="ICORELEVEL">     0</i>
  <i type="logical" name="LDAU"> F  </i>
  <i type="int" name="I_CONSTRAINED_M">     0</i>
  <separator name="electronic exchange-correlation" >
   <i type="string" name="GGA">PS</i>
   <i type="int" name="VOSKOWN">     0</i>
   <i type="logical" name="LHFCALC"> F  </i>
   <i type="string" name="PRECFOCK"></i>
   <i type="logical" name="LSYMGRAD"> F  </i>
   <i type="logical" name="LHFONE"> F  </i>
   <i type="logical" name="LRHFCALC"> F  </i>
   <i type="logical" name="LTHOMAS"> F  </i>
   <i type="logical" name="LMODELHF"> F  </i>
   <i type="logical" name="LFOCKACE"> F  </i>
   <i name="ENCUT4O">     -1.00000000</i>
   <i type="int" name="EXXOEP">     0</i>
   <i type="int" name="FOURORBIT">     0</i>
   <i name="AEXX">      0.00000000</i>
   <i name="HFALPHA">      0.00000000</i>
   <i name="MCALPHA">      0.00000000</i>
   <i name="ALDAX">      1.00000000</i>
   <i name="AGGAX">      1.00000000</i>
   <i name="ALDAC">      1.00000000</i>
   <i name="AGGAC">      1.00000000</i>
   <i type="int" name="NKREDX">     1</i>
   <i type="int" name="NKREDY">     1</i>
   <i type="int" name="NKREDZ">     1</i>
   <i type="logical" name="SHIFTRED"> F  </i>
   <i type="logical" name="ODDONLY"> F  </i>
   <i type="logical" name="EVENONLY"> F  </i>
   <i type="int" name="LMAXFOCK">     0</i>
   <i type="int" name="NMAXFOCKAE">     0</i>
   <i type="logical" name="LFOCKAEDFT"> F  </i>
   <i name="HFSCREEN">      0.00000000</i>
   <i name="HFSCREENC">      0.00000000</i>
   <i type="int" name="NBANDSGWLOW">     0</i>
  </separator>
  <separator name="vdW DFT" >
   <i type="logical" name="LUSE_VDW"> F  </i>
   <i name="Zab_VDW">     -0.84910000</i>
   <i name="PARAM1">      0.12340000</i>
   <i name="PARAM2">      1.00000000</i>
   <i name="PARAM3">      0.00000000</i>
  </separator>
  <separator name="model GW" >
   <i type="int" name="MODEL_GW">     0</i>
   <i name="MODEL_EPS0">     15.24405127</i>
   <i name="MODEL_ALPHA">      1.00000000</i>
  </separator>
  <separator name="linear response parameters" >
   <i type="logical" name="LEPSILON"> T  </i>
   <i type="logical" name="LRPA"> F  </i>
   <i type="logical" name="LNABLA"> F  </i>
   <i type="logical" name="LVEL"> F  </i>
   <i type="int" name="KINTER">     0</i>
   <i name="CSHIFT">      0.10000000</i>
   <i name="OMEGAMAX">     -1.00000000</i>
   <i name="DEG_THRESHOLD">      0.00200000</i>
   <i name="RTIME">     -0.10000000</i>
   <i name="WPLASMAI">      0.00000000</i>
   <v name="DFIELD">      0.00000000      0.00000000      0.00000000</v>
   <v name="WPLASMA">      0.00000000      0.00000000      0.00000000      0.00000000      0.00000000      0.00000000      0.00000000      0.00000000      0.00000000</v>
  </separator>
  <separator name="orbital magnetization" >
   <i type="logical" name="NUCIND"> F  </i>
   <v name="MAGPOS">      0.00000000      0.00000000      0.00000000</v>
   <i type="logical" name="LNICSALL"> T  </i>
   <i type="logical" name="ORBITALMAG"> F  </i>
   <i type="logical" name="LMAGBLOCH"> F  </i>
   <i type="logical" name="LCHIMAG"> F  </i>
   <i type="logical" name="LGAUGE"> T  </i>
   <i type="int" name="MAGATOM">     0</i>
   <v name="MAGDIPOL">      0.00000000      0.00000000      0.00000000</v>
   <v name="AVECCONST">      0.00000000      0.00000000      0.00000000</v>
  </separator>
  <separator name="response functions" >
   <i type="logical" name="LFINITE_TEMPERATURE"> F  </i>
   <i type="logical" name="LADDER"> F  </i>
   <i type="logical" name="LRPAFORCE"> F  </i>
   <i type="logical" name="LFXC"> F  </i>
   <i type="logical" name="LHARTREE"> T  </i>
   <i type="int" name="IBSE">     0</i>
   <v type="int" name="KPOINT">    -1     0     0     0</v>
   <i type="logical" name="LTCTC"> F  </i>
   <i type="logical" name="LTCTE"> F  </i>
   <i type="logical" name="LTETE"> F  </i>
   <i type="logical" name="LTRIPLET"> F  </i>
   <i type="logical" name="LFXCEPS"> F  </i>
   <i type="logical" name="LFXHEG"> F  </i>
   <i type="int" name="NATURALO">     2</i>
   <i type="logical" name="LHOLEGF"> F  </i>
   <i type="logical" name="L2ORDER"> F  </i>
   <i type="logical" name="LDMP1"> F  </i>
   <i type="logical" name="LMP2LT"> F  </i>
   <i type="logical" name="LSMP2LT"> F  </i>
   <i type="logical" name="LGWLF"> F  </i>
   <i name="ENCUTGW">     -2.00000000</i>
   <i name="ENCUTGWSOFT">     -2.00000000</i>
   <i name="ENCUTLF">     -1.00000000</i>
   <i type="logical" name="LESF_SPLINES"> F  </i>
   <i type="int" name="LMAXMP2">    -1</i>
   <i name="SCISSOR">      0.00000000</i>
   <i type="int" name="NOMEGA">     0</i>
   <i type="int" name="NOMEGAR">     0</i>
   <i type="int" name="NBANDSGW">    -1</i>
   <i type="int" name="NBANDSO">    -1</i>
   <i type="int" name="NBANDSV">    -1</i>
   <i type="int" name="NELM">   250</i>
   <i type="int" name="NELMHF">     1</i>
   <i type="int" name="DIM">     3</i>
   <i type="int" name="IESPILON">     4</i>
   <i type="int" name="ANTIRES">     0</i>
   <i name="OMEGAMAX">    -30.00000000</i>
   <i name="OMEGAMIN">    -30.00000000</i>
   <i name="OMEGATL">   -200.00000000</i>
   <i type="int" name="OMEGAGRID">     0</i>
   <i name="CSHIFT">     -0.10000000</i>
   <i type="logical" name="LSELFENERGY"> F  </i>
   <i type="logical" name="LSPECTRAL"> F  </i>
   <i type="logical" name="LSPECTRALGW"> F  </i>
   <i type="logical" name="LSINGLES"> F  </i>
   <i type="logical" name="LFERMIGW"> F  </i>
   <i type="logical" name="ODDONLYGW"> F  </i>
   <i type="logical" name="EVENONLYGW"> F  </i>
   <i type="int" name="NKREDLFX">     1</i>
   <i type="int" name="NKREDLFY">     1</i>
   <i type="int" name="NKREDLFZ">     1</i>
   <i type="int" name="MAXMEM">  2800</i>
   <i type="int" name="TELESCOPE">     0</i>
   <i type="int" name="NTAUPAR">    -1</i>
   <i type="int" name="NOMEGAPAR">    -1</i>
   <i name="DAMP_NEWTON">      0.80000001</i>
   <i name="LAMBDA">      1.00000000</i>
  </separator>
  <separator name="External order field" >
   <i name="OFIELD_KAPPA">      0.00000000</i>
   <v name="OFIELD_K">      0.00000000      0.00000000      0.00000000</v>
   <i name="OFIELD_Q6_NEAR">      0.00000000</i>
   <i name="OFIELD_Q6_FAR">      0.00000000</i>
   <i name="OFIELD_A">      0.00000000</i>
  </separator>
 </parameters>
 <atominfo>
  <atoms>       8 </atoms>
  <types>       2 </types>
  <array name="atoms" >
   <dimension dim="1">ion</dimension>
   <field type="string">element</field>
   <field type="int">atomtype</field>
   <set>
    <rc><c>Sn</c><c>   1</c></rc>
    <rc><c>Sn</c><c>   1</c></rc>
    <rc><c>Sn</c><c>   1</c></rc>
    <rc><c>Sn</c><c>   1</c></rc>
    <rc><c>Se</c><c>   2</c></rc>
    <rc><c>Se</c><c>   2</c></rc>
    <rc><c>Se</c><c>   2</c></rc>
    <rc><c>Se</c><c>   2</c></rc>
   </set>
  </array>
  <array name="atomtypes" >
   <dimension dim="1">type</dimension>
   <field type="int">atomspertype</field>
   <field type="string">element</field>
   <field>mass</field>
   <field>valence</field>
   <field type="string">pseudopotential</field>
   <set>
    <rc><c>   4</c><c>Sn</c><c>    118.71000000</c><c>     14.00000000</c><c>  PAW_PBE Sn_d 06Sep2000                </c></rc>
    <rc><c>   4</c><c>Se</c><c>     78.96000000</c><c>      6.00000000</c><c>  PAW_PBE Se 06Sep2000                  </c></rc>
   </set>
  </array>
 </atominfo>
 <structure name="initialpos" >
  <crystal>
   <varray name="basis" >
    <v>       4.34539863       0.00000000       0.00000000 </v>
    <v>       0.00000000       4.11936655       0.00000000 </v>
    <v>       0.00000000       0.00000000      11.35478920 </v>
   </varray>
   <i name="volume">    203.25401695 </i>
   <varray name="rec_basis" >
    <v>       0.23012848       0.00000000       0.00000000 </v>
    <v>       0.00000000       0.24275577       0.00000000 </v>
    <v>       0.00000000       0.00000000       0.08806857 </v>
   </varray>
  </crystal>
  <varray name="positions" >
   <v>       0.09893052       0.25000000       0.11517728 </v>
   <v>       0.40106948       0.25000000       0.61517728 </v>
   <v>       0.59893052       0.75000000       0.38482272 </v>
   <v>       0.90106948       0.75000000       0.88482272 </v>
   <v>       0.02605685       0.25000000       0.35716751 </v>
   <v>       0.47394315       0.25000000       0.85716751 </v>
   <v>       0.52605685       0.75000000       0.14283249 </v>
   <v>       0.97394315       0.75000000       0.64283249 </v>
  </varray>
 </structure>
 <calculation>
  <scstep>
   <time name="dav">    1.37    0.69</time>
   <time name="total">    1.67    0.95</time>
   <energy>
    <i name="alphaZ">    217.43841536 </i>
    <i name="ewald">  -6083.17258286 </i>
    <i name="hartreedc">  -2321.78817522 </i>
    <i name="XCdc">    230.10235867 </i>
    <i name="pawpsdc">   7112.06264409 </i>
    <i name="pawaedc">  -7207.42447429 </i>
    <i name="eentropy">     -0.00031535 </i>
    <i name="bandstr">     37.36919234 </i>
    <i name="atom">   8598.20158228 </i>
    <i name="e_fr_energy">    582.78864502 </i>
    <i name="e_wo_entrp">    582.78896037 </i>
    <i name="e_0_energy">    582.78880269 </i>
   </energy>
  </scstep>
  <scstep>
   <time name="dav">    1.50    0.75</time>
   <time name="total">    1.50    0.75</time>
   <energy>
    <i name="e_fr_energy">     16.39460996 </i>
    <i name="e_wo_entrp">     16.39479824 </i>
    <i name="e_0_energy">     16.39470410 </i>
   </energy>
  </scstep>
  <scstep>
   <time name="dav">    2.00    1.00</time>
   <time name="total">    2.00    1.00</time>
   <energy>
    <i name="e_fr_energy">    -35.45391344 </i>
    <i name="e_wo_entrp">    -35.45391344 </i>
    <i name="e_0_energy">    -35.45391344 </i>
   </energy>
  </scstep>
  <scstep>
   <time name="dav">    1.80    0.90</time>
   <time name="total">    1.80    0.90</time>
   <energy>
    <i name="e_fr_energy">    -36.55662960 </i>
    <i name="e_wo_entrp">    -36.55662960 </i>
    <i name="e_0_energy">    -36.55662960 </i>
   </energy>
  </scstep>
  <scstep>
   <time name="dav">    2.25    1.13</time>
   <time name="total">    2.52    1.28</time>
   <energy>
    <i name="e_fr_energy">    -36.58447373 </i>
    <i name="e_wo_entrp">    -36.58447373 </i>
    <i name="e_0_energy">    -36.58447373 </i>
   </energy>
  </scstep>
  <scstep>
   <time name="dav">    2.40    1.21</time>
   <time name="total">    2.88    1.57</time>
   <energy>
    <i name="e_fr_energy">    -35.95323648 </i>
    <i name="e_wo_entrp">    -35.95323648 </i>
    <i name="e_0_energy">    -35.95323648 </i>
   </energy>
  </scstep>
  <scstep>
   <time name="dav">    2.11    1.06</time>
   <time name="total">    2.54    1.42</time>
   <energy>
    <i name="e_fr_energy">    -35.91887308 </i>
    <i name="e_wo_entrp">    -35.91887308 </i>
    <i name="e_0_energy">    -35.91887308 </i>
   </energy>
  </scstep>
  <scstep>
   <time name="dav">    1.95    0.98</time>
   <time name="total">    2.41    1.34</time>
   <energy>
    <i name="e_fr_energy">    -35.91385877 </i>
    <i name="e_wo_entrp">    -35.91385877 </i>
    <i name="e_0_energy">    -35.91385877 </i>
   </energy>
  </scstep>
  <scstep>
   <time name="dav">    2.09    1.05</time>
   <time name="total">    2.57    1.41</time>
   <energy>
    <i name="e_fr_energy">    -35.91388654 </i>
    <i name="e_wo_entrp">    -35.91388654 </i>
    <i name="e_0_energy">    -35.91388654 </i>
   </energy>
  </scstep>
  <scstep>
   <time name="dav">    2.10    1.05</time>
   <time name="total">    2.56    1.41</time>
   <energy>
    <i name="e_fr_energy">    -35.91388957 </i>
    <i name="e_wo_entrp">    -35.91388957 </i>
    <i name="e_0_energy">    -35.91388957 </i>
   </energy>
  </scstep>
  <scstep>
   <time name="dav">    2.04    1.02</time>
   <time name="total">    2.54    1.39</time>
   <energy>
    <i name="e_fr_energy">    -35.91390279 </i>
    <i name="e_wo_entrp">    -35.91390279 </i>
    <i name="e_0_energy">    -35.91390279 </i>
   </energy>
  </scstep>
  <scstep>
   <time name="dav">    1.88    0.94</time>
   <time name="total">    2.29    1.30</time>
   <energy>
    <i name="e_fr_energy">    -35.91390110 </i>
    <i name="e_wo_entrp">    -35.91390110 </i>
    <i name="e_0_energy">    -35.91390110 </i>
   </energy>
  </scstep>
  <scstep>
   <time name="dav">    2.09    1.05</time>
   <time name="total">    2.56    1.41</time>
   <energy>
    <i name="e_fr_energy">    -35.91390103 </i>
    <i name="e_wo_entrp">    -35.91390103 </i>
    <i name="e_0_energy">    -35.91390103 </i>
   </energy>
  </scstep>
  <scstep>
   <time name="dav">    1.92    0.96</time>
   <time name="total">    2.37    1.32</time>
   <energy>
    <i name="e_fr_energy">    -35.91390105 </i>
    <i name="e_wo_entrp">    -35.91390105 </i>
    <i name="e_0_energy">    -35.91390105 </i>
   </energy>
  </scstep>
  <scstep>
   <time name="dav">    1.72    0.87</time>
   <time name="total">    2.19    1.22</time>
   <energy>
    <i name="e_fr_energy">    -35.91390099 </i>
    <i name="e_wo_entrp">    -35.91390099 </i>
    <i name="e_0_energy">    -35.91390099 </i>
   </energy>
  </scstep>
  <scstep>
   <time name="dav">    1.45    0.73</time>
   <time name="total">    1.94    1.10</time>
   <energy>
    <i name="e_fr_energy">    -35.91390098 </i>
    <i name="e_wo_entrp">    -35.91390098 </i>
    <i name="e_0_energy">    -35.91390098 </i>
   </energy>
  </scstep>
  <scstep>
   <time name="dav">    1.37    0.69</time>
   <time name="total">    1.63    0.95</time>
   <energy>
    <i name="alphaZ">    217.43841536 </i>
    <i name="ewald">  -6083.17258286 </i>
    <i name="hartreedc">  -2303.44300495 </i>
    <i name="XCdc">    230.41678005 </i>
    <i name="pawpsdc">   8465.41776532 </i>
    <i name="pawaedc">  -8561.27183546 </i>
    <i name="eentropy">     -0.00000000 </i>
    <i name="bandstr">   -599.50102072 </i>
    <i name="atom">   8598.20158228 </i>
    <i name="e_fr_energy">    -35.91390098 </i>
    <i name="e_wo_entrp">    -35.91390098 </i>
    <i name="e_0_energy">    -35.91390098 </i>
   </energy>
  </scstep>
  <structure>
   <crystal>
    <varray name="basis" >
     <v>       4.34539863       0.00000000       0.00000000 </v>
     <v>       0.00000000       4.11936655       0.00000000 </v>
     <v>       0.00000000       0.00000000      11.35478920 </v>
    </varray>
    <i name="volume">    203.25401695 </i>
    <varray name="rec_basis" >
     <v>       0.23012848       0.00000000       0.00000000 </v>
     <v>       0.00000000       0.24275577       0.00000000 </v>
     <v>       0.00000000       0.00000000       0.08806857 </v>
    </varray>
   </crystal>
   <varray name="positions" >
    <v>       0.09893052       0.25000000       0.11517728 </v>
    <v>       0.40106948       0.25000000       0.61517728 </v>
    <v>       0.59893052       0.75000000       0.38482272 </v>
    <v>       0.90106948       0.75000000       0.88482272 </v>
    <v>       0.02605685       0.25000000       0.35716751 </v>
    <v>       0.47394315       0.25000000       0.85716751 </v>
    <v>       0.52605685       0.75000000       0.14283249 </v>
    <v>       0.97394315       0.75000000       0.64283249 </v>
   </varray>
  </structure>
  <varray name="forces" >
   <v>      -0.00267916       0.00000000       0.02902584 </v>
   <v>       0.00267916       0.00000000       0.02902584 </v>
   <v>      -0.00267916      -0.00000000      -0.02902584 </v>
   <v>       0.00267916      -0.00000000      -0.02902584 </v>
   <v>      -0.00393460       0.00000000      -0.03444004 </v>
   <v>       0.00393460      -0.00000000      -0.03444004 </v>
   <v>      -0.00393460      -0.00000000       0.03444004 </v>
   <v>       0.00393460       0.00000000       0.03444004 </v>
  </varray>
  <varray name="stress" >
   <v>      -0.31638668      -0.00000000       0.00000000 </v>
   <v>       0.00000000      -0.18530400       0.00000000 </v>
   <v>       0.00000000       0.00000000      -2.21751051 </v>
  </varray>
  <energy>
   <i name="e_fr_energy">    -37.43141717 </i>
   <i name="e_wo_entrp">    -37.43141717 </i>
   <i name="e_0_energy">    -37.43141717 </i>
  </energy>
  <scstep>
   <time name="total">    0.96    0.49</time>
   <energy>
    <i name="e_fr_energy">   -132.65297142 </i>
    <i name="e_wo_entrp">   -132.65297142 </i>
    <i name="e_0_energy">   -132.65297142 </i>
   </energy>
  </scstep>
  <scstep>
   <time name="total">    1.30    0.67</time>
   <energy>
    <i name="e_fr_energy">   -259.11932731 </i>
    <i name="e_wo_entrp">   -259.11932731 </i>
    <i name="e_0_energy">   -259.11932731 </i>
   </energy>
  </scstep>
  <scstep>
   <time name="total">    1.31    0.69</time>
   <energy>
    <i name="e_fr_energy">   -259.94734352 </i>
    <i name="e_wo_entrp">   -259.94734352 </i>
    <i name="e_0_energy">   -259.94734352 </i>
   </energy>
  </scstep>
  <scstep>
   <time name="total">    1.10    0.60</time>
   <energy>
    <i name="e_fr_energy">   -260.10228039 </i>
    <i name="e_wo_entrp">   -260.10228039 </i>
    <i name="e_0_energy">   -260.10228039 </i>
   </energy>
  </scstep>
  <scstep>
   <time name="total">    1.11    0.60</time>
   <energy>
    <i name="e_fr_energy">   -260.10538416 </i>
    <i name="e_wo_entrp">   -260.10538416 </i>
    <i name="e_0_energy">   -260.10538416 </i>
   </energy>
  </scstep>
  <scstep>
   <time name="total">    1.13    0.60</time>
   <energy>
    <i name="e_fr_energy">   -260.10746521 </i>
    <i name="e_wo_entrp">   -260.10746521 </i>
    <i name="e_0_energy">   -260.10746521 </i>
   </energy>
  </scstep>
  <scstep>
   <time name="total">    1.23    0.62</time>
   <energy>
    <i name="e_fr_energy">   -260.10766625 </i>
    <i name="e_wo_entrp">   -260.10766625 </i>
    <i name="e_0_energy">   -260.10766625 </i>
   </energy>
  </scstep>
  <scstep>
   <time name="total">    1.27    0.64</time>
   <energy>
    <i name="e_fr_energy">   -260.10767616 </i>
    <i name="e_wo_entrp">   -260.10767616 </i>
    <i name="e_0_energy">   -260.10767616 </i>
   </energy>
  </scstep>
  <scstep>
   <time name="total">    1.27    0.64</time>
   <energy>
    <i name="e_fr_energy">   -260.10767445 </i>
    <i name="e_wo_entrp">   -260.10767445 </i>
    <i name="e_0_energy">   -260.10767445 </i>
   </energy>
  </scstep>
  <scstep>
   <time name="total">    1.24    0.62</time>
   <energy>
    <i name="e_fr_energy">   -260.10766801 </i>
    <i name="e_wo_entrp">   -260.10766801 </i>
    <i name="e_0_energy">   -260.10766801 </i>
   </energy>
  </scstep>
  <scstep>
   <time name="total">    1.22    0.63</time>
   <energy>
    <i name="e_fr_energy">   -260.10768677 </i>
    <i name="e_wo_entrp">   -260.10768677 </i>
    <i name="e_0_energy">   -260.10768677 </i>
   </energy>
  </scstep>
  <scstep>
   <time name="total">    1.17    0.59</time>
   <energy>
    <i name="e_fr_energy">   -260.10768296 </i>
    <i name="e_wo_entrp">   -260.10768296 </i>
    <i name="e_0_energy">   -260.10768296 </i>
   </energy>
  </scstep>
  <scstep>
   <time name="total">    1.14    0.57</time>
   <energy>
    <i name="e_fr_energy">   -260.10768493 </i>
    <i name="e_wo_entrp">   -260.10768493 </i>
    <i name="e_0_energy">   -260.10768493 </i>
   </energy>
  </scstep>
  <scstep>
   <time name="total">    0.92    0.47</time>
   <energy>
    <i name="e_fr_energy">   -129.64448636 </i>
    <i name="e_wo_entrp">   -129.64448636 </i>
    <i name="e_0_energy">   -129.64448636 </i>
   </energy>
  </scstep>
  <scstep>
   <time name="total">    1.30    0.67</time>
   <energy>
    <i name="e_fr_energy">   -259.01636470 </i>
    <i name="e_wo_entrp">   -259.01636470 </i>
    <i name="e_0_energy">   -259.01636470 </i>
   </energy>
  </scstep>
  <scstep>
   <time name="total">    1.31    0.70</time>
   <energy>
    <i name="e_fr_energy">   -259.82906029 </i>
    <i name="e_wo_entrp">   -259.82906029 </i>
    <i name="e_0_energy">   -259.82906029 </i>
   </energy>
  </scstep>
  <scstep>
   <time name="total">    1.08    0.57</time>
   <energy>
    <i name="e_fr_energy">   -259.97089344 </i>
    <i name="e_wo_entrp">   -259.97089344 </i>
    <i name="e_0_energy">   -259.97089344 </i>
   </energy>
  </scstep>
  <scstep>
   <time name="total">    1.13    0.59</time>
   <energy>
    <i name="e_fr_energy">   -259.98131481 </i>
    <i name="e_wo_entrp">   -259.98131481 </i>
    <i name="e_0_energy">   -259.98131481 </i>
   </energy>
  </scstep>
  <scstep>
   <time name="total">    1.16    0.61</time>
   <energy>
    <i name="e_fr_energy">   -259.98448020 </i>
    <i name="e_wo_entrp">   -259.98448020 </i>
    <i name="e_0_energy">   -259.98448020 </i>
   </energy>
  </scstep>
  <scstep>
   <time name="total">    1.25    0.63</time>
   <energy>
    <i name="e_fr_energy">   -259.98455750 </i>
    <i name="e_wo_entrp">   -259.98455750 </i>
    <i name="e_0_energy">   -259.98455750 </i>
   </energy>
  </scstep>
  <scstep>
   <time name="total">    1.20    0.60</time>
   <energy>
    <i name="e_fr_energy">   -259.98457511 </i>
    <i name="e_wo_entrp">   -259.98457511 </i>
    <i name="e_0_energy">   -259.98457511 </i>
   </energy>
  </scstep>
  <scstep>
   <time name="total">    1.25    0.63</time>
   <energy>
    <i name="e_fr_energy">   -259.98454846 </i>
    <i name="e_wo_entrp">   -259.98454846 </i>
    <i name="e_0_energy">   -259.98454846 </i>
   </energy>
  </scstep>
  <scstep>
   <time name="total">    1.22    0.61</time>
   <energy>
    <i name="e_fr_energy">   -259.98458511 </i>
    <i name="e_wo_entrp">   -259.98458511 </i>
    <i name="e_0_energy">   -259.98458511 </i>
   </energy>
  </scstep>
  <scstep>
   <time name="total">    1.24    0.62</time>
   <energy>
    <i name="e_fr_energy">   -259.98455779 </i>
    <i name="e_wo_entrp">   -259.98455779 </i>
    <i name="e_0_energy">   -259.98455779 </i>
   </energy>
  </scstep>
  <scstep>
   <time name="total">    1.17    0.59</time>
   <energy>
    <i name="e_fr_energy">   -259.98460887 </i>
    <i name="e_wo_entrp">   -259.98460887 </i>
    <i name="e_0_energy">   -259.98460887 </i>
   </energy>
  </scstep>
  <scstep>
   <time name="total">    1.12    0.56</time>
   <energy>
    <i name="e_fr_energy">   -259.98455513 </i>
    <i name="e_wo_entrp">   -259.98455513 </i>
    <i name="e_0_energy">   -259.98455513 </i>
   </energy>
  </scstep>
  <scstep>
   <time name="total">    0.92    0.47</time>
   <energy>
    <i name="e_fr_energy">   -129.27766761 </i>
    <i name="e_wo_entrp">   -129.27766761 </i>
    <i name="e_0_energy">   -129.27766761 </i>
   </energy>
  </scstep>
  <scstep>
   <time name="total">    1.31    0.68</time>
   <energy>
    <i name="e_fr_energy">   -263.72973594 </i>
    <i name="e_wo_entrp">   -263.72973594 </i>
    <i name="e_0_energy">   -263.72973594 </i>
   </energy>
  </scstep>
  <scstep>
   <time name="total">    1.28    0.69</time>
   <energy>
    <i name="e_fr_energy">   -264.74090784 </i>
    <i name="e_wo_entrp">   -264.74090784 </i>
    <i name="e_0_energy">   -264.74090784 </i>
   </energy>
  </scstep>
  <scstep>
   <time name="total">    1.09    0.58</time>
   <energy>
    <i name="e_fr_energy">   -265.02931979 </i>
    <i name="e_wo_entrp">   -265.02931979 </i>
    <i name="e_0_energy">   -265.02931979 </i>
   </energy>
  </scstep>
  <scstep>
   <time name="total">    1.12    0.62</time>
   <energy>
    <i name="e_fr_energy">   -265.02930341 </i>
    <i name="e_wo_entrp">   -265.02930341 </i>
    <i name="e_0_energy">   -265.02930341 </i>
   </energy>
  </scstep>
  <scstep>
   <time name="total">    1.16    0.61</time>
   <energy>
    <i name="e_fr_energy">   -265.03313554 </i>
    <i name="e_wo_entrp">   -265.03313554 </i>
    <i name="e_0_energy">   -265.03313554 </i>
   </energy>
  </scstep>
  <scstep>
   <time name="total">    1.24    0.62</time>
   <energy>
    <i name="e_fr_energy">   -265.03331431 </i>
    <i name="e_wo_entrp">   -265.03331431 </i>
    <i name="e_0_energy">   -265.03331431 </i>
   </energy>
  </scstep>
  <scstep>
   <time name="total">    1.29    0.65</time>
   <energy>
    <i name="e_fr_energy">   -265.03335464 </i>
    <i name="e_wo_entrp">   -265.03335464 </i>
    <i name="e_0_energy">   -265.03335464 </i>
   </energy>
  </scstep>
  <scstep>
   <time name="total">    1.27    0.64</time>
   <energy>
    <i name="e_fr_energy">   -265.03330600 </i>
    <i name="e_wo_entrp">   -265.03330600 </i>
    <i name="e_0_energy">   -265.03330600 </i>
   </energy>
  </scstep>
  <scstep>
   <time name="total">    1.25    0.62</time>
   <energy>
    <i name="e_fr_energy">   -265.03334285 </i>
    <i name="e_wo_entrp">   -265.03334285 </i>
    <i name="e_0_energy">   -265.03334285 </i>
   </energy>
  </scstep>
  <scstep>
   <time name="total">    1.20    0.62</time>
   <energy>
    <i name="e_fr_energy">   -265.03332875 </i>
    <i name="e_wo_entrp">   -265.03332875 </i>
    <i name="e_0_energy">   -265.03332875 </i>
   </energy>
  </scstep>
  <scstep>
   <time name="total">    1.17    0.60</time>
   <energy>
    <i name="e_fr_energy">   -265.03333870 </i>
    <i name="e_wo_entrp">   -265.03333870 </i>
    <i name="e_0_energy">   -265.03333870 </i>
   </energy>
  </scstep>
  <scstep>
   <time name="total">    1.17    0.61</time>
   <energy>
    <i name="e_fr_energy">   -265.03333113 </i>
    <i name="e_wo_entrp">   -265.03333113 </i>
    <i name="e_0_energy">   -265.03333113 </i>
   </energy>
  </scstep>
  <scstep>
   <time name="total">    1.60    1.09</time>
   <energy>
    <i name="e_fr_energy">     -2.33645597 </i>
    <i name="e_wo_entrp">     -2.33645597 </i>
    <i name="e_0_energy">     -2.33645597 </i>
   </energy>
  </scstep>
  <scstep>
   <time name="total">    1.99    1.24</time>
   <energy>
    <i name="e_fr_energy">    -13.98964118 </i>
    <i name="e_wo_entrp">    -13.98964118 </i>
    <i name="e_0_energy">    -13.98964118 </i>
   </energy>
  </scstep>
  <scstep>
   <time name="total">    2.04    1.27</time>
   <energy>
    <i name="e_fr_energy">    -14.06306767 </i>
    <i name="e_wo_entrp">    -14.06306767 </i>
    <i name="e_0_energy">    -14.06306767 </i>
   </energy>
  </scstep>
  <scstep>
   <time name="total">    2.03    1.26</time>
   <energy>
    <i name="e_fr_energy">    -14.06349854 </i>
    <i name="e_wo_entrp">    -14.06349854 </i>
    <i name="e_0_energy">    -14.06349854 </i>
   </energy>
  </scstep>
  <scstep>
   <time name="total">    2.05    1.27</time>
   <energy>
    <i name="e_fr_energy">    -14.06358870 </i>
    <i name="e_wo_entrp">    -14.06358870 </i>
    <i name="e_0_energy">    -14.06358870 </i>
   </energy>
  </scstep>
  <scstep>
   <time name="total">    2.04    1.27</time>
   <energy>
    <i name="e_fr_energy">    -14.06359270 </i>
    <i name="e_wo_entrp">    -14.06359270 </i>
    <i name="e_0_energy">    -14.06359270 </i>
   </energy>
  </scstep>
  <scstep>
   <time name="total">    2.10    1.30</time>
   <energy>
    <i name="e_fr_energy">    -14.06359397 </i>
    <i name="e_wo_entrp">    -14.06359397 </i>
    <i name="e_0_energy">    -14.06359397 </i>
   </energy>
  </scstep>
  <scstep>
   <time name="total">    2.10    1.26</time>
   <energy>
    <i name="e_fr_energy">    -14.06359409 </i>
    <i name="e_wo_entrp">    -14.06359409 </i>
    <i name="e_0_energy">    -14.06359409 </i>
   </energy>
  </scstep>
  <scstep>
   <time name="total">    2.09    1.26</time>
   <energy>
    <i name="e_fr_energy">    -14.06359411 </i>
    <i name="e_wo_entrp">    -14.06359411 </i>
    <i name="e_0_energy">    -14.06359411 </i>
   </energy>
  </scstep>
  <scstep>
   <time name="total">    2.10    1.26</time>
   <energy>
    <i name="e_fr_energy">    -14.06359411 </i>
    <i name="e_wo_entrp">    -14.06359411 </i>
    <i name="e_0_energy">    -14.06359411 </i>
   </energy>
  </scstep>
  <scstep>
   <time name="total">    2.02    1.22</time>
   <energy>
    <i name="e_fr_energy">    -14.06359411 </i>
    <i name="e_wo_entrp">    -14.06359411 </i>
    <i name="e_0_energy">    -14.06359411 </i>
   </energy>
  </scstep>
  <scstep>
   <time name="total">    2.02    1.23</time>
   <energy>
    <i name="e_fr_energy">    -14.06359411 </i>
    <i name="e_wo_entrp">    -14.06359411 </i>
    <i name="e_0_energy">    -14.06359411 </i>
   </energy>
  </scstep>
  <scstep>
   <time name="total">    1.60    1.09</time>
   <energy>
    <i name="e_fr_energy">     -3.62169253 </i>
    <i name="e_wo_entrp">     -3.62169253 </i>
    <i name="e_0_energy">     -3.62169253 </i>
   </energy>
  </scstep>
  <scstep>
   <time name="total">    2.01    1.24</time>
   <energy>
    <i name="e_fr_energy">    -17.01197291 </i>
    <i name="e_wo_entrp">    -17.01197291 </i>
    <i name="e_0_energy">    -17.01197291 </i>
   </energy>
  </scstep>
  <scstep>
   <time name="total">    2.03    1.26</time>
   <energy>
    <i name="e_fr_energy">    -17.09297193 </i>
    <i name="e_wo_entrp">    -17.09297193 </i>
    <i name="e_0_energy">    -17.09297193 </i>
   </energy>
  </scstep>
  <scstep>
   <time name="total">    2.01    1.25</time>
   <energy>
    <i name="e_fr_energy">    -17.09339147 </i>
    <i name="e_wo_entrp">    -17.09339147 </i>
    <i name="e_0_energy">    -17.09339147 </i>
   </energy>
  </scstep>
  <scstep>
   <time name="total">    2.05    1.27</time>
   <energy>
    <i name="e_fr_energy">    -17.09346927 </i>
    <i name="e_wo_entrp">    -17.09346927 </i>
    <i name="e_0_energy">    -17.09346927 </i>
   </energy>
  </scstep>
  <scstep>
   <time name="total">    2.03    1.26</time>
   <energy>
    <i name="e_fr_energy">    -17.09347255 </i>
    <i name="e_wo_entrp">    -17.09347255 </i>
    <i name="e_0_energy">    -17.09347255 </i>
   </energy>
  </scstep>
  <scstep>
   <time name="total">    2.08    1.30</time>
   <energy>
    <i name="e_fr_energy">    -17.09347386 </i>
    <i name="e_wo_entrp">    -17.09347386 </i>
    <i name="e_0_energy">    -17.09347386 </i>
   </energy>
  </scstep>
  <scstep>
   <time name="total">    2.06    1.24</time>
   <energy>
    <i name="e_fr_energy">    -17.09347396 </i>
    <i name="e_wo_entrp">    -17.09347396 </i>
    <i name="e_0_energy">    -17.09347396 </i>
   </energy>
  </scstep>
  <scstep>
   <time name="total">    2.05    1.24</time>
   <energy>
    <i name="e_fr_energy">    -17.09347398 </i>
    <i name="e_wo_entrp">    -17.09347398 </i>
    <i name="e_0_energy">    -17.09347398 </i>
   </energy>
  </scstep>
  <scstep>
   <time name="total">    2.04    1.23</time>
   <energy>
    <i name="e_fr_energy">    -17.09347399 </i>
    <i name="e_wo_entrp">    -17.09347399 </i>
    <i name="e_0_energy">    -17.09347399 </i>
   </energy>
  </scstep>
  <scstep>
   <time name="total">    1.59    1.08</time>
   <energy>
    <i name="e_fr_energy">     -4.22795744 </i>
    <i name="e_wo_entrp">     -4.22795744 </i>
    <i name="e_0_energy">     -4.22795744 </i>
   </energy>
  </scstep>
  <scstep>
   <time name="total">    1.98    1.23</time>
   <energy>
    <i name="e_fr_energy">    -15.79486710 </i>
    <i name="e_wo_entrp">    -15.79486710 </i>
    <i name="e_0_energy">    -15.79486710 </i>
   </energy>
  </scstep>
  <scstep>
   <time name="total">    2.02    1.25</time>
   <energy>
    <i name="e_fr_energy">    -15.85744381 </i>
    <i name="e_wo_entrp">    -15.85744381 </i>
    <i name="e_0_energy">    -15.85744381 </i>
   </energy>
  </scstep>
  <scstep>
   <time name="total">    2.04    1.27</time>
   <energy>
    <i name="e_fr_energy">    -15.85784946 </i>
    <i name="e_wo_entrp">    -15.85784946 </i>
    <i name="e_0_energy">    -15.85784946 </i>
   </energy>
  </scstep>
  <scstep>
   <time name="total">    2.02    1.25</time>
   <energy>
    <i name="e_fr_energy">    -15.85794758 </i>
    <i name="e_wo_entrp">    -15.85794758 </i>
    <i name="e_0_energy">    -15.85794758 </i>
   </energy>
  </scstep>
  <scstep>
   <time name="total">    2.04    1.26</time>
   <energy>
    <i name="e_fr_energy">    -15.85795123 </i>
    <i name="e_wo_entrp">    -15.85795123 </i>
    <i name="e_0_energy">    -15.85795123 </i>
   </energy>
  </scstep>
  <scstep>
   <time name="total">    2.05    1.27</time>
   <energy>
    <i name="e_fr_energy">    -15.85795287 </i>
    <i name="e_wo_entrp">    -15.85795287 </i>
    <i name="e_0_energy">    -15.85795287 </i>
   </energy>
  </scstep>
  <scstep>
   <time name="total">    2.07    1.25</time>
   <energy>
    <i name="e_fr_energy">    -15.85795298 </i>
    <i name="e_wo_entrp">    -15.85795298 </i>
    <i name="e_0_energy">    -15.85795298 </i>
   </energy>
  </scstep>
  <scstep>
   <time name="total">    2.08    1.25</time>
   <energy>
    <i name="e_fr_energy">    -15.85795301 </i>
    <i name="e_wo_entrp">    -15.85795301 </i>
    <i name="e_0_energy">    -15.85795301 </i>
   </energy>
  </scstep>
  <scstep>
   <time name="total">    2.01    1.22</time>
   <energy>
    <i name="e_fr_energy">    -15.85795301 </i>
    <i name="e_wo_entrp">    -15.85795301 </i>
    <i name="e_0_energy">    -15.85795301 </i>
   </energy>
  </scstep>
  <scstep>
   <time name="total">    1.98    1.20</time>
   <energy>
    <i name="e_fr_energy">    -15.85795301 </i>
    <i name="e_wo_entrp">    -15.85795301 </i>
    <i name="e_0_energy">    -15.85795301 </i>
   </energy>
  </scstep>
  <scstep>
   <time name="total">    1.90    1.16</time>
   <energy>
    <i name="e_fr_energy">    -15.85795301 </i>
    <i name="e_wo_entrp">    -15.85795301 </i>
    <i name="e_0_energy">    -15.85795301 </i>
   </energy>
  </scstep>
  <varray name="dielectric_ipa" >
   <v>      26.04108325       0.00000000       0.00000000 </v>
   <v>      -0.00000000      31.43596847       0.00000000 </v>
   <v>       0.00000000       0.00000000      29.23604853 </v>
  </varray>
  <kpoints>
   <generation param="Gamma">
    <v type="int" name="divisions">       8        9        3 </v>
    <v name="usershift">      0.00000000       0.00000000       0.00000000 </v>
    <v name="genvec1">      0.12500000       0.00000000       0.00000000 </v>
    <v name="genvec2">      0.00000000       0.11111111       0.00000000 </v>
    <v name="genvec3">      0.00000000       0.00000000       0.33333333 </v>
    <v name="shift">      0.00000000       0.00000000       0.00000000 </v>
   </generation>
   <varray name="kpointlist" >
    <v>       0.00000000       0.00000000       0.00000000 </v>
    <v>       0.12500000       0.00000000       0.00000000 </v>
    <v>       0.25000000       0.00000000       0.00000000 </v>
    <v>       0.37500000       0.00000000       0.00000000 </v>
    <v>       0.50000000       0.00000000       0.00000000 </v>
    <v>       0.00000000       0.11111111       0.00000000 </v>
    <v>       0.12500000       0.11111111       0.00000000 </v>
    <v>       0.25000000       0.11111111       0.00000000 </v>
    <v>       0.37500000       0.11111111       0.00000000 </v>
    <v>       0.50000000       0.11111111       0.00000000 </v>
    <v>       0.00000000       0.22222222       0.00000000 </v>
    <v>       0.12500000       0.22222222       0.00000000 </v>
    <v>       0.25000000       0.22222222       0.00000000 </v>
    <v>       0.37500000       0.22222222       0.00000000 </v>
    <v>       0.50000000       0.22222222       0.00000000 </v>
    <v>       0.00000000       0.33333333       0.00000000 </v>
    <v>       0.12500000       0.33333333       0.00000000 </v>
    <v>       0.25000000       0.33333333       0.00000000 </v>
    <v>       0.37500000       0.33333333       0.00000000 </v>
    <v>       0.50000000       0.33333333       0.00000000 </v>
    <v>       0.00000000       0.44444444       0.00000000 </v>
    <v>       0.12500000       0.44444444       0.00000000 </v>
    <v>       0.25000000       0.44444444       0.00000000 </v>
    <v>       0.37500000       0.44444444       0.00000000 </v>
    <v>       0.50000000       0.44444444       0.00000000 </v>
    <v>       0.00000000       0.00000000       0.33333333 </v>
    <v>       0.12500000       0.00000000       0.33333333 </v>
    <v>       0.25000000       0.00000000       0.33333333 </v>
    <v>       0.37500000       0.00000000       0.33333333 </v>
    <v>       0.50000000       0.00000000       0.33333333 </v>
    <v>       0.00000000       0.11111111       0.33333333 </v>
    <v>       0.12500000       0.11111111       0.33333333 </v>
    <v>       0.25000000       0.11111111       0.33333333 </v>
    <v>       0.37500000       0.11111111       0.33333333 </v>
    <v>       0.50000000       0.11111111       0.33333333 </v>
    <v>       0.00000000       0.22222222       0.33333333 </v>
    <v>       0.12500000       0.22222222       0.33333333 </v>
    <v>       0.25000000       0.22222222       0.33333333 </v>
    <v>       0.37500000       0.22222222       0.33333333 </v>
    <v>       0.50000000       0.22222222       0.33333333 </v>
    <v>       0.00000000       0.33333333       0.33333333 </v>
    <v>       0.12500000       0.33333333       0.33333333 </v>
    <v>       0.25000000       0.33333333       0.33333333 </v>
    <v>       0.37500000       0.33333333       0.33333333 </v>
    <v>       0.50000000       0.33333333       0.33333333 </v>
    <v>       0.00000000       0.44444444       0.33333333 </v>
    <v>       0.12500000       0.44444444       0.33333333 </v>
    <v>       0.25000000       0.44444444       0.33333333 </v>
    <v>       0.37500000       0.44444444       0.33333333 </v>
    <v>       0.50000000       0.44444444       0.33333333 </v>
   </varray>
   <varray name="weights" >
    <v>       0.00462963 </v>
    <v>       0.00925926 </v>
    <v>       0.00925926 </v>
    <v>       0.00925926 </v>
    <v>       0.00462963 </v>
    <v>       0.00925926 </v>
    <v>       0.01851852 </v>
    <v>       0.01851852 </v>
    <v>       0.01851852 </v>
    <v>       0.00925926 </v>
    <v>       0.00925926 </v>
    <v>       0.01851852 </v>
    <v>       0.01851852 </v>
    <v>       0.01851852 </v>
    <v>       0.00925926 </v>
    <v>       0.00925926 </v>
    <v>       0.01851852 </v>
    <v>       0.01851852 </v>
    <v>       0.01851852 </v>
    <v>       0.00925926 </v>
    <v>       0.00925926 </v>
    <v>       0.01851852 </v>
    <v>       0.01851852 </v>
    <v>       0.01851852 </v>
    <v>       0.00925926 </v>
    <v>       0.00925926 </v>
    <v>       0.01851852 </v>
    <v>       0.01851852 </v>
    <v>       0.01851852 </v>
    <v>       0.00925926 </v>
    <v>       0.01851852 </v>
    <v>       0.03703704 </v>
    <v>       0.03703704 </v>
    <v>       0.03703704 </v>
    <v>       0.01851852 </v>
    <v>       0.01851852 </v>
    <v>       0.03703704 </v>
    <v>       0.03703704 </v>
    <v>       0.03703704 </v>
    <v>       0.01851852 </v>
    <v>       0.01851852 </v>
    <v>       0.03703704 </v>
    <v>       0.03703704 </v>
    <v>       0.03703704 </v>
    <v>       0.01851852 </v>
    <v>       0.01851852 </v>
    <v>       0.03703704 </v>
    <v>       0.03703704 </v>
    <v>       0.03703704 </v>
    <v>       0.01851852 </v>
   </varray>
  </kpoints>
  <scstep>
   <time name="total">    1.60    1.09</time>
   <energy>
    <i name="e_fr_energy">     -2.33645597 </i>
    <i name="e_wo_entrp">     -2.33645597 </i>
    <i name="e_0_energy">     -2.33645597 </i>
   </energy>
  </scstep>
  <scstep>
   <time name="total">    2.29    1.41</time>
   <energy>
    <i name="e_fr_energy">    -13.98964118 </i>
    <i name="e_wo_entrp">    -13.98964118 </i>
    <i name="e_0_energy">    -13.98964118 </i>
   </energy>
  </scstep>
  <scstep>
   <time name="total">    2.15    1.38</time>
   <energy>
    <i name="e_fr_energy">    -13.48767805 </i>
    <i name="e_wo_entrp">    -13.48767805 </i>
    <i name="e_0_energy">    -13.48767805 </i>
   </energy>
  </scstep>
  <scstep>
   <time name="total">    2.16    1.40</time>
   <energy>
    <i name="e_fr_energy">    -13.65787982 </i>
    <i name="e_wo_entrp">    -13.65787982 </i>
    <i name="e_0_energy">    -13.65787982 </i>
   </energy>
  </scstep>
  <scstep>
   <time name="total">    2.18    1.40</time>
   <energy>
    <i name="e_fr_energy">    -13.86062845 </i>
    <i name="e_wo_entrp">    -13.86062845 </i>
    <i name="e_0_energy">    -13.86062845 </i>
   </energy>
  </scstep>
  <scstep>
   <time name="total">    2.23    1.40</time>
   <energy>
    <i name="e_fr_energy">    -13.91156217 </i>
    <i name="e_wo_entrp">    -13.91156217 </i>
    <i name="e_0_energy">    -13.91156217 </i>
   </energy>
  </scstep>
  <scstep>
   <time name="total">    2.29    1.43</time>
   <energy>
    <i name="e_fr_energy">    -13.92267474 </i>
    <i name="e_wo_entrp">    -13.92267474 </i>
    <i name="e_0_energy">    -13.92267474 </i>
   </energy>
  </scstep>
  <scstep>
   <time name="total">    2.23    1.40</time>
   <energy>
    <i name="e_fr_energy">    -13.92063234 </i>
    <i name="e_wo_entrp">    -13.92063234 </i>
    <i name="e_0_energy">    -13.92063234 </i>
   </energy>
  </scstep>
  <scstep>
   <time name="total">    2.29    1.43</time>
   <energy>
    <i name="e_fr_energy">    -13.92745832 </i>
    <i name="e_wo_entrp">    -13.92745832 </i>
    <i name="e_0_energy">    -13.92745832 </i>
   </energy>
  </scstep>
  <scstep>
   <time name="total">    2.28    1.43</time>
   <energy>
    <i name="e_fr_energy">    -13.92426147 </i>
    <i name="e_wo_entrp">    -13.92426147 </i>
    <i name="e_0_energy">    -13.92426147 </i>
   </energy>
  </scstep>
  <scstep>
   <time name="total">    2.23    1.40</time>
   <energy>
    <i name="e_fr_energy">    -13.92745439 </i>
    <i name="e_wo_entrp">    -13.92745439 </i>
    <i name="e_0_energy">    -13.92745439 </i>
   </energy>
  </scstep>
  <scstep>
   <time name="total">    2.29    1.43</time>
   <energy>
    <i name="e_fr_energy">    -13.92379659 </i>
    <i name="e_wo_entrp">    -13.92379659 </i>
    <i name="e_0_energy">    -13.92379659 </i>
   </energy>
  </scstep>
  <scstep>
   <time name="total">    2.30    1.44</time>
   <energy>
    <i name="e_fr_energy">    -13.92408737 </i>
    <i name="e_wo_entrp">    -13.92408737 </i>
    <i name="e_0_energy">    -13.92408737 </i>
   </energy>
  </scstep>
  <scstep>
   <time name="total">    2.19    1.38</time>
   <energy>
    <i name="e_fr_energy">    -13.92715899 </i>
    <i name="e_wo_entrp">    -13.92715899 </i>
    <i name="e_0_energy">    -13.92715899 </i>
   </energy>
  </scstep>
  <scstep>
   <time name="total">    2.20    1.39</time>
   <energy>
    <i name="e_fr_energy">    -13.92530261 </i>
    <i name="e_wo_entrp">    -13.92530261 </i>
    <i name="e_0_energy">    -13.92530261 </i>
   </energy>
  </scstep>
  <scstep>
   <time name="total">    2.15    1.36</time>
   <energy>
    <i name="e_fr_energy">    -13.92353151 </i>
    <i name="e_wo_entrp">    -13.92353151 </i>
    <i name="e_0_energy">    -13.92353151 </i>
   </energy>
  </scstep>
  <scstep>
   <time name="total">    2.11    1.34</time>
   <energy>
    <i name="e_fr_energy">    -13.92754321 </i>
    <i name="e_wo_entrp">    -13.92754321 </i>
    <i name="e_0_energy">    -13.92754321 </i>
   </energy>
  </scstep>
  <scstep>
   <time name="total">    2.12    1.34</time>
   <energy>
    <i name="e_fr_energy">    -13.92461253 </i>
    <i name="e_wo_entrp">    -13.92461253 </i>
    <i name="e_0_energy">    -13.92461253 </i>
   </energy>
  </scstep>
  <scstep>
   <time name="total">    2.13    1.35</time>
   <energy>
    <i name="e_fr_energy">    -13.92653847 </i>
    <i name="e_wo_entrp">    -13.92653847 </i>
    <i name="e_0_energy">    -13.92653847 </i>
   </energy>
  </scstep>
  <scstep>
   <time name="total">    2.09    1.33</time>
   <energy>
    <i name="e_fr_energy">    -13.92878898 </i>
    <i name="e_wo_entrp">    -13.92878898 </i>
    <i name="e_0_energy">    -13.92878898 </i>
   </energy>
  </scstep>
  <scstep>
   <time name="total">    2.13    1.35</time>
   <energy>
    <i name="e_fr_energy">    -13.92886191 </i>
    <i name="e_wo_entrp">    -13.92886191 </i>
    <i name="e_0_energy">    -13.92886191 </i>
   </energy>
  </scstep>
  <scstep>
   <time name="total">    2.14    1.35</time>
   <energy>
    <i name="e_fr_energy">    -13.92717559 </i>
    <i name="e_wo_entrp">    -13.92717559 </i>
    <i name="e_0_energy">    -13.92717559 </i>
   </energy>
  </scstep>
  <scstep>
   <time name="total">    2.09    1.33</time>
   <energy>
    <i name="e_fr_energy">    -13.92710286 </i>
    <i name="e_wo_entrp">    -13.92710286 </i>
    <i name="e_0_energy">    -13.92710286 </i>
   </energy>
  </scstep>
  <scstep>
   <time name="total">    2.09    1.33</time>
   <energy>
    <i name="e_fr_energy">    -13.92925869 </i>
    <i name="e_wo_entrp">    -13.92925869 </i>
    <i name="e_0_energy">    -13.92925869 </i>
   </energy>
  </scstep>
  <scstep>
   <time name="total">    2.09    1.33</time>
   <energy>
    <i name="e_fr_energy">    -13.92680447 </i>
    <i name="e_wo_entrp">    -13.92680447 </i>
    <i name="e_0_energy">    -13.92680447 </i>
   </energy>
  </scstep>
  <kpoints>
   <generation param="Gamma">
    <v type="int" name="divisions">       8        9        3 </v>
    <v name="usershift">      0.00000000       0.00000000       0.00000000 </v>
    <v name="genvec1">      0.12500000       0.00000000       0.00000000 </v>
    <v name="genvec2">      0.00000000       0.11111111       0.00000000 </v>
    <v name="genvec3">      0.00000000       0.00000000       0.33333333 </v>
    <v name="shift">      0.00000000       0.00000000       0.00000000 </v>
   </generation>
   <varray name="kpointlist" >
    <v>       0.00000000       0.00000000       0.00000000 </v>
    <v>       0.12500000       0.00000000       0.00000000 </v>
    <v>       0.25000000       0.00000000       0.00000000 </v>
    <v>       0.37500000       0.00000000       0.00000000 </v>
    <v>       0.50000000       0.00000000       0.00000000 </v>
    <v>       0.00000000       0.11111111       0.00000000 </v>
    <v>       0.12500000       0.11111111       0.00000000 </v>
    <v>       0.25000000       0.11111111       0.00000000 </v>
    <v>       0.37500000       0.11111111       0.00000000 </v>
    <v>       0.50000000       0.11111111       0.00000000 </v>
    <v>       0.00000000       0.22222222       0.00000000 </v>
    <v>       0.12500000       0.22222222       0.00000000 </v>
    <v>       0.25000000       0.22222222       0.00000000 </v>
    <v>       0.37500000       0.22222222       0.00000000 </v>
    <v>       0.50000000       0.22222222       0.00000000 </v>
    <v>       0.00000000       0.33333333       0.00000000 </v>
    <v>       0.12500000       0.33333333       0.00000000 </v>
    <v>       0.25000000       0.33333333       0.00000000 </v>
    <v>       0.37500000       0.33333333       0.00000000 </v>
    <v>       0.50000000       0.33333333       0.00000000 </v>
    <v>       0.00000000       0.44444444       0.00000000 </v>
    <v>       0.12500000       0.44444444       0.00000000 </v>
    <v>       0.25000000       0.44444444       0.00000000 </v>
    <v>       0.37500000       0.44444444       0.00000000 </v>
    <v>       0.50000000       0.44444444       0.00000000 </v>
    <v>       0.00000000       0.00000000       0.33333333 </v>
    <v>       0.12500000       0.00000000       0.33333333 </v>
    <v>       0.25000000       0.00000000       0.33333333 </v>
    <v>       0.37500000       0.00000000       0.33333333 </v>
    <v>       0.50000000       0.00000000       0.33333333 </v>
    <v>       0.00000000       0.11111111       0.33333333 </v>
    <v>       0.12500000       0.11111111       0.33333333 </v>
    <v>       0.25000000       0.11111111       0.33333333 </v>
    <v>       0.37500000       0.11111111       0.33333333 </v>
    <v>       0.50000000       0.11111111       0.33333333 </v>
    <v>       0.00000000       0.22222222       0.33333333 </v>
    <v>       0.12500000       0.22222222       0.33333333 </v>
    <v>       0.25000000       0.22222222       0.33333333 </v>
    <v>       0.37500000       0.22222222       0.33333333 </v>
    <v>       0.50000000       0.22222222       0.33333333 </v>
    <v>       0.00000000       0.33333333       0.33333333 </v>
    <v>       0.12500000       0.33333333       0.33333333 </v>
    <v>       0.25000000       0.33333333       0.33333333 </v>
    <v>       0.37500000       0.33333333       0.33333333 </v>
    <v>       0.50000000       0.33333333       0.33333333 </v>
    <v>       0.00000000       0.44444444       0.33333333 </v>
    <v>       0.12500000       0.44444444       0.33333333 </v>
    <v>       0.25000000       0.44444444       0.33333333 </v>
    <v>       0.37500000       0.44444444       0.33333333 </v>
    <v>       0.50000000       0.44444444       0.33333333 </v>
   </varray>
   <varray name="weights" >
    <v>       0.00462963 </v>
    <v>       0.00925926 </v>
    <v>       0.00925926 </v>
    <v>       0.00925926 </v>
    <v>       0.00462963 </v>
    <v>       0.00925926 </v>
    <v>       0.01851852 </v>
    <v>       0.01851852 </v>
    <v>       0.01851852 </v>
    <v>       0.00925926 </v>
    <v>       0.00925926 </v>
    <v>       0.01851852 </v>
    <v>       0.01851852 </v>
    <v>       0.01851852 </v>
    <v>       0.00925926 </v>
    <v>       0.00925926 </v>
    <v>       0.01851852 </v>
    <v>       0.01851852 </v>
    <v>       0.01851852 </v>
    <v>       0.00925926 </v>
    <v>       0.00925926 </v>
    <v>       0.01851852 </v>
    <v>       0.01851852 </v>
    <v>       0.01851852 </v>
    <v>       0.00925926 </v>
    <v>       0.00925926 </v>
    <v>       0.01851852 </v>
    <v>       0.01851852 </v>
    <v>       0.01851852 </v>
    <v>       0.00925926 </v>
    <v>       0.01851852 </v>
    <v>       0.03703704 </v>
    <v>       0.03703704 </v>
    <v>       0.03703704 </v>
    <v>       0.01851852 </v>
    <v>       0.01851852 </v>
    <v>       0.03703704 </v>
    <v>       0.03703704 </v>
    <v>       0.03703704 </v>
    <v>       0.01851852 </v>
    <v>       0.01851852 </v>
    <v>       0.03703704 </v>
    <v>       0.03703704 </v>
    <v>       0.03703704 </v>
    <v>       0.01851852 </v>
    <v>       0.01851852 </v>
    <v>       0.03703704 </v>
    <v>       0.03703704 </v>
    <v>       0.03703704 </v>
    <v>       0.01851852 </v>
   </varray>
  </kpoints>
  <scstep>
   <time name="total">    1.57    1.06</time>
   <energy>
    <i name="e_fr_energy">     -3.62169253 </i>
    <i name="e_wo_entrp">     -3.62169253 </i>
    <i name="e_0_energy">     -3.62169253 </i>
   </energy>
  </scstep>
  <scstep>
   <time name="total">    2.27    1.38</time>
   <energy>
    <i name="e_fr_energy">    -17.01197291 </i>
    <i name="e_wo_entrp">    -17.01197291 </i>
    <i name="e_0_energy">    -17.01197291 </i>
   </energy>
  </scstep>
  <scstep>
   <time name="total">    2.11    1.34</time>
   <energy>
    <i name="e_fr_energy">    -16.72888911 </i>
    <i name="e_wo_entrp">    -16.72888911 </i>
    <i name="e_0_energy">    -16.72888911 </i>
   </energy>
  </scstep>
  <scstep>
   <time name="total">    2.13    1.35</time>
   <energy>
    <i name="e_fr_energy">    -17.17812741 </i>
    <i name="e_wo_entrp">    -17.17812741 </i>
    <i name="e_0_energy">    -17.17812741 </i>
   </energy>
  </scstep>
  <scstep>
   <time name="total">    2.18    1.38</time>
   <energy>
    <i name="e_fr_energy">    -17.30639233 </i>
    <i name="e_wo_entrp">    -17.30639233 </i>
    <i name="e_0_energy">    -17.30639233 </i>
   </energy>
  </scstep>
  <scstep>
   <time name="total">    2.23    1.39</time>
   <energy>
    <i name="e_fr_energy">    -17.32467080 </i>
    <i name="e_wo_entrp">    -17.32467080 </i>
    <i name="e_0_energy">    -17.32467080 </i>
   </energy>
  </scstep>
  <scstep>
   <time name="total">    2.22    1.39</time>
   <energy>
    <i name="e_fr_energy">    -17.32256285 </i>
    <i name="e_wo_entrp">    -17.32256285 </i>
    <i name="e_0_energy">    -17.32256285 </i>
   </energy>
  </scstep>
  <scstep>
   <time name="total">    2.27    1.41</time>
   <energy>
    <i name="e_fr_energy">    -17.32801085 </i>
    <i name="e_wo_entrp">    -17.32801085 </i>
    <i name="e_0_energy">    -17.32801085 </i>
   </energy>
  </scstep>
  <scstep>
   <time name="total">    2.23    1.39</time>
   <energy>
    <i name="e_fr_energy">    -17.32432802 </i>
    <i name="e_wo_entrp">    -17.32432802 </i>
    <i name="e_0_energy">    -17.32432802 </i>
   </energy>
  </scstep>
  <scstep>
   <time name="total">    2.28    1.41</time>
   <energy>
    <i name="e_fr_energy">    -17.32702605 </i>
    <i name="e_wo_entrp">    -17.32702605 </i>
    <i name="e_0_energy">    -17.32702605 </i>
   </energy>
  </scstep>
  <scstep>
   <time name="total">    2.28    1.41</time>
   <energy>
    <i name="e_fr_energy">    -17.32490653 </i>
    <i name="e_wo_entrp">    -17.32490653 </i>
    <i name="e_0_energy">    -17.32490653 </i>
   </energy>
  </scstep>
  <scstep>
   <time name="total">    2.26    1.41</time>
   <energy>
    <i name="e_fr_energy">    -17.32584305 </i>
    <i name="e_wo_entrp">    -17.32584305 </i>
    <i name="e_0_energy">    -17.32584305 </i>
   </energy>
  </scstep>
  <scstep>
   <time name="total">    2.21    1.38</time>
   <energy>
    <i name="e_fr_energy">    -17.32590167 </i>
    <i name="e_wo_entrp">    -17.32590167 </i>
    <i name="e_0_energy">    -17.32590167 </i>
   </energy>
  </scstep>
  <scstep>
   <time name="total">    2.14    1.34</time>
   <energy>
    <i name="e_fr_energy">    -17.32623160 </i>
    <i name="e_wo_entrp">    -17.32623160 </i>
    <i name="e_0_energy">    -17.32623160 </i>
   </energy>
  </scstep>
  <scstep>
   <time name="total">    2.08    1.32</time>
   <energy>
    <i name="e_fr_energy">    -17.32440728 </i>
    <i name="e_wo_entrp">    -17.32440728 </i>
    <i name="e_0_energy">    -17.32440728 </i>
   </energy>
  </scstep>
  <scstep>
   <time name="total">    2.10    1.32</time>
   <energy>
    <i name="e_fr_energy">    -17.32532106 </i>
    <i name="e_wo_entrp">    -17.32532106 </i>
    <i name="e_0_energy">    -17.32532106 </i>
   </energy>
  </scstep>
  <scstep>
   <time name="total">    2.09    1.32</time>
   <energy>
    <i name="e_fr_energy">    -17.32692065 </i>
    <i name="e_wo_entrp">    -17.32692065 </i>
    <i name="e_0_energy">    -17.32692065 </i>
   </energy>
  </scstep>
  <scstep>
   <time name="total">    2.11    1.33</time>
   <energy>
    <i name="e_fr_energy">    -17.32649388 </i>
    <i name="e_wo_entrp">    -17.32649388 </i>
    <i name="e_0_energy">    -17.32649388 </i>
   </energy>
  </scstep>
  <scstep>
   <time name="total">    2.08    1.31</time>
   <energy>
    <i name="e_fr_energy">    -17.32642718 </i>
    <i name="e_wo_entrp">    -17.32642718 </i>
    <i name="e_0_energy">    -17.32642718 </i>
   </energy>
  </scstep>
  <scstep>
   <time name="total">    2.08    1.31</time>
   <energy>
    <i name="e_fr_energy">    -17.32630025 </i>
    <i name="e_wo_entrp">    -17.32630025 </i>
    <i name="e_0_energy">    -17.32630025 </i>
   </energy>
  </scstep>
  <scstep>
   <time name="total">    2.07    1.31</time>
   <energy>
    <i name="e_fr_energy">    -17.32573896 </i>
    <i name="e_wo_entrp">    -17.32573896 </i>
    <i name="e_0_energy">    -17.32573896 </i>
   </energy>
  </scstep>
  <scstep>
   <time name="total">    2.09    1.32</time>
   <energy>
    <i name="e_fr_energy">    -17.32676463 </i>
    <i name="e_wo_entrp">    -17.32676463 </i>
    <i name="e_0_energy">    -17.32676463 </i>
   </energy>
  </scstep>
  <kpoints>
   <generation param="Gamma">
    <v type="int" name="divisions">       8        9        3 </v>
    <v name="usershift">      0.00000000       0.00000000       0.00000000 </v>
    <v name="genvec1">      0.12500000       0.00000000       0.00000000 </v>
    <v name="genvec2">      0.00000000       0.11111111       0.00000000 </v>
    <v name="genvec3">      0.00000000       0.00000000       0.33333333 </v>
    <v name="shift">      0.00000000       0.00000000       0.00000000 </v>
   </generation>
   <varray name="kpointlist" >
    <v>       0.00000000       0.00000000       0.00000000 </v>
    <v>       0.12500000       0.00000000       0.00000000 </v>
    <v>       0.25000000       0.00000000       0.00000000 </v>
    <v>       0.37500000       0.00000000       0.00000000 </v>
    <v>       0.50000000       0.00000000       0.00000000 </v>
    <v>       0.00000000       0.11111111       0.00000000 </v>
    <v>       0.12500000       0.11111111       0.00000000 </v>
    <v>       0.25000000       0.11111111       0.00000000 </v>
    <v>       0.37500000       0.11111111       0.00000000 </v>
    <v>       0.50000000       0.11111111       0.00000000 </v>
    <v>       0.00000000       0.22222222       0.00000000 </v>
    <v>       0.12500000       0.22222222       0.00000000 </v>
    <v>       0.25000000       0.22222222       0.00000000 </v>
    <v>       0.37500000       0.22222222       0.00000000 </v>
    <v>       0.50000000       0.22222222       0.00000000 </v>
    <v>       0.00000000       0.33333333       0.00000000 </v>
    <v>       0.12500000       0.33333333       0.00000000 </v>
    <v>       0.25000000       0.33333333       0.00000000 </v>
    <v>       0.37500000       0.33333333       0.00000000 </v>
    <v>       0.50000000       0.33333333       0.00000000 </v>
    <v>       0.00000000       0.44444444       0.00000000 </v>
    <v>       0.12500000       0.44444444       0.00000000 </v>
    <v>       0.25000000       0.44444444       0.00000000 </v>
    <v>       0.37500000       0.44444444       0.00000000 </v>
    <v>       0.50000000       0.44444444       0.00000000 </v>
    <v>       0.00000000       0.00000000       0.33333333 </v>
    <v>       0.12500000       0.00000000       0.33333333 </v>
    <v>       0.25000000       0.00000000       0.33333333 </v>
    <v>       0.37500000       0.00000000       0.33333333 </v>
    <v>       0.50000000       0.00000000       0.33333333 </v>
    <v>       0.00000000       0.11111111       0.33333333 </v>
    <v>       0.12500000       0.11111111       0.33333333 </v>
    <v>       0.25000000       0.11111111       0.33333333 </v>
    <v>       0.37500000       0.11111111       0.33333333 </v>
    <v>       0.50000000       0.11111111       0.33333333 </v>
    <v>       0.00000000       0.22222222       0.33333333 </v>
    <v>       0.12500000       0.22222222       0.33333333 </v>
    <v>       0.25000000       0.22222222       0.33333333 </v>
    <v>       0.37500000       0.22222222       0.33333333 </v>
    <v>       0.50000000       0.22222222       0.33333333 </v>
    <v>       0.00000000       0.33333333       0.33333333 </v>
    <v>       0.12500000       0.33333333       0.33333333 </v>
    <v>       0.25000000       0.33333333       0.33333333 </v>
    <v>       0.37500000       0.33333333       0.33333333 </v>
    <v>       0.50000000       0.33333333       0.33333333 </v>
    <v>       0.00000000       0.44444444       0.33333333 </v>
    <v>       0.12500000       0.44444444       0.33333333 </v>
    <v>       0.25000000       0.44444444       0.33333333 </v>
    <v>       0.37500000       0.44444444       0.33333333 </v>
    <v>       0.50000000       0.44444444       0.33333333 </v>
   </varray>
   <varray name="weights" >
    <v>       0.00462963 </v>
    <v>       0.00925926 </v>
    <v>       0.00925926 </v>
    <v>       0.00925926 </v>
    <v>       0.00462963 </v>
    <v>       0.00925926 </v>
    <v>       0.01851852 </v>
    <v>       0.01851852 </v>
    <v>       0.01851852 </v>
    <v>       0.00925926 </v>
    <v>       0.00925926 </v>
    <v>       0.01851852 </v>
    <v>       0.01851852 </v>
    <v>       0.01851852 </v>
    <v>       0.00925926 </v>
    <v>       0.00925926 </v>
    <v>       0.01851852 </v>
    <v>       0.01851852 </v>
    <v>       0.01851852 </v>
    <v>       0.00925926 </v>
    <v>       0.00925926 </v>
    <v>       0.01851852 </v>
    <v>       0.01851852 </v>
    <v>       0.01851852 </v>
    <v>       0.00925926 </v>
    <v>       0.00925926 </v>
    <v>       0.01851852 </v>
    <v>       0.01851852 </v>
    <v>       0.01851852 </v>
    <v>       0.00925926 </v>
    <v>       0.01851852 </v>
    <v>       0.03703704 </v>
    <v>       0.03703704 </v>
    <v>       0.03703704 </v>
    <v>       0.01851852 </v>
    <v>       0.01851852 </v>
    <v>       0.03703704 </v>
    <v>       0.03703704 </v>
    <v>       0.03703704 </v>
    <v>       0.01851852 </v>
    <v>       0.01851852 </v>
    <v>       0.03703704 </v>
    <v>       0.03703704 </v>
    <v>       0.03703704 </v>
    <v>       0.01851852 </v>
    <v>       0.01851852 </v>
    <v>       0.03703704 </v>
    <v>       0.03703704 </v>
    <v>       0.03703704 </v>
    <v>       0.01851852 </v>
   </varray>
  </kpoints>
  <scstep>
   <time name="total">    1.59    1.07</time>
   <energy>
    <i name="e_fr_energy">     -4.22795744 </i>
    <i name="e_wo_entrp">     -4.22795744 </i>
    <i name="e_0_energy">     -4.22795744 </i>
   </energy>
  </scstep>
  <scstep>
   <time name="total">    2.27    1.39</time>
   <energy>
    <i name="e_fr_energy">    -15.79486710 </i>
    <i name="e_wo_entrp">    -15.79486710 </i>
    <i name="e_0_energy">    -15.79486710 </i>
   </energy>
  </scstep>
  <scstep>
   <time name="total">    2.15    1.36</time>
   <energy>
    <i name="e_fr_energy">    -15.42226042 </i>
    <i name="e_wo_entrp">    -15.42226042 </i>
    <i name="e_0_energy">    -15.42226042 </i>
   </energy>
  </scstep>
  <scstep>
   <time name="total">    2.16    1.38</time>
   <energy>
    <i name="e_fr_energy">    -15.65691125 </i>
    <i name="e_wo_entrp">    -15.65691125 </i>
    <i name="e_0_energy">    -15.65691125 </i>
   </energy>
  </scstep>
  <scstep>
   <time name="total">    2.17    1.39</time>
   <energy>
    <i name="e_fr_energy">    -15.79829050 </i>
    <i name="e_wo_entrp">    -15.79829050 </i>
    <i name="e_0_energy">    -15.79829050 </i>
   </energy>
  </scstep>
  <scstep>
   <time name="total">    2.19    1.38</time>
   <energy>
    <i name="e_fr_energy">    -15.86772074 </i>
    <i name="e_wo_entrp">    -15.86772074 </i>
    <i name="e_0_energy">    -15.86772074 </i>
   </energy>
  </scstep>
  <scstep>
   <time name="total">    2.30    1.43</time>
   <energy>
    <i name="e_fr_energy">    -15.86604658 </i>
    <i name="e_wo_entrp">    -15.86604658 </i>
    <i name="e_0_energy">    -15.86604658 </i>
   </energy>
  </scstep>
  <scstep>
   <time name="total">    2.22    1.39</time>
   <energy>
    <i name="e_fr_energy">    -15.87419345 </i>
    <i name="e_wo_entrp">    -15.87419345 </i>
    <i name="e_0_energy">    -15.87419345 </i>
   </energy>
  </scstep>
  <scstep>
   <time name="total">    2.27    1.41</time>
   <energy>
    <i name="e_fr_energy">    -15.87292061 </i>
    <i name="e_wo_entrp">    -15.87292061 </i>
    <i name="e_0_energy">    -15.87292061 </i>
   </energy>
  </scstep>
  <scstep>
   <time name="total">    2.21    1.38</time>
   <energy>
    <i name="e_fr_energy">    -15.87351804 </i>
    <i name="e_wo_entrp">    -15.87351804 </i>
    <i name="e_0_energy">    -15.87351804 </i>
   </energy>
  </scstep>
  <scstep>
   <time name="total">    2.23    1.39</time>
   <energy>
    <i name="e_fr_energy">    -15.87219634 </i>
    <i name="e_wo_entrp">    -15.87219634 </i>
    <i name="e_0_energy">    -15.87219634 </i>
   </energy>
  </scstep>
  <scstep>
   <time name="total">    2.31    1.43</time>
   <energy>
    <i name="e_fr_energy">    -15.87640830 </i>
    <i name="e_wo_entrp">    -15.87640830 </i>
    <i name="e_0_energy">    -15.87640830 </i>
   </energy>
  </scstep>
  <scstep>
   <time name="total">    2.26    1.41</time>
   <energy>
    <i name="e_fr_energy">    -15.87115483 </i>
    <i name="e_wo_entrp">    -15.87115483 </i>
    <i name="e_0_energy">    -15.87115483 </i>
   </energy>
  </scstep>
  <scstep>
   <time name="total">    2.23    1.39</time>
   <energy>
    <i name="e_fr_energy">    -15.87543432 </i>
    <i name="e_wo_entrp">    -15.87543432 </i>
    <i name="e_0_energy">    -15.87543432 </i>
   </energy>
  </scstep>
  <scstep>
   <time name="total">    2.16    1.36</time>
   <energy>
    <i name="e_fr_energy">    -15.87237849 </i>
    <i name="e_wo_entrp">    -15.87237849 </i>
    <i name="e_0_energy">    -15.87237849 </i>
   </energy>
  </scstep>
  <scstep>
   <time name="total">    2.13    1.34</time>
   <energy>
    <i name="e_fr_energy">    -15.87253538 </i>
    <i name="e_wo_entrp">    -15.87253538 </i>
    <i name="e_0_energy">    -15.87253538 </i>
   </energy>
  </scstep>
  <scstep>
   <time name="total">    2.11    1.33</time>
   <energy>
    <i name="e_fr_energy">    -15.87068663 </i>
    <i name="e_wo_entrp">    -15.87068663 </i>
    <i name="e_0_energy">    -15.87068663 </i>
   </energy>
  </scstep>
  <scstep>
   <time name="total">    2.10    1.33</time>
   <energy>
    <i name="e_fr_energy">    -15.87040756 </i>
    <i name="e_wo_entrp">    -15.87040756 </i>
    <i name="e_0_energy">    -15.87040756 </i>
   </energy>
  </scstep>
  <scstep>
   <time name="total">    2.10    1.33</time>
   <energy>
    <i name="e_fr_energy">    -15.87012506 </i>
    <i name="e_wo_entrp">    -15.87012506 </i>
    <i name="e_0_energy">    -15.87012506 </i>
   </energy>
  </scstep>
  <scstep>
   <time name="total">    2.09    1.32</time>
   <energy>
    <i name="e_fr_energy">    -15.87116363 </i>
    <i name="e_wo_entrp">    -15.87116363 </i>
    <i name="e_0_energy">    -15.87116363 </i>
   </energy>
  </scstep>
  <scstep>
   <time name="total">    2.08    1.32</time>
   <energy>
    <i name="e_fr_energy">    -15.87161369 </i>
    <i name="e_wo_entrp">    -15.87161369 </i>
    <i name="e_0_energy">    -15.87161369 </i>
   </energy>
  </scstep>
  <scstep>
   <time name="total">    2.09    1.32</time>
   <energy>
    <i name="e_fr_energy">    -15.87261993 </i>
    <i name="e_wo_entrp">    -15.87261993 </i>
    <i name="e_0_energy">    -15.87261993 </i>
   </energy>
  </scstep>
  <scstep>
   <time name="total">    2.09    1.33</time>
   <energy>
    <i name="e_fr_energy">    -15.87283791 </i>
    <i name="e_wo_entrp">    -15.87283791 </i>
    <i name="e_0_energy">    -15.87283791 </i>
   </energy>
  </scstep>
  <scstep>
   <time name="total">    2.08    1.32</time>
   <energy>
    <i name="e_fr_energy">    -15.87287607 </i>
    <i name="e_wo_entrp">    -15.87287607 </i>
    <i name="e_0_energy">    -15.87287607 </i>
   </energy>
  </scstep>
  <scstep>
   <time name="total">    2.10    1.33</time>
   <energy>
    <i name="e_fr_energy">    -15.87246783 </i>
    <i name="e_wo_entrp">    -15.87246783 </i>
    <i name="e_0_energy">    -15.87246783 </i>
   </energy>
  </scstep>
  <scstep>
   <time name="total">    2.08    1.32</time>
   <energy>
    <i name="e_fr_energy">    -15.87327700 </i>
    <i name="e_wo_entrp">    -15.87327700 </i>
    <i name="e_0_energy">    -15.87327700 </i>
   </energy>
  </scstep>
  <scstep>
   <time name="total">    2.09    1.32</time>
   <energy>
    <i name="e_fr_energy">    -15.87470769 </i>
    <i name="e_wo_entrp">    -15.87470769 </i>
    <i name="e_0_energy">    -15.87470769 </i>
   </energy>
  </scstep>
  <scstep>
   <time name="total">    2.12    1.34</time>
   <energy>
    <i name="e_fr_energy">    -15.87288992 </i>
    <i name="e_wo_entrp">    -15.87288992 </i>
    <i name="e_0_energy">    -15.87288992 </i>
   </energy>
  </scstep>
  <scstep>
   <time name="total">    2.09    1.32</time>
   <energy>
    <i name="e_fr_energy">    -15.87224285 </i>
    <i name="e_wo_entrp">    -15.87224285 </i>
    <i name="e_0_energy">    -15.87224285 </i>
   </energy>
  </scstep>
  <scstep>
   <time name="total">    2.11    1.33</time>
   <energy>
    <i name="e_fr_energy">    -15.87267694 </i>
    <i name="e_wo_entrp">    -15.87267694 </i>
    <i name="e_0_energy">    -15.87267694 </i>
   </energy>
  </scstep>
  <scstep>
   <time name="total">    2.13    1.35</time>
   <energy>
    <i name="e_fr_energy">    -15.87057165 </i>
    <i name="e_wo_entrp">    -15.87057165 </i>
    <i name="e_0_energy">    -15.87057165 </i>
   </energy>
  </scstep>
  <scstep>
   <time name="total">    2.14    1.35</time>
   <energy>
    <i name="e_fr_energy">    -15.87273794 </i>
    <i name="e_wo_entrp">    -15.87273794 </i>
    <i name="e_0_energy">    -15.87273794 </i>
   </energy>
  </scstep>
  <scstep>
   <time name="total">    2.10    1.33</time>
   <energy>
    <i name="e_fr_energy">    -15.87079814 </i>
    <i name="e_wo_entrp">    -15.87079814 </i>
    <i name="e_0_energy">    -15.87079814 </i>
   </energy>
  </scstep>
  <scstep>
   <time name="total">    2.12    1.34</time>
   <energy>
    <i name="e_fr_energy">    -15.87128782 </i>
    <i name="e_wo_entrp">    -15.87128782 </i>
    <i name="e_0_energy">    -15.87128782 </i>
   </energy>
  </scstep>
  <scstep>
   <time name="total">    2.10    1.33</time>
   <energy>
    <i name="e_fr_energy">    -15.87132967 </i>
    <i name="e_wo_entrp">    -15.87132967 </i>
    <i name="e_0_energy">    -15.87132967 </i>
   </energy>
  </scstep>
  <scstep>
   <time name="total">    2.12    1.34</time>
   <energy>
    <i name="e_fr_energy">    -15.87266012 </i>
    <i name="e_wo_entrp">    -15.87266012 </i>
    <i name="e_0_energy">    -15.87266012 </i>
   </energy>
  </scstep>
  <scstep>
   <time name="total">    2.10    1.33</time>
   <energy>
    <i name="e_fr_energy">    -15.87366512 </i>
    <i name="e_wo_entrp">    -15.87366512 </i>
    <i name="e_0_energy">    -15.87366512 </i>
   </energy>
  </scstep>
  <kpoints>
   <generation param="Gamma">
    <v type="int" name="divisions">       8        9        3 </v>
    <v name="usershift">      0.00000000       0.00000000       0.00000000 </v>
    <v name="genvec1">      0.12500000       0.00000000       0.00000000 </v>
    <v name="genvec2">      0.00000000       0.11111111       0.00000000 </v>
    <v name="genvec3">      0.00000000       0.00000000       0.33333333 </v>
    <v name="shift">      0.00000000       0.00000000       0.00000000 </v>
   </generation>
   <varray name="kpointlist" >
    <v>       0.00000000       0.00000000       0.00000000 </v>
    <v>       0.12500000       0.00000000       0.00000000 </v>
    <v>       0.25000000       0.00000000       0.00000000 </v>
    <v>       0.37500000       0.00000000       0.00000000 </v>
    <v>       0.50000000       0.00000000       0.00000000 </v>
    <v>       0.00000000       0.11111111       0.00000000 </v>
    <v>       0.12500000       0.11111111       0.00000000 </v>
    <v>       0.25000000       0.11111111       0.00000000 </v>
    <v>       0.37500000       0.11111111       0.00000000 </v>
    <v>       0.50000000       0.11111111       0.00000000 </v>
    <v>       0.00000000       0.22222222       0.00000000 </v>
    <v>       0.12500000       0.22222222       0.00000000 </v>
    <v>       0.25000000       0.22222222       0.00000000 </v>
    <v>       0.37500000       0.22222222       0.00000000 </v>
    <v>       0.50000000       0.22222222       0.00000000 </v>
    <v>       0.00000000       0.33333333       0.00000000 </v>
    <v>       0.12500000       0.33333333       0.00000000 </v>
    <v>       0.25000000       0.33333333       0.00000000 </v>
    <v>       0.37500000       0.33333333       0.00000000 </v>
    <v>       0.50000000       0.33333333       0.00000000 </v>
    <v>       0.00000000       0.44444444       0.00000000 </v>
    <v>       0.12500000       0.44444444       0.00000000 </v>
    <v>       0.25000000       0.44444444       0.00000000 </v>
    <v>       0.37500000       0.44444444       0.00000000 </v>
    <v>       0.50000000       0.44444444       0.00000000 </v>
    <v>       0.00000000       0.00000000       0.33333333 </v>
    <v>       0.12500000       0.00000000       0.33333333 </v>
    <v>       0.25000000       0.00000000       0.33333333 </v>
    <v>       0.37500000       0.00000000       0.33333333 </v>
    <v>       0.50000000       0.00000000       0.33333333 </v>
    <v>       0.00000000       0.11111111       0.33333333 </v>
    <v>       0.12500000       0.11111111       0.33333333 </v>
    <v>       0.25000000       0.11111111       0.33333333 </v>
    <v>       0.37500000       0.11111111       0.33333333 </v>
    <v>       0.50000000       0.11111111       0.33333333 </v>
    <v>       0.00000000       0.22222222       0.33333333 </v>
    <v>       0.12500000       0.22222222       0.33333333 </v>
    <v>       0.25000000       0.22222222       0.33333333 </v>
    <v>       0.37500000       0.22222222       0.33333333 </v>
    <v>       0.50000000       0.22222222       0.33333333 </v>
    <v>       0.00000000       0.33333333       0.33333333 </v>
    <v>       0.12500000       0.33333333       0.33333333 </v>
    <v>       0.25000000       0.33333333       0.33333333 </v>
    <v>       0.37500000       0.33333333       0.33333333 </v>
    <v>       0.50000000       0.33333333       0.33333333 </v>
    <v>       0.00000000       0.44444444       0.33333333 </v>
    <v>       0.12500000       0.44444444       0.33333333 </v>
    <v>       0.25000000       0.44444444       0.33333333 </v>
    <v>       0.37500000       0.44444444       0.33333333 </v>
    <v>       0.50000000       0.44444444       0.33333333 </v>
   </varray>
   <varray name="weights" >
    <v>       0.00462963 </v>
    <v>       0.00925926 </v>
    <v>       0.00925926 </v>
    <v>       0.00925926 </v>
    <v>       0.00462963 </v>
    <v>       0.00925926 </v>
    <v>       0.01851852 </v>
    <v>       0.01851852 </v>
    <v>       0.01851852 </v>
    <v>       0.00925926 </v>
    <v>       0.00925926 </v>
    <v>       0.01851852 </v>
    <v>       0.01851852 </v>
    <v>       0.01851852 </v>
    <v>       0.00925926 </v>
    <v>       0.00925926 </v>
    <v>       0.01851852 </v>
    <v>       0.01851852 </v>
    <v>       0.01851852 </v>
    <v>       0.00925926 </v>
    <v>       0.00925926 </v>
    <v>       0.01851852 </v>
    <v>       0.01851852 </v>
    <v>       0.01851852 </v>
    <v>       0.00925926 </v>
    <v>       0.00925926 </v>
    <v>       0.01851852 </v>
    <v>       0.01851852 </v>
    <v>       0.01851852 </v>
    <v>       0.00925926 </v>
    <v>       0.01851852 </v>
    <v>       0.03703704 </v>
    <v>       0.03703704 </v>
    <v>       0.03703704 </v>
    <v>       0.01851852 </v>
    <v>       0.01851852 </v>
    <v>       0.03703704 </v>
    <v>       0.03703704 </v>
    <v>       0.03703704 </v>
    <v>       0.01851852 </v>
    <v>       0.01851852 </v>
    <v>       0.03703704 </v>
    <v>       0.03703704 </v>
    <v>       0.03703704 </v>
    <v>       0.01851852 </v>
    <v>       0.01851852 </v>
    <v>       0.03703704 </v>
    <v>       0.03703704 </v>
    <v>       0.03703704 </v>
    <v>       0.01851852 </v>
   </varray>
  </kpoints>
  <varray name="dielectric_dft" >
   <v>      24.58492117       0.00000000       0.00000000 </v>
   <v>       0.00000000      30.20483498       0.00000000 </v>
   <v>       0.00000000       0.00000000      28.04963359 </v>
  </varray>
  <varray name="epsilon" >
   <v>      24.58492117       0.00000000       0.00000000 </v>
   <v>       0.00000000      30.20483498       0.00000000 </v>
   <v>       0.00000000       0.00000000      28.04963359 </v>
  </varray>
  <kpoints>
   <generation param="Gamma">
    <v type="int" name="divisions">       8        9        3 </v>
    <v name="usershift">      0.00000000       0.00000000       0.00000000 </v>
    <v name="genvec1">      0.12500000       0.00000000       0.00000000 </v>
    <v name="genvec2">      0.00000000       0.11111111       0.00000000 </v>
    <v name="genvec3">      0.00000000       0.00000000       0.33333333 </v>
    <v name="shift">      0.00000000       0.00000000       0.00000000 </v>
   </generation>
   <varray name="kpointlist" >
    <v>       0.00000000       0.00000000       0.00000000 </v>
    <v>       0.12500000       0.00000000       0.00000000 </v>
    <v>       0.25000000       0.00000000       0.00000000 </v>
    <v>       0.37500000       0.00000000       0.00000000 </v>
    <v>       0.50000000       0.00000000       0.00000000 </v>
    <v>       0.00000000       0.11111111       0.00000000 </v>
    <v>       0.12500000       0.11111111       0.00000000 </v>
    <v>       0.25000000       0.11111111       0.00000000 </v>
    <v>       0.37500000       0.11111111       0.00000000 </v>
    <v>       0.50000000       0.11111111       0.00000000 </v>
    <v>       0.00000000       0.22222222       0.00000000 </v>
    <v>       0.12500000       0.22222222       0.00000000 </v>
    <v>       0.25000000       0.22222222       0.00000000 </v>
    <v>       0.37500000       0.22222222       0.00000000 </v>
    <v>       0.50000000       0.22222222       0.00000000 </v>
    <v>       0.00000000       0.33333333       0.00000000 </v>
    <v>       0.12500000       0.33333333       0.00000000 </v>
    <v>       0.25000000       0.33333333       0.00000000 </v>
    <v>       0.37500000       0.33333333       0.00000000 </v>
    <v>       0.50000000       0.33333333       0.00000000 </v>
    <v>       0.00000000       0.44444444       0.00000000 </v>
    <v>       0.12500000       0.44444444       0.00000000 </v>
    <v>       0.25000000       0.44444444       0.00000000 </v>
    <v>       0.37500000       0.44444444       0.00000000 </v>
    <v>       0.50000000       0.44444444       0.00000000 </v>
    <v>       0.00000000       0.00000000       0.33333333 </v>
    <v>       0.12500000       0.00000000       0.33333333 </v>
    <v>       0.25000000       0.00000000       0.33333333 </v>
    <v>       0.37500000       0.00000000       0.33333333 </v>
    <v>       0.50000000       0.00000000       0.33333333 </v>
    <v>       0.00000000       0.11111111       0.33333333 </v>
    <v>       0.12500000       0.11111111       0.33333333 </v>
    <v>       0.25000000       0.11111111       0.33333333 </v>
    <v>       0.37500000       0.11111111       0.33333333 </v>
    <v>       0.50000000       0.11111111       0.33333333 </v>
    <v>       0.00000000       0.22222222       0.33333333 </v>
    <v>       0.12500000       0.22222222       0.33333333 </v>
    <v>       0.25000000       0.22222222       0.33333333 </v>
    <v>       0.37500000       0.22222222       0.33333333 </v>
    <v>       0.50000000       0.22222222       0.33333333 </v>
    <v>       0.00000000       0.33333333       0.33333333 </v>
    <v>       0.12500000       0.33333333       0.33333333 </v>
    <v>       0.25000000       0.33333333       0.33333333 </v>
    <v>       0.37500000       0.33333333       0.33333333 </v>
    <v>       0.50000000       0.33333333       0.33333333 </v>
    <v>       0.00000000       0.44444444       0.33333333 </v>
    <v>       0.12500000       0.44444444       0.33333333 </v>
    <v>       0.25000000       0.44444444       0.33333333 </v>
    <v>       0.37500000       0.44444444       0.33333333 </v>
    <v>       0.50000000       0.44444444       0.33333333 </v>
   </varray>
   <varray name="weights" >
    <v>       0.00462963 </v>
    <v>       0.00925926 </v>
    <v>       0.00925926 </v>
    <v>       0.00925926 </v>
    <v>       0.00462963 </v>
    <v>       0.00925926 </v>
    <v>       0.01851852 </v>
    <v>       0.01851852 </v>
    <v>       0.01851852 </v>
    <v>       0.00925926 </v>
    <v>       0.00925926 </v>
    <v>       0.01851852 </v>
    <v>       0.01851852 </v>
    <v>       0.01851852 </v>
    <v>       0.00925926 </v>
    <v>       0.00925926 </v>
    <v>       0.01851852 </v>
    <v>       0.01851852 </v>
    <v>       0.01851852 </v>
    <v>       0.00925926 </v>
    <v>       0.00925926 </v>
    <v>       0.01851852 </v>
    <v>       0.01851852 </v>
    <v>       0.01851852 </v>
    <v>       0.00925926 </v>
    <v>       0.00925926 </v>
    <v>       0.01851852 </v>
    <v>       0.01851852 </v>
    <v>       0.01851852 </v>
    <v>       0.00925926 </v>
    <v>       0.01851852 </v>
    <v>       0.03703704 </v>
    <v>       0.03703704 </v>
    <v>       0.03703704 </v>
    <v>       0.01851852 </v>
    <v>       0.01851852 </v>
    <v>       0.03703704 </v>
    <v>       0.03703704 </v>
    <v>       0.03703704 </v>
    <v>       0.01851852 </v>
    <v>       0.01851852 </v>
    <v>       0.03703704 </v>
    <v>       0.03703704 </v>
    <v>       0.03703704 </v>
    <v>       0.01851852 </v>
    <v>       0.01851852 </v>
    <v>       0.03703704 </v>
    <v>       0.03703704 </v>
    <v>       0.03703704 </v>
    <v>       0.01851852 </v>
   </varray>
  </kpoints>
  <array name="born_charges" >
   <dimension dim="1">ion</dimension>
   <set>
    <v>       4.00944697       0.00000000      -0.59590719 </v>
    <v>       0.00000000       4.57881292       0.00000000 </v>
    <v>       0.07534423       0.00000000       4.26448428 </v>
   </set>
   <set>
    <v>       4.00944697       0.00000000       0.59590719 </v>
    <v>       0.00000000       4.57881292       0.00000000 </v>
    <v>      -0.07534423       0.00000000       4.26448428 </v>
   </set>
   <set>
    <v>       4.00944697       0.00000000       0.59590719 </v>
    <v>       0.00000000       4.57881292       0.00000000 </v>
    <v>      -0.07534423       0.00000000       4.26448428 </v>
   </set>
   <set>
    <v>       4.00944697       0.00000000      -0.59590719 </v>
    <v>       0.00000000       4.57881292       0.00000000 </v>
    <v>       0.07534423       0.00000000       4.26448428 </v>
   </set>
   <set>
    <v>      -4.00944697       0.00000000       0.57227505 </v>
    <v>       0.00000000      -4.57881292       0.00000000 </v>
    <v>       0.69090495       0.00000000      -4.26448428 </v>
   </set>
   <set>
    <v>      -4.00944697      -0.00000000      -0.57227505 </v>
    <v>       0.00000000      -4.57881292       0.00000000 </v>
    <v>      -0.69090495       0.00000000      -4.26448428 </v>
   </set>
   <set>
    <v>      -4.00944697      -0.00000000      -0.57227505 </v>
    <v>       0.00000000      -4.57881292       0.00000000 </v>
    <v>      -0.69090495       0.00000000      -4.26448428 </v>
   </set>
   <set>
    <v>      -4.00944697      -0.00000000       0.57227505 </v>
    <v>       0.00000000      -4.57881292       0.00000000 </v>
    <v>       0.69090495       0.00000000      -4.26448428 </v>
   </set>
  </array>
  <time name="totalsc">  382.04  236.96</time>
  <eigenvalues>
   <array>
    <dimension dim="1">band</dimension>
    <dimension dim="2">kpoint</dimension>
    <dimension dim="3">spin</dimension>
    <field>eigene</field>
    <field>occ</field>
    <set>
     <set comment="spin 1">
      <set comment="kpoint 1">
       <r>  -15.4208    1.0000 </r>
       <r>  -15.4018    1.0000 </r>
       <r>  -15.4004    1.0000 </r>
       <r>  -15.3951    1.0000 </r>
       <r>  -15.3946    1.0000 </r>
       <r>  -15.3920    1.0000 </r>
       <r>  -15.3885    1.0000 </r>
       <r>  -15.3861    1.0000 </r>
       <r>  -15.3839    1.0000 </r>
       <r>  -15.3820    1.0000 </r>
       <r>  -15.3782    1.0000 </r>
       <r>  -15.3775    1.0000 </r>
       <r>  -15.3674    1.0000 </r>
       <r>  -15.3628    1.0000 </r>
       <r>  -15.3477    1.0000 </r>
       <r>  -15.3377    1.0000 </r>
       <r>  -15.3377    1.0000 </r>
       <r>  -15.3295    1.0000 </r>
       <r>  -15.3166    1.0000 </r>
       <r>  -15.3074    1.0000 </r>
       <r>   -8.1693    1.0000 </r>
       <r>   -7.7462    1.0000 </r>
       <r>   -7.1154    1.0000 </r>
       <r>   -6.4991    1.0000 </r>
       <r>   -1.4398    1.0000 </r>
       <r>   -0.1862    1.0000 </r>
       <r>    0.0226    1.0000 </r>
       <r>    0.8417    1.0000 </r>
       <r>    0.9731    1.0000 </r>
       <r>    2.3148    1.0000 </r>
       <r>    2.3304    1.0000 </r>
       <r>    2.4495    1.0000 </r>
       <r>    2.8955    1.0000 </r>
       <r>    2.9238    1.0000 </r>
       <r>    3.4020    1.0000 </r>
       <r>    3.9089    1.0000 </r>
       <r>    4.2208    1.0000 </r>
       <r>    4.5945    1.0000 </r>
       <r>    5.1128    1.0000 </r>
       <r>    5.2798    1.0000 </r>
       <r>    6.3341    0.0000 </r>
       <r>    8.7726    0.0000 </r>
       <r>    8.8961    0.0000 </r>
       <r>    8.9379    0.0000 </r>
       <r>    9.1654    0.0000 </r>
       <r>    9.3710    0.0000 </r>
       <r>   10.0892    0.0000 </r>
       <r>   10.4012    0.0000 </r>
       <r>   10.5177    0.0000 </r>
       <r>   10.7644    0.0000 </r>
       <r>   11.3391    0.0000 </r>
       <r>   11.7932    0.0000 </r>
       <r>   12.0225    0.0000 </r>
       <r>   12.0730    0.0000 </r>
       <r>   12.1420    0.0000 </r>
       <r>   12.6210    0.0000 </r>
       <r>   12.6617    0.0000 </r>
       <r>   13.5838    0.0000 </r>
       <r>   14.3992    0.0000 </r>
       <r>   14.4141    0.0000 </r>
       <r>   14.5604    0.0000 </r>
       <r>   14.6848    0.0000 </r>
       <r>   15.0346    0.0000 </r>
       <r>   15.0401    0.0000 </r>
      </set>
      <set comment="kpoint 2">
       <r>  -15.4196    1.0000 </r>
       <r>  -15.4020    1.0000 </r>
       <r>  -15.3991    1.0000 </r>
       <r>  -15.3952    1.0000 </r>
       <r>  -15.3938    1.0000 </r>
       <r>  -15.3934    1.0000 </r>
       <r>  -15.3893    1.0000 </r>
       <r>  -15.3862    1.0000 </r>
       <r>  -15.3828    1.0000 </r>
       <r>  -15.3823    1.0000 </r>
       <r>  -15.3790    1.0000 </r>
       <r>  -15.3754    1.0000 </r>
       <r>  -15.3663    1.0000 </r>
       <r>  -15.3631    1.0000 </r>
       <r>  -15.3478    1.0000 </r>
       <r>  -15.3384    1.0000 </r>
       <r>  -15.3372    1.0000 </r>
       <r>  -15.3299    1.0000 </r>
       <r>  -15.3162    1.0000 </r>
       <r>  -15.3078    1.0000 </r>
       <r>   -8.0952    1.0000 </r>
       <r>   -7.6792    1.0000 </r>
       <r>   -7.0919    1.0000 </r>
       <r>   -6.5073    1.0000 </r>
       <r>   -1.7303    1.0000 </r>
       <r>   -0.3815    1.0000 </r>
       <r>   -0.2491    1.0000 </r>
       <r>    0.4699    1.0000 </r>
       <r>    0.8567    1.0000 </r>
       <r>    2.3572    1.0000 </r>
       <r>    2.4420    1.0000 </r>
       <r>    2.8729    1.0000 </r>
       <r>    3.0242    1.0000 </r>
       <r>    3.4385    1.0000 </r>
       <r>    3.4865    1.0000 </r>
       <r>    3.9810    1.0000 </r>
       <r>    4.2711    1.0000 </r>
       <r>    4.9241    1.0000 </r>
       <r>    4.9571    1.0000 </r>
       <r>    5.3303    1.0000 </r>
       <r>    6.3376    0.0000 </r>
       <r>    8.1972    0.0000 </r>
       <r>    8.8582    0.0000 </r>
       <r>    8.9973    0.0000 </r>
       <r>    9.0715    0.0000 </r>
       <r>    9.1674    0.0000 </r>
       <r>    9.9500    0.0000 </r>
       <r>   10.2473    0.0000 </r>
       <r>   10.3051    0.0000 </r>
       <r>   10.3786    0.0000 </r>
       <r>   11.2670    0.0000 </r>
       <r>   11.2736    0.0000 </r>
       <r>   11.5548    0.0000 </r>
       <r>   12.0091    0.0000 </r>
       <r>   12.0858    0.0000 </r>
       <r>   12.6028    0.0000 </r>
       <r>   13.0610    0.0000 </r>
       <r>   13.6525    0.0000 </r>
       <r>   13.9962    0.0000 </r>
       <r>   14.5778    0.0000 </r>
       <r>   14.8874    0.0000 </r>
       <r>   15.3469    0.0000 </r>
       <r>   15.3995    0.0000 </r>
       <r>   15.6668    0.0000 </r>
      </set>
      <set comment="kpoint 3">
       <r>  -15.4162    1.0000 </r>
       <r>  -15.4027    1.0000 </r>
       <r>  -15.3965    1.0000 </r>
       <r>  -15.3964    1.0000 </r>
       <r>  -15.3963    1.0000 </r>
       <r>  -15.3921    1.0000 </r>
       <r>  -15.3901    1.0000 </r>
       <r>  -15.3870    1.0000 </r>
       <r>  -15.3830    1.0000 </r>
       <r>  -15.3812    1.0000 </r>
       <r>  -15.3793    1.0000 </r>
       <r>  -15.3706    1.0000 </r>
       <r>  -15.3654    1.0000 </r>
       <r>  -15.3626    1.0000 </r>
       <r>  -15.3476    1.0000 </r>
       <r>  -15.3400    1.0000 </r>
       <r>  -15.3360    1.0000 </r>
       <r>  -15.3309    1.0000 </r>
       <r>  -15.3152    1.0000 </r>
       <r>  -15.3088    1.0000 </r>
       <r>   -7.8860    1.0000 </r>
       <r>   -7.4898    1.0000 </r>
       <r>   -7.0548    1.0000 </r>
       <r>   -6.5538    1.0000 </r>
       <r>   -2.2639    1.0000 </r>
       <r>   -1.1295    1.0000 </r>
       <r>   -0.7848    1.0000 </r>
       <r>    0.0298    1.0000 </r>
       <r>    0.8758    1.0000 </r>
       <r>    2.6458    1.0000 </r>
       <r>    2.7616    1.0000 </r>
       <r>    3.3086    1.0000 </r>
       <r>    3.4993    1.0000 </r>
       <r>    3.6965    1.0000 </r>
       <r>    3.8956    1.0000 </r>
       <r>    4.3709    1.0000 </r>
       <r>    4.6348    1.0000 </r>
       <r>    4.7496    1.0000 </r>
       <r>    5.2720    1.0000 </r>
       <r>    5.5827    1.0000 </r>
       <r>    6.6508    0.0000 </r>
       <r>    7.1834    0.0000 </r>
       <r>    7.9196    0.0000 </r>
       <r>    8.1102    0.0000 </r>
       <r>    8.8585    0.0000 </r>
       <r>    8.9287    0.0000 </r>
       <r>    9.3349    0.0000 </r>
       <r>    9.4558    0.0000 </r>
       <r>   10.3054    0.0000 </r>
       <r>   10.5803    0.0000 </r>
       <r>   10.5896    0.0000 </r>
       <r>   11.1245    0.0000 </r>
       <r>   11.2430    0.0000 </r>
       <r>   12.2714    0.0000 </r>
       <r>   12.6719    0.0000 </r>
       <r>   12.6759    0.0000 </r>
       <r>   13.3245    0.0000 </r>
       <r>   13.5443    0.0000 </r>
       <r>   14.1387    0.0000 </r>
       <r>   14.7084    0.0000 </r>
       <r>   15.1844    0.0000 </r>
       <r>   15.5534    0.0000 </r>
       <r>   15.9327    0.0000 </r>
       <r>   16.3019    0.0000 </r>
      </set>
      <set comment="kpoint 4">
       <r>  -15.4119    1.0000 </r>
       <r>  -15.4045    1.0000 </r>
       <r>  -15.3989    1.0000 </r>
       <r>  -15.3986    1.0000 </r>
       <r>  -15.3940    1.0000 </r>
       <r>  -15.3914    1.0000 </r>
       <r>  -15.3896    1.0000 </r>
       <r>  -15.3883    1.0000 </r>
       <r>  -15.3837    1.0000 </r>
       <r>  -15.3834    1.0000 </r>
       <r>  -15.3741    1.0000 </r>
       <r>  -15.3669    1.0000 </r>
       <r>  -15.3658    1.0000 </r>
       <r>  -15.3615    1.0000 </r>
       <r>  -15.3461    1.0000 </r>
       <r>  -15.3417    1.0000 </r>
       <r>  -15.3345    1.0000 </r>
       <r>  -15.3320    1.0000 </r>
       <r>  -15.3137    1.0000 </r>
       <r>  -15.3102    1.0000 </r>
       <r>   -7.5868    1.0000 </r>
       <r>   -7.2152    1.0000 </r>
       <r>   -7.0945    1.0000 </r>
       <r>   -6.6852    1.0000 </r>
       <r>   -2.5978    1.0000 </r>
       <r>   -1.9710    1.0000 </r>
       <r>   -1.0417    1.0000 </r>
       <r>   -0.5639    1.0000 </r>
       <r>    1.3267    1.0000 </r>
       <r>    2.5372    1.0000 </r>
       <r>    3.2311    1.0000 </r>
       <r>    3.7177    1.0000 </r>
       <r>    3.8605    1.0000 </r>
       <r>    4.1003    1.0000 </r>
       <r>    4.1869    1.0000 </r>
       <r>    4.3669    1.0000 </r>
       <r>    4.7152    1.0000 </r>
       <r>    5.1562    1.0000 </r>
       <r>    5.6639    1.0000 </r>
       <r>    5.8851    1.0000 </r>
       <r>    6.6620    0.0000 </r>
       <r>    7.0762    0.0000 </r>
       <r>    7.2379    0.0000 </r>
       <r>    7.3014    0.0000 </r>
       <r>    7.9043    0.0000 </r>
       <r>    8.0084    0.0000 </r>
       <r>    8.6633    0.0000 </r>
       <r>    8.9036    0.0000 </r>
       <r>    9.3029    0.0000 </r>
       <r>    9.6059    0.0000 </r>
       <r>   11.4556    0.0000 </r>
       <r>   11.7305    0.0000 </r>
       <r>   12.4150    0.0000 </r>
       <r>   12.6866    0.0000 </r>
       <r>   13.1012    0.0000 </r>
       <r>   13.6088    0.0000 </r>
       <r>   13.6413    0.0000 </r>
       <r>   14.1629    0.0000 </r>
       <r>   14.2912    0.0000 </r>
       <r>   14.6418    0.0000 </r>
       <r>   14.7611    0.0000 </r>
       <r>   15.7231    0.0000 </r>
       <r>   16.5502    0.0000 </r>
       <r>   16.6360    0.0000 </r>
      </set>
      <set comment="kpoint 5">
       <r>  -15.4077    1.0000 </r>
       <r>  -15.4077    1.0000 </r>
       <r>  -15.3998    1.0000 </r>
       <r>  -15.3998    1.0000 </r>
       <r>  -15.3921    1.0000 </r>
       <r>  -15.3921    1.0000 </r>
       <r>  -15.3890    1.0000 </r>
       <r>  -15.3890    1.0000 </r>
       <r>  -15.3842    1.0000 </r>
       <r>  -15.3842    1.0000 </r>
       <r>  -15.3697    1.0000 </r>
       <r>  -15.3697    1.0000 </r>
       <r>  -15.3626    1.0000 </r>
       <r>  -15.3626    1.0000 </r>
       <r>  -15.3438    1.0000 </r>
       <r>  -15.3438    1.0000 </r>
       <r>  -15.3331    1.0000 </r>
       <r>  -15.3331    1.0000 </r>
       <r>  -15.3120    1.0000 </r>
       <r>  -15.3120    1.0000 </r>
       <r>   -7.2855    1.0000 </r>
       <r>   -7.2855    1.0000 </r>
       <r>   -6.9208    1.0000 </r>
       <r>   -6.9208    1.0000 </r>
       <r>   -2.5037    1.0000 </r>
       <r>   -2.5037    1.0000 </r>
       <r>   -0.9671    1.0000 </r>
       <r>   -0.9671    1.0000 </r>
       <r>    1.9483    1.0000 </r>
       <r>    1.9483    1.0000 </r>
       <r>    3.6939    1.0000 </r>
       <r>    3.6939    1.0000 </r>
       <r>    4.1261    1.0000 </r>
       <r>    4.1261    1.0000 </r>
       <r>    4.4513    1.0000 </r>
       <r>    4.4513    1.0000 </r>
       <r>    5.0326    1.0000 </r>
       <r>    5.0326    1.0000 </r>
       <r>    5.6442    1.0000 </r>
       <r>    5.6442    1.0000 </r>
       <r>    7.0632    0.0000 </r>
       <r>    7.0632    0.0000 </r>
       <r>    7.2355    0.0000 </r>
       <r>    7.2355    0.0000 </r>
       <r>    7.5398    0.0000 </r>
       <r>    7.5398    0.0000 </r>
       <r>    8.3453    0.0000 </r>
       <r>    8.3453    0.0000 </r>
       <r>    8.9663    0.0000 </r>
       <r>    8.9663    0.0000 </r>
       <r>   11.8922    0.0000 </r>
       <r>   11.8922    0.0000 </r>
       <r>   13.1135    0.0000 </r>
       <r>   13.1135    0.0000 </r>
       <r>   13.7847    0.0000 </r>
       <r>   13.7847    0.0000 </r>
       <r>   13.9031    0.0000 </r>
       <r>   13.9031    0.0000 </r>
       <r>   15.1061    0.0000 </r>
       <r>   15.1061    0.0000 </r>
       <r>   15.6332    0.0000 </r>
       <r>   15.6332    0.0000 </r>
       <r>   15.9938    0.0000 </r>
       <r>   15.9938    0.0000 </r>
      </set>
      <set comment="kpoint 6">
       <r>  -15.4171    1.0000 </r>
       <r>  -15.3990    1.0000 </r>
       <r>  -15.3989    1.0000 </r>
       <r>  -15.3954    1.0000 </r>
       <r>  -15.3935    1.0000 </r>
       <r>  -15.3931    1.0000 </r>
       <r>  -15.3927    1.0000 </r>
       <r>  -15.3877    1.0000 </r>
       <r>  -15.3842    1.0000 </r>
       <r>  -15.3810    1.0000 </r>
       <r>  -15.3808    1.0000 </r>
       <r>  -15.3749    1.0000 </r>
       <r>  -15.3654    1.0000 </r>
       <r>  -15.3630    1.0000 </r>
       <r>  -15.3462    1.0000 </r>
       <r>  -15.3383    1.0000 </r>
       <r>  -15.3365    1.0000 </r>
       <r>  -15.3309    1.0000 </r>
       <r>  -15.3171    1.0000 </r>
       <r>  -15.3090    1.0000 </r>
       <r>   -8.0975    1.0000 </r>
       <r>   -7.6858    1.0000 </r>
       <r>   -7.0762    1.0000 </r>
       <r>   -6.4968    1.0000 </r>
       <r>   -1.5549    1.0000 </r>
       <r>   -0.4422    1.0000 </r>
       <r>    0.0153    1.0000 </r>
       <r>    0.4121    1.0000 </r>
       <r>    0.8864    1.0000 </r>
       <r>    2.2286    1.0000 </r>
       <r>    2.5277    1.0000 </r>
       <r>    2.6396    1.0000 </r>
       <r>    2.9089    1.0000 </r>
       <r>    2.9744    1.0000 </r>
       <r>    3.6125    1.0000 </r>
       <r>    3.9453    1.0000 </r>
       <r>    4.2325    1.0000 </r>
       <r>    4.8334    1.0000 </r>
       <r>    5.1340    1.0000 </r>
       <r>    5.2212    1.0000 </r>
       <r>    6.4491    0.0000 </r>
       <r>    8.3166    0.0000 </r>
       <r>    8.8331    0.0000 </r>
       <r>    9.0718    0.0000 </r>
       <r>    9.1938    0.0000 </r>
       <r>    9.3156    0.0000 </r>
       <r>    9.7642    0.0000 </r>
       <r>   10.1796    0.0000 </r>
       <r>   10.2521    0.0000 </r>
       <r>   10.6467    0.0000 </r>
       <r>   11.0779    0.0000 </r>
       <r>   11.3825    0.0000 </r>
       <r>   11.7608    0.0000 </r>
       <r>   11.7723    0.0000 </r>
       <r>   12.2642    0.0000 </r>
       <r>   12.3546    0.0000 </r>
       <r>   12.6102    0.0000 </r>
       <r>   13.9260    0.0000 </r>
       <r>   14.1387    0.0000 </r>
       <r>   14.4949    0.0000 </r>
       <r>   15.1228    0.0000 </r>
       <r>   15.2108    0.0000 </r>
       <r>   15.2657    0.0000 </r>
       <r>   15.4222    0.0000 </r>
      </set>
      <set comment="kpoint 7">
       <r>  -15.4161    1.0000 </r>
       <r>  -15.3992    1.0000 </r>
       <r>  -15.3978    1.0000 </r>
       <r>  -15.3955    1.0000 </r>
       <r>  -15.3947    1.0000 </r>
       <r>  -15.3930    1.0000 </r>
       <r>  -15.3925    1.0000 </r>
       <r>  -15.3881    1.0000 </r>
       <r>  -15.3845    1.0000 </r>
       <r>  -15.3830    1.0000 </r>
       <r>  -15.3787    1.0000 </r>
       <r>  -15.3732    1.0000 </r>
       <r>  -15.3649    1.0000 </r>
       <r>  -15.3627    1.0000 </r>
       <r>  -15.3463    1.0000 </r>
       <r>  -15.3378    1.0000 </r>
       <r>  -15.3372    1.0000 </r>
       <r>  -15.3312    1.0000 </r>
       <r>  -15.3168    1.0000 </r>
       <r>  -15.3093    1.0000 </r>
       <r>   -8.0243    1.0000 </r>
       <r>   -7.6199    1.0000 </r>
       <r>   -7.0527    1.0000 </r>
       <r>   -6.5030    1.0000 </r>
       <r>   -1.7772    1.0000 </r>
       <r>   -0.5332    1.0000 </r>
       <r>   -0.2866    1.0000 </r>
       <r>    0.2792    1.0000 </r>
       <r>    0.8053    1.0000 </r>
       <r>    2.0110    1.0000 </r>
       <r>    2.1772    1.0000 </r>
       <r>    3.1877    1.0000 </r>
       <r>    3.2117    1.0000 </r>
       <r>    3.3361    1.0000 </r>
       <r>    3.4277    1.0000 </r>
       <r>    4.0464    1.0000 </r>
       <r>    4.4985    1.0000 </r>
       <r>    4.9892    1.0000 </r>
       <r>    5.2326    1.0000 </r>
       <r>    5.3002    1.0000 </r>
       <r>    6.4675    0.0000 </r>
       <r>    7.8082    0.0000 </r>
       <r>    8.4264    0.0000 </r>
       <r>    8.7279    0.0000 </r>
       <r>    8.9922    0.0000 </r>
       <r>    9.3011    0.0000 </r>
       <r>    9.6008    0.0000 </r>
       <r>    9.9676    0.0000 </r>
       <r>   10.2649    0.0000 </r>
       <r>   10.8799    0.0000 </r>
       <r>   10.9846    0.0000 </r>
       <r>   11.3221    0.0000 </r>
       <r>   11.5762    0.0000 </r>
       <r>   12.0976    0.0000 </r>
       <r>   12.3276    0.0000 </r>
       <r>   12.6895    0.0000 </r>
       <r>   12.9429    0.0000 </r>
       <r>   13.9624    0.0000 </r>
       <r>   14.2011    0.0000 </r>
       <r>   14.5111    0.0000 </r>
       <r>   14.8344    0.0000 </r>
       <r>   15.0233    0.0000 </r>
       <r>   15.2522    0.0000 </r>
       <r>   15.5631    0.0000 </r>
      </set>
      <set comment="kpoint 8">
       <r>  -15.4135    1.0000 </r>
       <r>  -15.4001    1.0000 </r>
       <r>  -15.3977    1.0000 </r>
       <r>  -15.3972    1.0000 </r>
       <r>  -15.3959    1.0000 </r>
       <r>  -15.3917    1.0000 </r>
       <r>  -15.3913    1.0000 </r>
       <r>  -15.3890    1.0000 </r>
       <r>  -15.3852    1.0000 </r>
       <r>  -15.3851    1.0000 </r>
       <r>  -15.3759    1.0000 </r>
       <r>  -15.3687    1.0000 </r>
       <r>  -15.3650    1.0000 </r>
       <r>  -15.3611    1.0000 </r>
       <r>  -15.3461    1.0000 </r>
       <r>  -15.3387    1.0000 </r>
       <r>  -15.3366    1.0000 </r>
       <r>  -15.3320    1.0000 </r>
       <r>  -15.3158    1.0000 </r>
       <r>  -15.3102    1.0000 </r>
       <r>   -7.8182    1.0000 </r>
       <r>   -7.4342    1.0000 </r>
       <r>   -7.0150    1.0000 </r>
       <r>   -6.5427    1.0000 </r>
       <r>   -2.2210    1.0000 </r>
       <r>   -1.0980    1.0000 </r>
       <r>   -0.7837    1.0000 </r>
       <r>   -0.0611    1.0000 </r>
       <r>    0.9548    1.0000 </r>
       <r>    2.0014    1.0000 </r>
       <r>    2.1695    1.0000 </r>
       <r>    3.1858    1.0000 </r>
       <r>    3.5684    1.0000 </r>
       <r>    3.6387    1.0000 </r>
       <r>    4.0314    1.0000 </r>
       <r>    4.0837    1.0000 </r>
       <r>    4.8455    1.0000 </r>
       <r>    5.1076    1.0000 </r>
       <r>    5.3333    1.0000 </r>
       <r>    5.5439    1.0000 </r>
       <r>    6.7675    0.0000 </r>
       <r>    7.2753    0.0000 </r>
       <r>    7.5179    0.0000 </r>
       <r>    7.6721    0.0000 </r>
       <r>    8.8735    0.0000 </r>
       <r>    8.9568    0.0000 </r>
       <r>    9.2938    0.0000 </r>
       <r>    9.8434    0.0000 </r>
       <r>   10.3649    0.0000 </r>
       <r>   10.5781    0.0000 </r>
       <r>   10.9500    0.0000 </r>
       <r>   11.3910    0.0000 </r>
       <r>   11.7739    0.0000 </r>
       <r>   11.9610    0.0000 </r>
       <r>   12.7574    0.0000 </r>
       <r>   13.0465    0.0000 </r>
       <r>   13.5380    0.0000 </r>
       <r>   13.9847    0.0000 </r>
       <r>   14.0244    0.0000 </r>
       <r>   14.4086    0.0000 </r>
       <r>   14.8166    0.0000 </r>
       <r>   15.5596    0.0000 </r>
       <r>   15.7464    0.0000 </r>
       <r>   16.2326    0.0000 </r>
      </set>
      <set comment="kpoint 9">
       <r>  -15.4100    1.0000 </r>
       <r>  -15.4028    1.0000 </r>
       <r>  -15.3996    1.0000 </r>
       <r>  -15.3992    1.0000 </r>
       <r>  -15.3950    1.0000 </r>
       <r>  -15.3925    1.0000 </r>
       <r>  -15.3898    1.0000 </r>
       <r>  -15.3886    1.0000 </r>
       <r>  -15.3866    1.0000 </r>
       <r>  -15.3858    1.0000 </r>
       <r>  -15.3721    1.0000 </r>
       <r>  -15.3662    1.0000 </r>
       <r>  -15.3640    1.0000 </r>
       <r>  -15.3599    1.0000 </r>
       <r>  -15.3446    1.0000 </r>
       <r>  -15.3404    1.0000 </r>
       <r>  -15.3351    1.0000 </r>
       <r>  -15.3329    1.0000 </r>
       <r>  -15.3145    1.0000 </r>
       <r>  -15.3114    1.0000 </r>
       <r>   -7.5252    1.0000 </r>
       <r>   -7.1671    1.0000 </r>
       <r>   -7.0508    1.0000 </r>
       <r>   -6.6626    1.0000 </r>
       <r>   -2.5111    1.0000 </r>
       <r>   -1.8947    1.0000 </r>
       <r>   -0.9774    1.0000 </r>
       <r>   -0.5476    1.0000 </r>
       <r>    1.3937    1.0000 </r>
       <r>    2.2263    1.0000 </r>
       <r>    2.4365    1.0000 </r>
       <r>    3.2858    1.0000 </r>
       <r>    3.3931    1.0000 </r>
       <r>    3.6458    1.0000 </r>
       <r>    4.1341    1.0000 </r>
       <r>    4.4562    1.0000 </r>
       <r>    5.0184    1.0000 </r>
       <r>    5.1293    1.0000 </r>
       <r>    5.4220    1.0000 </r>
       <r>    5.5138    1.0000 </r>
       <r>    6.9205    0.0000 </r>
       <r>    7.0834    0.0000 </r>
       <r>    7.1601    0.0000 </r>
       <r>    7.4810    0.0000 </r>
       <r>    8.3559    0.0000 </r>
       <r>    8.4819    0.0000 </r>
       <r>    8.7747    0.0000 </r>
       <r>    9.4774    0.0000 </r>
       <r>    9.9359    0.0000 </r>
       <r>   10.2559    0.0000 </r>
       <r>   11.3611    0.0000 </r>
       <r>   11.6054    0.0000 </r>
       <r>   11.9641    0.0000 </r>
       <r>   12.7374    0.0000 </r>
       <r>   12.8825    0.0000 </r>
       <r>   13.2059    0.0000 </r>
       <r>   14.0700    0.0000 </r>
       <r>   14.3592    0.0000 </r>
       <r>   14.3800    0.0000 </r>
       <r>   14.8455    0.0000 </r>
       <r>   15.3236    0.0000 </r>
       <r>   15.6806    0.0000 </r>
       <r>   16.7896    0.0000 </r>
       <r>   16.8840    0.0000 </r>
      </set>
      <set comment="kpoint 10">
       <r>  -15.4064    1.0000 </r>
       <r>  -15.4064    1.0000 </r>
       <r>  -15.4002    1.0000 </r>
       <r>  -15.4002    1.0000 </r>
       <r>  -15.3940    1.0000 </r>
       <r>  -15.3940    1.0000 </r>
       <r>  -15.3890    1.0000 </r>
       <r>  -15.3890    1.0000 </r>
       <r>  -15.3863    1.0000 </r>
       <r>  -15.3863    1.0000 </r>
       <r>  -15.3686    1.0000 </r>
       <r>  -15.3686    1.0000 </r>
       <r>  -15.3609    1.0000 </r>
       <r>  -15.3609    1.0000 </r>
       <r>  -15.3423    1.0000 </r>
       <r>  -15.3423    1.0000 </r>
       <r>  -15.3339    1.0000 </r>
       <r>  -15.3339    1.0000 </r>
       <r>  -15.3129    1.0000 </r>
       <r>  -15.3129    1.0000 </r>
       <r>   -7.2333    1.0000 </r>
       <r>   -7.2333    1.0000 </r>
       <r>   -6.8844    1.0000 </r>
       <r>   -6.8844    1.0000 </r>
       <r>   -2.4099    1.0000 </r>
       <r>   -2.4099    1.0000 </r>
       <r>   -0.9039    1.0000 </r>
       <r>   -0.9039    1.0000 </r>
       <r>    1.9437    1.0000 </r>
       <r>    1.9437    1.0000 </r>
       <r>    2.9923    1.0000 </r>
       <r>    2.9923    1.0000 </r>
       <r>    3.4226    1.0000 </r>
       <r>    3.4226    1.0000 </r>
       <r>    4.2929    1.0000 </r>
       <r>    4.2929    1.0000 </r>
       <r>    5.2324    1.0000 </r>
       <r>    5.2324    1.0000 </r>
       <r>    5.4076    1.0000 </r>
       <r>    5.4076    1.0000 </r>
       <r>    6.8691    0.0000 </r>
       <r>    6.8691    0.0000 </r>
       <r>    7.3077    0.0000 </r>
       <r>    7.3077    0.0000 </r>
       <r>    8.5083    0.0000 </r>
       <r>    8.5083    0.0000 </r>
       <r>    8.8525    0.0000 </r>
       <r>    8.8525    0.0000 </r>
       <r>    9.6824    0.0000 </r>
       <r>    9.6824    0.0000 </r>
       <r>   11.7381    0.0000 </r>
       <r>   11.7381    0.0000 </r>
       <r>   12.2193    0.0000 </r>
       <r>   12.2193    0.0000 </r>
       <r>   13.7527    0.0000 </r>
       <r>   13.7527    0.0000 </r>
       <r>   14.5094    0.0000 </r>
       <r>   14.5094    0.0000 </r>
       <r>   15.4243    0.0000 </r>
       <r>   15.4243    0.0000 </r>
       <r>   15.7174    0.0000 </r>
       <r>   15.7174    0.0000 </r>
       <r>   16.1989    0.0000 </r>
       <r>   16.1989    0.0000 </r>
      </set>
      <set comment="kpoint 11">
       <r>  -15.4073    1.0000 </r>
       <r>  -15.3990    1.0000 </r>
       <r>  -15.3966    1.0000 </r>
       <r>  -15.3958    1.0000 </r>
       <r>  -15.3956    1.0000 </r>
       <r>  -15.3952    1.0000 </r>
       <r>  -15.3905    1.0000 </r>
       <r>  -15.3895    1.0000 </r>
       <r>  -15.3869    1.0000 </r>
       <r>  -15.3859    1.0000 </r>
       <r>  -15.3774    1.0000 </r>
       <r>  -15.3701    1.0000 </r>
       <r>  -15.3639    1.0000 </r>
       <r>  -15.3613    1.0000 </r>
       <r>  -15.3420    1.0000 </r>
       <r>  -15.3403    1.0000 </r>
       <r>  -15.3354    1.0000 </r>
       <r>  -15.3335    1.0000 </r>
       <r>  -15.3180    1.0000 </r>
       <r>  -15.3129    1.0000 </r>
       <r>   -7.8899    1.0000 </r>
       <r>   -7.5161    1.0000 </r>
       <r>   -6.9788    1.0000 </r>
       <r>   -6.5148    1.0000 </r>
       <r>   -1.8442    1.0000 </r>
       <r>   -0.9622    1.0000 </r>
       <r>   -0.4480    1.0000 </r>
       <r>   -0.2037    1.0000 </r>
       <r>    0.8899    1.0000 </r>
       <r>    2.4099    1.0000 </r>
       <r>    2.7575    1.0000 </r>
       <r>    2.9313    1.0000 </r>
       <r>    2.9897    1.0000 </r>
       <r>    3.1991    1.0000 </r>
       <r>    3.9356    1.0000 </r>
       <r>    4.0759    1.0000 </r>
       <r>    4.3021    1.0000 </r>
       <r>    5.0386    1.0000 </r>
       <r>    5.1614    1.0000 </r>
       <r>    5.4405    1.0000 </r>
       <r>    6.7180    0.0000 </r>
       <r>    7.0651    0.0000 </r>
       <r>    8.4052    0.0000 </r>
       <r>    8.5022    0.0000 </r>
       <r>    8.6227    0.0000 </r>
       <r>    9.1646    0.0000 </r>
       <r>    9.3029    0.0000 </r>
       <r>    9.7581    0.0000 </r>
       <r>   10.4277    0.0000 </r>
       <r>   10.5877    0.0000 </r>
       <r>   10.6982    0.0000 </r>
       <r>   10.8499    0.0000 </r>
       <r>   11.4621    0.0000 </r>
       <r>   11.5105    0.0000 </r>
       <r>   12.1394    0.0000 </r>
       <r>   12.6569    0.0000 </r>
       <r>   13.1547    0.0000 </r>
       <r>   13.4883    0.0000 </r>
       <r>   14.7177    0.0000 </r>
       <r>   14.7760    0.0000 </r>
       <r>   15.3782    0.0000 </r>
       <r>   15.3978    0.0000 </r>
       <r>   15.5858    0.0000 </r>
       <r>   16.1278    0.0000 </r>
      </set>
      <set comment="kpoint 12">
       <r>  -15.4080    1.0000 </r>
       <r>  -15.3990    1.0000 </r>
       <r>  -15.3982    1.0000 </r>
       <r>  -15.3961    1.0000 </r>
       <r>  -15.3957    1.0000 </r>
       <r>  -15.3942    1.0000 </r>
       <r>  -15.3900    1.0000 </r>
       <r>  -15.3896    1.0000 </r>
       <r>  -15.3872    1.0000 </r>
       <r>  -15.3869    1.0000 </r>
       <r>  -15.3762    1.0000 </r>
       <r>  -15.3684    1.0000 </r>
       <r>  -15.3646    1.0000 </r>
       <r>  -15.3599    1.0000 </r>
       <r>  -15.3422    1.0000 </r>
       <r>  -15.3398    1.0000 </r>
       <r>  -15.3354    1.0000 </r>
       <r>  -15.3341    1.0000 </r>
       <r>  -15.3178    1.0000 </r>
       <r>  -15.3130    1.0000 </r>
       <r>   -7.8199    1.0000 </r>
       <r>   -7.4539    1.0000 </r>
       <r>   -6.9552    1.0000 </r>
       <r>   -6.5139    1.0000 </r>
       <r>   -1.9210    1.0000 </r>
       <r>   -0.9174    1.0000 </r>
       <r>   -0.5520    1.0000 </r>
       <r>   -0.2934    1.0000 </r>
       <r>    0.9545    1.0000 </r>
       <r>    1.7382    1.0000 </r>
       <r>    2.0653    1.0000 </r>
       <r>    2.9194    1.0000 </r>
       <r>    3.3612    1.0000 </r>
       <r>    3.6218    1.0000 </r>
       <r>    3.7110    1.0000 </r>
       <r>    4.0869    1.0000 </r>
       <r>    4.7708    1.0000 </r>
       <r>    5.0730    1.0000 </r>
       <r>    5.2257    1.0000 </r>
       <r>    5.4636    1.0000 </r>
       <r>    6.7496    0.0000 </r>
       <r>    7.1317    0.0000 </r>
       <r>    7.6584    0.0000 </r>
       <r>    7.8127    0.0000 </r>
       <r>    8.9403    0.0000 </r>
       <r>    9.0329    0.0000 </r>
       <r>    9.6413    0.0000 </r>
       <r>    9.9015    0.0000 </r>
       <r>   10.4747    0.0000 </r>
       <r>   10.5627    0.0000 </r>
       <r>   10.7400    0.0000 </r>
       <r>   11.3856    0.0000 </r>
       <r>   11.4375    0.0000 </r>
       <r>   12.4224    0.0000 </r>
       <r>   12.4517    0.0000 </r>
       <r>   12.9178    0.0000 </r>
       <r>   13.3442    0.0000 </r>
       <r>   13.8772    0.0000 </r>
       <r>   13.9776    0.0000 </r>
       <r>   14.3630    0.0000 </r>
       <r>   14.7785    0.0000 </r>
       <r>   15.5400    0.0000 </r>
       <r>   15.7054    0.0000 </r>
       <r>   15.9763    0.0000 </r>
      </set>
      <set comment="kpoint 13">
       <r>  -15.4097    1.0000 </r>
       <r>  -15.4025    1.0000 </r>
       <r>  -15.3987    1.0000 </r>
       <r>  -15.3976    1.0000 </r>
       <r>  -15.3957    1.0000 </r>
       <r>  -15.3936    1.0000 </r>
       <r>  -15.3911    1.0000 </r>
       <r>  -15.3888    1.0000 </r>
       <r>  -15.3870    1.0000 </r>
       <r>  -15.3868    1.0000 </r>
       <r>  -15.3736    1.0000 </r>
       <r>  -15.3651    1.0000 </r>
       <r>  -15.3642    1.0000 </r>
       <r>  -15.3578    1.0000 </r>
       <r>  -15.3420    1.0000 </r>
       <r>  -15.3386    1.0000 </r>
       <r>  -15.3357    1.0000 </r>
       <r>  -15.3352    1.0000 </r>
       <r>  -15.3171    1.0000 </r>
       <r>  -15.3134    1.0000 </r>
       <r>   -7.6246    1.0000 </r>
       <r>   -7.2808    1.0000 </r>
       <r>   -6.9145    1.0000 </r>
       <r>   -6.5315    1.0000 </r>
       <r>   -2.1164    1.0000 </r>
       <r>   -1.0514    1.0000 </r>
       <r>   -0.8450    1.0000 </r>
       <r>   -0.3837    1.0000 </r>
       <r>    1.1894    1.0000 </r>
       <r>    1.3060    1.0000 </r>
       <r>    1.5711    1.0000 </r>
       <r>    2.6904    1.0000 </r>
       <r>    2.8097    1.0000 </r>
       <r>    3.7931    1.0000 </r>
       <r>    3.9301    1.0000 </r>
       <r>    4.2952    1.0000 </r>
       <r>    4.7035    1.0000 </r>
       <r>    4.9452    1.0000 </r>
       <r>    5.0571    1.0000 </r>
       <r>    5.3094    1.0000 </r>
       <r>    6.7185    0.0000 </r>
       <r>    7.1895    0.0000 </r>
       <r>    7.8315    0.0000 </r>
       <r>    8.2718    0.0000 </r>
       <r>    8.5153    0.0000 </r>
       <r>    8.9584    0.0000 </r>
       <r>    9.3044    0.0000 </r>
       <r>   10.3317    0.0000 </r>
       <r>   10.8341    0.0000 </r>
       <r>   10.9648    0.0000 </r>
       <r>   11.0262    0.0000 </r>
       <r>   11.4331    0.0000 </r>
       <r>   11.6734    0.0000 </r>
       <r>   12.7342    0.0000 </r>
       <r>   12.9876    0.0000 </r>
       <r>   13.2332    0.0000 </r>
       <r>   13.8071    0.0000 </r>
       <r>   13.8981    0.0000 </r>
       <r>   14.1906    0.0000 </r>
       <r>   14.7141    0.0000 </r>
       <r>   15.1850    0.0000 </r>
       <r>   15.3697    0.0000 </r>
       <r>   16.0709    0.0000 </r>
       <r>   16.1568    0.0000 </r>
      </set>
      <set comment="kpoint 14">
       <r>  -15.4111    1.0000 </r>
       <r>  -15.4074    1.0000 </r>
       <r>  -15.3995    1.0000 </r>
       <r>  -15.3991    1.0000 </r>
       <r>  -15.3958    1.0000 </r>
       <r>  -15.3933    1.0000 </r>
       <r>  -15.3924    1.0000 </r>
       <r>  -15.3906    1.0000 </r>
       <r>  -15.3850    1.0000 </r>
       <r>  -15.3848    1.0000 </r>
       <r>  -15.3704    1.0000 </r>
       <r>  -15.3658    1.0000 </r>
       <r>  -15.3599    1.0000 </r>
       <r>  -15.3566    1.0000 </r>
       <r>  -15.3406    1.0000 </r>
       <r>  -15.3372    1.0000 </r>
       <r>  -15.3369    1.0000 </r>
       <r>  -15.3356    1.0000 </r>
       <r>  -15.3161    1.0000 </r>
       <r>  -15.3141    1.0000 </r>
       <r>   -7.3526    1.0000 </r>
       <r>   -7.0381    1.0000 </r>
       <r>   -6.9366    1.0000 </r>
       <r>   -6.6145    1.0000 </r>
       <r>   -2.2615    1.0000 </r>
       <r>   -1.6835    1.0000 </r>
       <r>   -0.8231    1.0000 </r>
       <r>   -0.5557    1.0000 </r>
       <r>    1.3711    1.0000 </r>
       <r>    1.5571    1.0000 </r>
       <r>    1.5971    1.0000 </r>
       <r>    2.5073    1.0000 </r>
       <r>    2.6313    1.0000 </r>
       <r>    3.3035    1.0000 </r>
       <r>    3.4436    1.0000 </r>
       <r>    4.0691    1.0000 </r>
       <r>    4.3527    1.0000 </r>
       <r>    4.8196    1.0000 </r>
       <r>    4.8295    1.0000 </r>
       <r>    5.3114    1.0000 </r>
       <r>    6.5152    0.0000 </r>
       <r>    7.8025    0.0000 </r>
       <r>    7.9189    0.0000 </r>
       <r>    8.8337    0.0000 </r>
       <r>    9.0027    0.0000 </r>
       <r>    9.3117    0.0000 </r>
       <r>    9.5298    0.0000 </r>
       <r>   10.5050    0.0000 </r>
       <r>   10.6359    0.0000 </r>
       <r>   11.0154    0.0000 </r>
       <r>   11.0946    0.0000 </r>
       <r>   11.5299    0.0000 </r>
       <r>   11.5810    0.0000 </r>
       <r>   11.8889    0.0000 </r>
       <r>   12.9372    0.0000 </r>
       <r>   13.7581    0.0000 </r>
       <r>   14.0183    0.0000 </r>
       <r>   14.5272    0.0000 </r>
       <r>   15.0356    0.0000 </r>
       <r>   15.6894    0.0000 </r>
       <r>   15.8535    0.0000 </r>
       <r>   16.2438    0.0000 </r>
       <r>   16.4229    0.0000 </r>
       <r>   16.8751    0.0000 </r>
      </set>
      <set comment="kpoint 15">
       <r>  -15.4105    1.0000 </r>
       <r>  -15.4105    1.0000 </r>
       <r>  -15.4002    1.0000 </r>
       <r>  -15.4002    1.0000 </r>
       <r>  -15.3941    1.0000 </r>
       <r>  -15.3941    1.0000 </r>
       <r>  -15.3922    1.0000 </r>
       <r>  -15.3922    1.0000 </r>
       <r>  -15.3840    1.0000 </r>
       <r>  -15.3840    1.0000 </r>
       <r>  -15.3676    1.0000 </r>
       <r>  -15.3676    1.0000 </r>
       <r>  -15.3572    1.0000 </r>
       <r>  -15.3572    1.0000 </r>
       <r>  -15.3385    1.0000 </r>
       <r>  -15.3385    1.0000 </r>
       <r>  -15.3361    1.0000 </r>
       <r>  -15.3361    1.0000 </r>
       <r>  -15.3151    1.0000 </r>
       <r>  -15.3151    1.0000 </r>
       <r>   -7.0910    1.0000 </r>
       <r>   -7.0910    1.0000 </r>
       <r>   -6.7927    1.0000 </r>
       <r>   -6.7927    1.0000 </r>
       <r>   -2.1352    1.0000 </r>
       <r>   -2.1352    1.0000 </r>
       <r>   -0.7472    1.0000 </r>
       <r>   -0.7472    1.0000 </r>
       <r>    1.7021    1.0000 </r>
       <r>    1.7021    1.0000 </r>
       <r>    1.9847    1.0000 </r>
       <r>    1.9847    1.0000 </r>
       <r>    2.7688    1.0000 </r>
       <r>    2.7688    1.0000 </r>
       <r>    3.4937    1.0000 </r>
       <r>    3.4937    1.0000 </r>
       <r>    4.5191    1.0000 </r>
       <r>    4.5191    1.0000 </r>
       <r>    5.0072    1.0000 </r>
       <r>    5.0072    1.0000 </r>
       <r>    7.0571    0.0000 </r>
       <r>    7.0571    0.0000 </r>
       <r>    8.6308    0.0000 </r>
       <r>    8.6308    0.0000 </r>
       <r>    9.6245    0.0000 </r>
       <r>    9.6245    0.0000 </r>
       <r>   10.1890    0.0000 </r>
       <r>   10.1890    0.0000 </r>
       <r>   10.5529    0.0000 </r>
       <r>   10.5529    0.0000 </r>
       <r>   11.2311    0.0000 </r>
       <r>   11.2311    0.0000 </r>
       <r>   11.6113    0.0000 </r>
       <r>   11.6113    0.0000 </r>
       <r>   13.2232    0.0000 </r>
       <r>   13.2232    0.0000 </r>
       <r>   15.2716    0.0000 </r>
       <r>   15.2716    0.0000 </r>
       <r>   15.7365    0.0000 </r>
       <r>   15.7365    0.0000 </r>
       <r>   16.0956    0.0000 </r>
       <r>   16.0956    0.0000 </r>
       <r>   17.0384    0.0000 </r>
       <r>   17.0384    0.0000 </r>
      </set>
      <set comment="kpoint 16">
       <r>  -15.4039    1.0000 </r>
       <r>  -15.4004    1.0000 </r>
       <r>  -15.3996    1.0000 </r>
       <r>  -15.3970    1.0000 </r>
       <r>  -15.3938    1.0000 </r>
       <r>  -15.3924    1.0000 </r>
       <r>  -15.3910    1.0000 </r>
       <r>  -15.3907    1.0000 </r>
       <r>  -15.3884    1.0000 </r>
       <r>  -15.3806    1.0000 </r>
       <r>  -15.3748    1.0000 </r>
       <r>  -15.3668    1.0000 </r>
       <r>  -15.3637    1.0000 </r>
       <r>  -15.3568    1.0000 </r>
       <r>  -15.3440    1.0000 </r>
       <r>  -15.3424    1.0000 </r>
       <r>  -15.3361    1.0000 </r>
       <r>  -15.3293    1.0000 </r>
       <r>  -15.3191    1.0000 </r>
       <r>  -15.3175    1.0000 </r>
       <r>   -7.5732    1.0000 </r>
       <r>   -7.2752    1.0000 </r>
       <r>   -6.8863    1.0000 </r>
       <r>   -6.6162    1.0000 </r>
       <r>   -2.1361    1.0000 </r>
       <r>   -1.3712    1.0000 </r>
       <r>   -1.2962    1.0000 </r>
       <r>   -0.7106    1.0000 </r>
       <r>    1.2316    1.0000 </r>
       <r>    2.7203    1.0000 </r>
       <r>    2.9655    1.0000 </r>
       <r>    3.1556    1.0000 </r>
       <r>    3.2580    1.0000 </r>
       <r>    3.4954    1.0000 </r>
       <r>    4.1045    1.0000 </r>
       <r>    4.2269    1.0000 </r>
       <r>    4.5751    1.0000 </r>
       <r>    4.9821    1.0000 </r>
       <r>    5.1110    1.0000 </r>
       <r>    5.7558    1.0000 </r>
       <r>    6.3048    0.0000 </r>
       <r>    7.0726    0.0000 </r>
       <r>    7.5128    0.0000 </r>
       <r>    7.6297    0.0000 </r>
       <r>    7.8477    0.0000 </r>
       <r>    8.3443    0.0000 </r>
       <r>    8.4273    0.0000 </r>
       <r>    9.2740    0.0000 </r>
       <r>    9.6844    0.0000 </r>
       <r>    9.8748    0.0000 </r>
       <r>   10.7220    0.0000 </r>
       <r>   11.0797    0.0000 </r>
       <r>   12.1121    0.0000 </r>
       <r>   12.6893    0.0000 </r>
       <r>   12.8418    0.0000 </r>
       <r>   13.1306    0.0000 </r>
       <r>   13.9878    0.0000 </r>
       <r>   14.1156    0.0000 </r>
       <r>   14.1548    0.0000 </r>
       <r>   14.6589    0.0000 </r>
       <r>   15.3825    0.0000 </r>
       <r>   15.4888    0.0000 </r>
       <r>   15.8788    0.0000 </r>
       <r>   16.4926    0.0000 </r>
      </set>
      <set comment="kpoint 17">
       <r>  -15.4071    1.0000 </r>
       <r>  -15.4032    1.0000 </r>
       <r>  -15.4000    1.0000 </r>
       <r>  -15.3981    1.0000 </r>
       <r>  -15.3938    1.0000 </r>
       <r>  -15.3915    1.0000 </r>
       <r>  -15.3912    1.0000 </r>
       <r>  -15.3887    1.0000 </r>
       <r>  -15.3876    1.0000 </r>
       <r>  -15.3808    1.0000 </r>
       <r>  -15.3741    1.0000 </r>
       <r>  -15.3669    1.0000 </r>
       <r>  -15.3623    1.0000 </r>
       <r>  -15.3560    1.0000 </r>
       <r>  -15.3434    1.0000 </r>
       <r>  -15.3419    1.0000 </r>
       <r>  -15.3362    1.0000 </r>
       <r>  -15.3298    1.0000 </r>
       <r>  -15.3189    1.0000 </r>
       <r>  -15.3175    1.0000 </r>
       <r>   -7.5100    1.0000 </r>
       <r>   -7.2203    1.0000 </r>
       <r>   -6.8606    1.0000 </r>
       <r>   -6.6016    1.0000 </r>
       <r>   -2.0943    1.0000 </r>
       <r>   -1.2779    1.0000 </r>
       <r>   -1.2352    1.0000 </r>
       <r>   -0.7473    1.0000 </r>
       <r>    1.3194    1.0000 </r>
       <r>    1.8294    1.0000 </r>
       <r>    2.2256    1.0000 </r>
       <r>    2.9534    1.0000 </r>
       <r>    3.4317    1.0000 </r>
       <r>    3.5013    1.0000 </r>
       <r>    4.0564    1.0000 </r>
       <r>    4.0699    1.0000 </r>
       <r>    4.6633    1.0000 </r>
       <r>    5.0370    1.0000 </r>
       <r>    5.1282    1.0000 </r>
       <r>    5.2308    1.0000 </r>
       <r>    6.8831    0.0000 </r>
       <r>    6.9868    0.0000 </r>
       <r>    7.0721    0.0000 </r>
       <r>    7.4240    0.0000 </r>
       <r>    8.4759    0.0000 </r>
       <r>    8.8428    0.0000 </r>
       <r>    9.0911    0.0000 </r>
       <r>    9.4003    0.0000 </r>
       <r>   10.1250    0.0000 </r>
       <r>   10.5826    0.0000 </r>
       <r>   10.8425    0.0000 </r>
       <r>   10.9685    0.0000 </r>
       <r>   11.7001    0.0000 </r>
       <r>   12.9079    0.0000 </r>
       <r>   13.0067    0.0000 </r>
       <r>   13.1859    0.0000 </r>
       <r>   13.8165    0.0000 </r>
       <r>   14.1518    0.0000 </r>
       <r>   14.2756    0.0000 </r>
       <r>   14.7299    0.0000 </r>
       <r>   15.3041    0.0000 </r>
       <r>   16.0316    0.0000 </r>
       <r>   16.4386    0.0000 </r>
       <r>   16.5748    0.0000 </r>
      </set>
      <set comment="kpoint 18">
       <r>  -15.4128    1.0000 </r>
       <r>  -15.4089    1.0000 </r>
       <r>  -15.4029    1.0000 </r>
       <r>  -15.4017    1.0000 </r>
       <r>  -15.3943    1.0000 </r>
       <r>  -15.3915    1.0000 </r>
       <r>  -15.3885    1.0000 </r>
       <r>  -15.3856    1.0000 </r>
       <r>  -15.3856    1.0000 </r>
       <r>  -15.3817    1.0000 </r>
       <r>  -15.3725    1.0000 </r>
       <r>  -15.3669    1.0000 </r>
       <r>  -15.3588    1.0000 </r>
       <r>  -15.3542    1.0000 </r>
       <r>  -15.3420    1.0000 </r>
       <r>  -15.3407    1.0000 </r>
       <r>  -15.3360    1.0000 </r>
       <r>  -15.3310    1.0000 </r>
       <r>  -15.3185    1.0000 </r>
       <r>  -15.3173    1.0000 </r>
       <r>   -7.3372    1.0000 </r>
       <r>   -7.0712    1.0000 </r>
       <r>   -6.8095    1.0000 </r>
       <r>   -6.5779    1.0000 </r>
       <r>   -1.9983    1.0000 </r>
       <r>   -1.1627    1.0000 </r>
       <r>   -1.0249    1.0000 </r>
       <r>   -0.8224    1.0000 </r>
       <r>    1.0390    1.0000 </r>
       <r>    1.4553    1.0000 </r>
       <r>    1.5482    1.0000 </r>
       <r>    2.2811    1.0000 </r>
       <r>    2.5654    1.0000 </r>
       <r>    3.4198    1.0000 </r>
       <r>    3.4977    1.0000 </r>
       <r>    3.9624    1.0000 </r>
       <r>    4.2807    1.0000 </r>
       <r>    4.3731    1.0000 </r>
       <r>    4.7345    1.0000 </r>
       <r>    5.2777    1.0000 </r>
       <r>    6.3925    0.0000 </r>
       <r>    7.8371    0.0000 </r>
       <r>    8.2000    0.0000 </r>
       <r>    8.5227    0.0000 </r>
       <r>    8.8335    0.0000 </r>
       <r>    9.2889    0.0000 </r>
       <r>    9.7942    0.0000 </r>
       <r>   10.2464    0.0000 </r>
       <r>   10.6268    0.0000 </r>
       <r>   10.7681    0.0000 </r>
       <r>   11.3858    0.0000 </r>
       <r>   11.4992    0.0000 </r>
       <r>   11.7485    0.0000 </r>
       <r>   11.8023    0.0000 </r>
       <r>   13.2778    0.0000 </r>
       <r>   14.0118    0.0000 </r>
       <r>   14.0936    0.0000 </r>
       <r>   14.1970    0.0000 </r>
       <r>   14.9104    0.0000 </r>
       <r>   15.2633    0.0000 </r>
       <r>   15.9064    0.0000 </r>
       <r>   15.9370    0.0000 </r>
       <r>   16.1482    0.0000 </r>
       <r>   16.7227    0.0000 </r>
      </set>
      <set comment="kpoint 19">
       <r>  -15.4171    1.0000 </r>
       <r>  -15.4147    1.0000 </r>
       <r>  -15.4062    1.0000 </r>
       <r>  -15.4056    1.0000 </r>
       <r>  -15.3939    1.0000 </r>
       <r>  -15.3920    1.0000 </r>
       <r>  -15.3863    1.0000 </r>
       <r>  -15.3841    1.0000 </r>
       <r>  -15.3830    1.0000 </r>
       <r>  -15.3824    1.0000 </r>
       <r>  -15.3704    1.0000 </r>
       <r>  -15.3672    1.0000 </r>
       <r>  -15.3550    1.0000 </r>
       <r>  -15.3528    1.0000 </r>
       <r>  -15.3403    1.0000 </r>
       <r>  -15.3395    1.0000 </r>
       <r>  -15.3350    1.0000 </r>
       <r>  -15.3321    1.0000 </r>
       <r>  -15.3179    1.0000 </r>
       <r>  -15.3173    1.0000 </r>
       <r>   -7.1069    1.0000 </r>
       <r>   -6.8737    1.0000 </r>
       <r>   -6.8016    1.0000 </r>
       <r>   -6.5947    1.0000 </r>
       <r>   -1.8889    1.0000 </r>
       <r>   -1.4019    1.0000 </r>
       <r>   -0.7351    1.0000 </r>
       <r>   -0.7126    1.0000 </r>
       <r>    0.7383    1.0000 </r>
       <r>    1.1452    1.0000 </r>
       <r>    1.5516    1.0000 </r>
       <r>    1.8566    1.0000 </r>
       <r>    2.1761    1.0000 </r>
       <r>    2.6833    1.0000 </r>
       <r>    2.9243    1.0000 </r>
       <r>    3.4867    1.0000 </r>
       <r>    3.6031    1.0000 </r>
       <r>    4.1149    1.0000 </r>
       <r>    4.6528    1.0000 </r>
       <r>    4.7897    1.0000 </r>
       <r>    6.8295    0.0000 </r>
       <r>    8.4147    0.0000 </r>
       <r>    8.9598    0.0000 </r>
       <r>    9.1867    0.0000 </r>
       <r>    9.9169    0.0000 </r>
       <r>    9.9231    0.0000 </r>
       <r>   10.3631    0.0000 </r>
       <r>   10.6967    0.0000 </r>
       <r>   10.7299    0.0000 </r>
       <r>   10.9571    0.0000 </r>
       <r>   11.5163    0.0000 </r>
       <r>   11.6264    0.0000 </r>
       <r>   11.8167    0.0000 </r>
       <r>   12.1773    0.0000 </r>
       <r>   12.7298    0.0000 </r>
       <r>   13.4399    0.0000 </r>
       <r>   15.1692    0.0000 </r>
       <r>   15.3281    0.0000 </r>
       <r>   15.7530    0.0000 </r>
       <r>   15.8398    0.0000 </r>
       <r>   16.0787    0.0000 </r>
       <r>   16.5537    0.0000 </r>
       <r>   16.8497    0.0000 </r>
       <r>   17.1825    0.0000 </r>
      </set>
      <set comment="kpoint 20">
       <r>  -15.4179    1.0000 </r>
       <r>  -15.4179    1.0000 </r>
       <r>  -15.4075    1.0000 </r>
       <r>  -15.4075    1.0000 </r>
       <r>  -15.3930    1.0000 </r>
       <r>  -15.3930    1.0000 </r>
       <r>  -15.3849    1.0000 </r>
       <r>  -15.3849    1.0000 </r>
       <r>  -15.3821    1.0000 </r>
       <r>  -15.3821    1.0000 </r>
       <r>  -15.3684    1.0000 </r>
       <r>  -15.3684    1.0000 </r>
       <r>  -15.3528    1.0000 </r>
       <r>  -15.3528    1.0000 </r>
       <r>  -15.3393    1.0000 </r>
       <r>  -15.3393    1.0000 </r>
       <r>  -15.3334    1.0000 </r>
       <r>  -15.3334    1.0000 </r>
       <r>  -15.3175    1.0000 </r>
       <r>  -15.3175    1.0000 </r>
       <r>   -6.9027    1.0000 </r>
       <r>   -6.9027    1.0000 </r>
       <r>   -6.6956    1.0000 </r>
       <r>   -6.6956    1.0000 </r>
       <r>   -1.7080    1.0000 </r>
       <r>   -1.7080    1.0000 </r>
       <r>   -0.6281    1.0000 </r>
       <r>   -0.6281    1.0000 </r>
       <r>    0.9971    1.0000 </r>
       <r>    0.9971    1.0000 </r>
       <r>    1.4312    1.0000 </r>
       <r>    1.4312    1.0000 </r>
       <r>    2.2710    1.0000 </r>
       <r>    2.2710    1.0000 </r>
       <r>    2.9934    1.0000 </r>
       <r>    2.9934    1.0000 </r>
       <r>    3.6547    1.0000 </r>
       <r>    3.6547    1.0000 </r>
       <r>    4.6318    1.0000 </r>
       <r>    4.6318    1.0000 </r>
       <r>    7.5913    0.0000 </r>
       <r>    7.5913    0.0000 </r>
       <r>    9.5172    0.0000 </r>
       <r>    9.5172    0.0000 </r>
       <r>   10.3991    0.0000 </r>
       <r>   10.3991    0.0000 </r>
       <r>   10.7666    0.0000 </r>
       <r>   10.7666    0.0000 </r>
       <r>   10.8885    0.0000 </r>
       <r>   10.8885    0.0000 </r>
       <r>   11.6787    0.0000 </r>
       <r>   11.6787    0.0000 </r>
       <r>   11.9707    0.0000 </r>
       <r>   11.9707    0.0000 </r>
       <r>   12.7785    0.0000 </r>
       <r>   12.7785    0.0000 </r>
       <r>   15.8775    0.0000 </r>
       <r>   15.8775    0.0000 </r>
       <r>   16.4507    0.0000 </r>
       <r>   16.4507    0.0000 </r>
       <r>   16.6507    0.0000 </r>
       <r>   16.6507    0.0000 </r>
       <r>   17.3089    0.0000 </r>
       <r>   17.3089    0.0000 </r>
      </set>
      <set comment="kpoint 21">
       <r>  -15.4062    1.0000 </r>
       <r>  -15.4049    1.0000 </r>
       <r>  -15.4006    1.0000 </r>
       <r>  -15.3989    1.0000 </r>
       <r>  -15.3918    1.0000 </r>
       <r>  -15.3917    1.0000 </r>
       <r>  -15.3908    1.0000 </r>
       <r>  -15.3888    1.0000 </r>
       <r>  -15.3821    1.0000 </r>
       <r>  -15.3749    1.0000 </r>
       <r>  -15.3734    1.0000 </r>
       <r>  -15.3727    1.0000 </r>
       <r>  -15.3569    1.0000 </r>
       <r>  -15.3525    1.0000 </r>
       <r>  -15.3500    1.0000 </r>
       <r>  -15.3482    1.0000 </r>
       <r>  -15.3294    1.0000 </r>
       <r>  -15.3248    1.0000 </r>
       <r>  -15.3230    1.0000 </r>
       <r>  -15.3211    1.0000 </r>
       <r>   -7.2000    1.0000 </r>
       <r>   -7.0351    1.0000 </r>
       <r>   -6.8889    1.0000 </r>
       <r>   -6.8527    1.0000 </r>
       <r>   -2.2091    1.0000 </r>
       <r>   -1.9238    1.0000 </r>
       <r>   -1.4594    1.0000 </r>
       <r>   -1.2014    1.0000 </r>
       <r>    1.7752    1.0000 </r>
       <r>    2.3790    1.0000 </r>
       <r>    3.3444    1.0000 </r>
       <r>    3.5663    1.0000 </r>
       <r>    3.6837    1.0000 </r>
       <r>    3.7643    1.0000 </r>
       <r>    3.8224    1.0000 </r>
       <r>    4.3549    1.0000 </r>
       <r>    4.9230    1.0000 </r>
       <r>    4.9433    1.0000 </r>
       <r>    5.0272    1.0000 </r>
       <r>    5.1823    1.0000 </r>
       <r>    6.7940    0.0000 </r>
       <r>    6.9074    0.0000 </r>
       <r>    6.9964    0.0000 </r>
       <r>    7.3516    0.0000 </r>
       <r>    7.4339    0.0000 </r>
       <r>    7.6363    0.0000 </r>
       <r>    8.1839    0.0000 </r>
       <r>    8.5732    0.0000 </r>
       <r>    8.9532    0.0000 </r>
       <r>    9.1240    0.0000 </r>
       <r>   10.9353    0.0000 </r>
       <r>   11.1010    0.0000 </r>
       <r>   12.7609    0.0000 </r>
       <r>   12.9525    0.0000 </r>
       <r>   13.3677    0.0000 </r>
       <r>   13.5838    0.0000 </r>
       <r>   14.4802    0.0000 </r>
       <r>   14.9174    0.0000 </r>
       <r>   15.1460    0.0000 </r>
       <r>   15.6590    0.0000 </r>
       <r>   15.7525    0.0000 </r>
       <r>   16.2494    0.0000 </r>
       <r>   16.5677    0.0000 </r>
       <r>   16.7172    0.0000 </r>
      </set>
      <set comment="kpoint 22">
       <r>  -15.4091    1.0000 </r>
       <r>  -15.4077    1.0000 </r>
       <r>  -15.4020    1.0000 </r>
       <r>  -15.4008    1.0000 </r>
       <r>  -15.3921    1.0000 </r>
       <r>  -15.3916    1.0000 </r>
       <r>  -15.3890    1.0000 </r>
       <r>  -15.3880    1.0000 </r>
       <r>  -15.3810    1.0000 </r>
       <r>  -15.3751    1.0000 </r>
       <r>  -15.3731    1.0000 </r>
       <r>  -15.3721    1.0000 </r>
       <r>  -15.3561    1.0000 </r>
       <r>  -15.3526    1.0000 </r>
       <r>  -15.3483    1.0000 </r>
       <r>  -15.3473    1.0000 </r>
       <r>  -15.3296    1.0000 </r>
       <r>  -15.3257    1.0000 </r>
       <r>  -15.3222    1.0000 </r>
       <r>  -15.3209    1.0000 </r>
       <r>   -7.1491    1.0000 </r>
       <r>   -6.9911    1.0000 </r>
       <r>   -6.8564    1.0000 </r>
       <r>   -6.8192    1.0000 </r>
       <r>   -2.1132    1.0000 </r>
       <r>   -1.8244    1.0000 </r>
       <r>   -1.3740    1.0000 </r>
       <r>   -1.1575    1.0000 </r>
       <r>    1.8153    1.0000 </r>
       <r>    2.1503    1.0000 </r>
       <r>    2.3927    1.0000 </r>
       <r>    2.9456    1.0000 </r>
       <r>    3.2079    1.0000 </r>
       <r>    3.2569    1.0000 </r>
       <r>    4.2443    1.0000 </r>
       <r>    4.3271    1.0000 </r>
       <r>    4.3426    1.0000 </r>
       <r>    4.5763    1.0000 </r>
       <r>    5.1702    1.0000 </r>
       <r>    5.2210    1.0000 </r>
       <r>    6.6148    0.0000 </r>
       <r>    6.6210    0.0000 </r>
       <r>    7.2993    0.0000 </r>
       <r>    7.5763    0.0000 </r>
       <r>    8.4106    0.0000 </r>
       <r>    8.5189    0.0000 </r>
       <r>    8.8338    0.0000 </r>
       <r>    9.2837    0.0000 </r>
       <r>    9.4003    0.0000 </r>
       <r>   10.0470    0.0000 </r>
       <r>   10.7630    0.0000 </r>
       <r>   10.8735    0.0000 </r>
       <r>   11.8352    0.0000 </r>
       <r>   12.1896    0.0000 </r>
       <r>   14.0456    0.0000 </r>
       <r>   14.4338    0.0000 </r>
       <r>   14.6900    0.0000 </r>
       <r>   14.9372    0.0000 </r>
       <r>   15.1840    0.0000 </r>
       <r>   15.3365    0.0000 </r>
       <r>   15.7957    0.0000 </r>
       <r>   16.2152    0.0000 </r>
       <r>   16.4760    0.0000 </r>
       <r>   16.5396    0.0000 </r>
      </set>
      <set comment="kpoint 23">
       <r>  -15.4153    1.0000 </r>
       <r>  -15.4140    1.0000 </r>
       <r>  -15.4062    1.0000 </r>
       <r>  -15.4056    1.0000 </r>
       <r>  -15.3920    1.0000 </r>
       <r>  -15.3911    1.0000 </r>
       <r>  -15.3865    1.0000 </r>
       <r>  -15.3865    1.0000 </r>
       <r>  -15.3789    1.0000 </r>
       <r>  -15.3754    1.0000 </r>
       <r>  -15.3723    1.0000 </r>
       <r>  -15.3711    1.0000 </r>
       <r>  -15.3537    1.0000 </r>
       <r>  -15.3516    1.0000 </r>
       <r>  -15.3452    1.0000 </r>
       <r>  -15.3450    1.0000 </r>
       <r>  -15.3298    1.0000 </r>
       <r>  -15.3271    1.0000 </r>
       <r>  -15.3212    1.0000 </r>
       <r>  -15.3206    1.0000 </r>
       <r>   -7.0151    1.0000 </r>
       <r>   -6.8773    1.0000 </r>
       <r>   -6.7805    1.0000 </r>
       <r>   -6.7391    1.0000 </r>
       <r>   -1.8439    1.0000 </r>
       <r>   -1.5462    1.0000 </r>
       <r>   -1.1414    1.0000 </r>
       <r>   -1.0606    1.0000 </r>
       <r>    1.2417    1.0000 </r>
       <r>    1.7386    1.0000 </r>
       <r>    1.7511    1.0000 </r>
       <r>    1.9898    1.0000 </r>
       <r>    2.4506    1.0000 </r>
       <r>    2.9241    1.0000 </r>
       <r>    3.3487    1.0000 </r>
       <r>    3.5588    1.0000 </r>
       <r>    3.6075    1.0000 </r>
       <r>    4.0793    1.0000 </r>
       <r>    4.8219    1.0000 </r>
       <r>    4.9924    1.0000 </r>
       <r>    6.7435    0.0000 </r>
       <r>    7.4555    0.0000 </r>
       <r>    8.5871    0.0000 </r>
       <r>    8.9095    0.0000 </r>
       <r>    9.4904    0.0000 </r>
       <r>    9.6036    0.0000 </r>
       <r>   10.0149    0.0000 </r>
       <r>   10.2368    0.0000 </r>
       <r>   10.3357    0.0000 </r>
       <r>   10.5986    0.0000 </r>
       <r>   10.7811    0.0000 </r>
       <r>   11.4138    0.0000 </r>
       <r>   11.4638    0.0000 </r>
       <r>   11.5455    0.0000 </r>
       <r>   13.3699    0.0000 </r>
       <r>   13.6488    0.0000 </r>
       <r>   15.2190    0.0000 </r>
       <r>   15.4385    0.0000 </r>
       <r>   15.6565    0.0000 </r>
       <r>   16.2919    0.0000 </r>
       <r>   16.3958    0.0000 </r>
       <r>   16.6806    0.0000 </r>
       <r>   16.9406    0.0000 </r>
       <r>   17.1743    0.0000 </r>
      </set>
      <set comment="kpoint 24">
       <r>  -15.4209    1.0000 </r>
       <r>  -15.4200    1.0000 </r>
       <r>  -15.4105    1.0000 </r>
       <r>  -15.4103    1.0000 </r>
       <r>  -15.3918    1.0000 </r>
       <r>  -15.3910    1.0000 </r>
       <r>  -15.3848    1.0000 </r>
       <r>  -15.3845    1.0000 </r>
       <r>  -15.3773    1.0000 </r>
       <r>  -15.3758    1.0000 </r>
       <r>  -15.3715    1.0000 </r>
       <r>  -15.3706    1.0000 </r>
       <r>  -15.3509    1.0000 </r>
       <r>  -15.3500    1.0000 </r>
       <r>  -15.3426    1.0000 </r>
       <r>  -15.3426    1.0000 </r>
       <r>  -15.3294    1.0000 </r>
       <r>  -15.3280    1.0000 </r>
       <r>  -15.3205    1.0000 </r>
       <r>  -15.3202    1.0000 </r>
       <r>   -6.8528    1.0000 </r>
       <r>   -6.7452    1.0000 </r>
       <r>   -6.7193    1.0000 </r>
       <r>   -6.6662    1.0000 </r>
       <r>   -1.4810    1.0000 </r>
       <r>   -1.2145    1.0000 </r>
       <r>   -0.9534    1.0000 </r>
       <r>   -0.8572    1.0000 </r>
       <r>    0.6221    1.0000 </r>
       <r>    1.0089    1.0000 </r>
       <r>    1.2696    1.0000 </r>
       <r>    1.5578    1.0000 </r>
       <r>    2.0369    1.0000 </r>
       <r>    2.2018    1.0000 </r>
       <r>    2.7175    1.0000 </r>
       <r>    3.1559    1.0000 </r>
       <r>    3.3046    1.0000 </r>
       <r>    3.4391    1.0000 </r>
       <r>    4.5058    1.0000 </r>
       <r>    4.5582    1.0000 </r>
       <r>    7.5065    0.0000 </r>
       <r>    8.2627    0.0000 </r>
       <r>    9.0504    0.0000 </r>
       <r>    9.3820    0.0000 </r>
       <r>   10.2659    0.0000 </r>
       <r>   10.3120    0.0000 </r>
       <r>   10.4449    0.0000 </r>
       <r>   10.8291    0.0000 </r>
       <r>   10.8365    0.0000 </r>
       <r>   11.3293    0.0000 </r>
       <r>   11.7849    0.0000 </r>
       <r>   11.9189    0.0000 </r>
       <r>   12.0384    0.0000 </r>
       <r>   12.4307    0.0000 </r>
       <r>   12.7811    0.0000 </r>
       <r>   13.0721    0.0000 </r>
       <r>   15.5971    0.0000 </r>
       <r>   15.7706    0.0000 </r>
       <r>   16.6846    0.0000 </r>
       <r>   16.7707    0.0000 </r>
       <r>   16.9900    0.0000 </r>
       <r>   17.1382    0.0000 </r>
       <r>   17.5875    0.0000 </r>
       <r>   17.6367    0.0000 </r>
      </set>
      <set comment="kpoint 25">
       <r>  -15.4228    1.0000 </r>
       <r>  -15.4228    1.0000 </r>
       <r>  -15.4123    1.0000 </r>
       <r>  -15.4123    1.0000 </r>
       <r>  -15.3915    1.0000 </r>
       <r>  -15.3915    1.0000 </r>
       <r>  -15.3840    1.0000 </r>
       <r>  -15.3840    1.0000 </r>
       <r>  -15.3764    1.0000 </r>
       <r>  -15.3764    1.0000 </r>
       <r>  -15.3708    1.0000 </r>
       <r>  -15.3708    1.0000 </r>
       <r>  -15.3494    1.0000 </r>
       <r>  -15.3494    1.0000 </r>
       <r>  -15.3416    1.0000 </r>
       <r>  -15.3416    1.0000 </r>
       <r>  -15.3286    1.0000 </r>
       <r>  -15.3286    1.0000 </r>
       <r>  -15.3202    1.0000 </r>
       <r>  -15.3202    1.0000 </r>
       <r>   -6.7376    1.0000 </r>
       <r>   -6.7376    1.0000 </r>
       <r>   -6.6614    1.0000 </r>
       <r>   -6.6614    1.0000 </r>
       <r>   -1.2105    1.0000 </r>
       <r>   -1.2105    1.0000 </r>
       <r>   -0.7582    1.0000 </r>
       <r>   -0.7582    1.0000 </r>
       <r>    0.5486    1.0000 </r>
       <r>    0.5486    1.0000 </r>
       <r>    1.1681    1.0000 </r>
       <r>    1.1681    1.0000 </r>
       <r>    1.9034    1.0000 </r>
       <r>    1.9034    1.0000 </r>
       <r>    2.6500    1.0000 </r>
       <r>    2.6500    1.0000 </r>
       <r>    3.3539    1.0000 </r>
       <r>    3.3539    1.0000 </r>
       <r>    4.3804    1.0000 </r>
       <r>    4.3804    1.0000 </r>
       <r>    8.2070    0.0000 </r>
       <r>    8.2070    0.0000 </r>
       <r>    9.0801    0.0000 </r>
       <r>    9.0801    0.0000 </r>
       <r>   10.3733    0.0000 </r>
       <r>   10.3733    0.0000 </r>
       <r>   10.8114    0.0000 </r>
       <r>   10.8114    0.0000 </r>
       <r>   11.7213    0.0000 </r>
       <r>   11.7213    0.0000 </r>
       <r>   12.3282    0.0000 </r>
       <r>   12.3282    0.0000 </r>
       <r>   12.6697    0.0000 </r>
       <r>   12.6697    0.0000 </r>
       <r>   12.8415    0.0000 </r>
       <r>   12.8415    0.0000 </r>
       <r>   16.0049    0.0000 </r>
       <r>   16.0049    0.0000 </r>
       <r>   16.7063    0.0000 </r>
       <r>   16.7063    0.0000 </r>
       <r>   16.9519    0.0000 </r>
       <r>   16.9519    0.0000 </r>
       <r>   17.7945    0.0000 </r>
       <r>   17.7949    0.0000 </r>
      </set>
      <set comment="kpoint 26">
       <r>  -15.4172    1.0000 </r>
       <r>  -15.4085    1.0000 </r>
       <r>  -15.3989    1.0000 </r>
       <r>  -15.3961    1.0000 </r>
       <r>  -15.3935    1.0000 </r>
       <r>  -15.3908    1.0000 </r>
       <r>  -15.3905    1.0000 </r>
       <r>  -15.3876    1.0000 </r>
       <r>  -15.3809    1.0000 </r>
       <r>  -15.3799    1.0000 </r>
       <r>  -15.3790    1.0000 </r>
       <r>  -15.3775    1.0000 </r>
       <r>  -15.3670    1.0000 </r>
       <r>  -15.3645    1.0000 </r>
       <r>  -15.3458    1.0000 </r>
       <r>  -15.3418    1.0000 </r>
       <r>  -15.3339    1.0000 </r>
       <r>  -15.3307    1.0000 </r>
       <r>  -15.3141    1.0000 </r>
       <r>  -15.3095    1.0000 </r>
       <r>   -8.0960    1.0000 </r>
       <r>   -7.9017    1.0000 </r>
       <r>   -6.9125    1.0000 </r>
       <r>   -6.6215    1.0000 </r>
       <r>   -1.2989    1.0000 </r>
       <r>   -0.8563    1.0000 </r>
       <r>    0.7100    1.0000 </r>
       <r>    0.8237    1.0000 </r>
       <r>    1.2208    1.0000 </r>
       <r>    2.0551    1.0000 </r>
       <r>    2.4241    1.0000 </r>
       <r>    2.5490    1.0000 </r>
       <r>    2.6818    1.0000 </r>
       <r>    3.0444    1.0000 </r>
       <r>    3.6805    1.0000 </r>
       <r>    3.6982    1.0000 </r>
       <r>    3.7109    1.0000 </r>
       <r>    4.0686    1.0000 </r>
       <r>    5.2226    1.0000 </r>
       <r>    5.2968    1.0000 </r>
       <r>    7.6374    0.0000 </r>
       <r>    8.4622    0.0000 </r>
       <r>    8.5534    0.0000 </r>
       <r>    9.0522    0.0000 </r>
       <r>    9.5062    0.0000 </r>
       <r>    9.6526    0.0000 </r>
       <r>    9.9069    0.0000 </r>
       <r>   10.1229    0.0000 </r>
       <r>   10.6442    0.0000 </r>
       <r>   10.8200    0.0000 </r>
       <r>   11.3399    0.0000 </r>
       <r>   11.3752    0.0000 </r>
       <r>   11.6144    0.0000 </r>
       <r>   11.8715    0.0000 </r>
       <r>   12.1878    0.0000 </r>
       <r>   12.4586    0.0000 </r>
       <r>   13.0091    0.0000 </r>
       <r>   13.4034    0.0000 </r>
       <r>   13.9248    0.0000 </r>
       <r>   14.3234    0.0000 </r>
       <r>   14.5296    0.0000 </r>
       <r>   14.5467    0.0000 </r>
       <r>   14.8678    0.0000 </r>
       <r>   14.8758    0.0000 </r>
      </set>
      <set comment="kpoint 27">
       <r>  -15.4162    1.0000 </r>
       <r>  -15.4080    1.0000 </r>
       <r>  -15.3977    1.0000 </r>
       <r>  -15.3952    1.0000 </r>
       <r>  -15.3939    1.0000 </r>
       <r>  -15.3918    1.0000 </r>
       <r>  -15.3913    1.0000 </r>
       <r>  -15.3879    1.0000 </r>
       <r>  -15.3813    1.0000 </r>
       <r>  -15.3796    1.0000 </r>
       <r>  -15.3789    1.0000 </r>
       <r>  -15.3757    1.0000 </r>
       <r>  -15.3662    1.0000 </r>
       <r>  -15.3645    1.0000 </r>
       <r>  -15.3459    1.0000 </r>
       <r>  -15.3419    1.0000 </r>
       <r>  -15.3340    1.0000 </r>
       <r>  -15.3311    1.0000 </r>
       <r>  -15.3139    1.0000 </r>
       <r>  -15.3097    1.0000 </r>
       <r>   -8.0235    1.0000 </r>
       <r>   -7.8329    1.0000 </r>
       <r>   -6.8965    1.0000 </r>
       <r>   -6.6217    1.0000 </r>
       <r>   -1.5707    1.0000 </r>
       <r>   -1.0853    1.0000 </r>
       <r>    0.2638    1.0000 </r>
       <r>    0.4933    1.0000 </r>
       <r>    1.2701    1.0000 </r>
       <r>    2.2104    1.0000 </r>
       <r>    2.5341    1.0000 </r>
       <r>    2.7870    1.0000 </r>
       <r>    2.8421    1.0000 </r>
       <r>    3.2317    1.0000 </r>
       <r>    3.7727    1.0000 </r>
       <r>    3.8716    1.0000 </r>
       <r>    4.1268    1.0000 </r>
       <r>    4.2398    1.0000 </r>
       <r>    5.1206    1.0000 </r>
       <r>    5.2985    1.0000 </r>
       <r>    7.5889    0.0000 </r>
       <r>    8.2987    0.0000 </r>
       <r>    8.7483    0.0000 </r>
       <r>    9.0063    0.0000 </r>
       <r>    9.0108    0.0000 </r>
       <r>    9.3381    0.0000 </r>
       <r>    9.4372    0.0000 </r>
       <r>    9.9391    0.0000 </r>
       <r>   10.4603    0.0000 </r>
       <r>   10.8582    0.0000 </r>
       <r>   10.9806    0.0000 </r>
       <r>   11.2771    0.0000 </r>
       <r>   11.3712    0.0000 </r>
       <r>   11.5271    0.0000 </r>
       <r>   12.1212    0.0000 </r>
       <r>   12.6559    0.0000 </r>
       <r>   12.9658    0.0000 </r>
       <r>   13.4763    0.0000 </r>
       <r>   13.9357    0.0000 </r>
       <r>   14.1472    0.0000 </r>
       <r>   15.0459    0.0000 </r>
       <r>   15.2554    0.0000 </r>
       <r>   15.4320    0.0000 </r>
       <r>   15.5373    0.0000 </r>
      </set>
      <set comment="kpoint 28">
       <r>  -15.4135    1.0000 </r>
       <r>  -15.4071    1.0000 </r>
       <r>  -15.3958    1.0000 </r>
       <r>  -15.3953    1.0000 </r>
       <r>  -15.3942    1.0000 </r>
       <r>  -15.3934    1.0000 </r>
       <r>  -15.3923    1.0000 </r>
       <r>  -15.3890    1.0000 </r>
       <r>  -15.3821    1.0000 </r>
       <r>  -15.3807    1.0000 </r>
       <r>  -15.3760    1.0000 </r>
       <r>  -15.3718    1.0000 </r>
       <r>  -15.3652    1.0000 </r>
       <r>  -15.3638    1.0000 </r>
       <r>  -15.3457    1.0000 </r>
       <r>  -15.3422    1.0000 </r>
       <r>  -15.3342    1.0000 </r>
       <r>  -15.3319    1.0000 </r>
       <r>  -15.3135    1.0000 </r>
       <r>  -15.3103    1.0000 </r>
       <r>   -7.8193    1.0000 </r>
       <r>   -7.6407    1.0000 </r>
       <r>   -6.8777    1.0000 </r>
       <r>   -6.6467    1.0000 </r>
       <r>   -2.0901    1.0000 </r>
       <r>   -1.6072    1.0000 </r>
       <r>   -0.4930    1.0000 </r>
       <r>   -0.1444    1.0000 </r>
       <r>    1.4572    1.0000 </r>
       <r>    2.4991    1.0000 </r>
       <r>    2.8481    1.0000 </r>
       <r>    3.0848    1.0000 </r>
       <r>    3.3366    1.0000 </r>
       <r>    3.6431    1.0000 </r>
       <r>    3.9517    1.0000 </r>
       <r>    4.2520    1.0000 </r>
       <r>    4.4911    1.0000 </r>
       <r>    4.7432    1.0000 </r>
       <r>    5.0980    1.0000 </r>
       <r>    5.3924    1.0000 </r>
       <r>    7.4647    0.0000 </r>
       <r>    7.7870    0.0000 </r>
       <r>    8.0792    0.0000 </r>
       <r>    8.3071    0.0000 </r>
       <r>    8.5135    0.0000 </r>
       <r>    8.6369    0.0000 </r>
       <r>    9.1218    0.0000 </r>
       <r>    9.8300    0.0000 </r>
       <r>    9.8706    0.0000 </r>
       <r>   10.3638    0.0000 </r>
       <r>   10.6720    0.0000 </r>
       <r>   10.8165    0.0000 </r>
       <r>   11.4144    0.0000 </r>
       <r>   11.6916    0.0000 </r>
       <r>   12.5940    0.0000 </r>
       <r>   13.1138    0.0000 </r>
       <r>   13.2908    0.0000 </r>
       <r>   13.8892    0.0000 </r>
       <r>   14.2018    0.0000 </r>
       <r>   14.2171    0.0000 </r>
       <r>   15.2576    0.0000 </r>
       <r>   15.6535    0.0000 </r>
       <r>   16.4103    0.0000 </r>
       <r>   16.5624    0.0000 </r>
      </set>
      <set comment="kpoint 29">
       <r>  -15.4102    1.0000 </r>
       <r>  -15.4065    1.0000 </r>
       <r>  -15.3979    1.0000 </r>
       <r>  -15.3970    1.0000 </r>
       <r>  -15.3935    1.0000 </r>
       <r>  -15.3926    1.0000 </r>
       <r>  -15.3923    1.0000 </r>
       <r>  -15.3908    1.0000 </r>
       <r>  -15.3825    1.0000 </r>
       <r>  -15.3817    1.0000 </r>
       <r>  -15.3720    1.0000 </r>
       <r>  -15.3686    1.0000 </r>
       <r>  -15.3646    1.0000 </r>
       <r>  -15.3627    1.0000 </r>
       <r>  -15.3447    1.0000 </r>
       <r>  -15.3425    1.0000 </r>
       <r>  -15.3340    1.0000 </r>
       <r>  -15.3327    1.0000 </r>
       <r>  -15.3128    1.0000 </r>
       <r>  -15.3111    1.0000 </r>
       <r>   -7.5319    1.0000 </r>
       <r>   -7.3807    1.0000 </r>
       <r>   -6.9202    1.0000 </r>
       <r>   -6.7502    1.0000 </r>
       <r>   -2.4479    1.0000 </r>
       <r>   -2.1227    1.0000 </r>
       <r>   -1.0240    1.0000 </r>
       <r>   -0.7635    1.0000 </r>
       <r>    1.8771    1.0000 </r>
       <r>    2.8070    1.0000 </r>
       <r>    3.2928    1.0000 </r>
       <r>    3.3040    1.0000 </r>
       <r>    3.5024    1.0000 </r>
       <r>    3.9609    1.0000 </r>
       <r>    4.0783    1.0000 </r>
       <r>    4.2866    1.0000 </r>
       <r>    4.8159    1.0000 </r>
       <r>    4.9923    1.0000 </r>
       <r>    5.6206    1.0000 </r>
       <r>    5.8315    1.0000 </r>
       <r>    6.8878    0.0000 </r>
       <r>    7.3058    0.0000 </r>
       <r>    7.3855    0.0000 </r>
       <r>    7.7149    0.0000 </r>
       <r>    7.7506    0.0000 </r>
       <r>    8.1371    0.0000 </r>
       <r>    8.5964    0.0000 </r>
       <r>    9.0665    0.0000 </r>
       <r>    9.4139    0.0000 </r>
       <r>    9.4297    0.0000 </r>
       <r>   10.9277    0.0000 </r>
       <r>   11.1831    0.0000 </r>
       <r>   12.5599    0.0000 </r>
       <r>   12.8090    0.0000 </r>
       <r>   13.1892    0.0000 </r>
       <r>   13.5610    0.0000 </r>
       <r>   13.8542    0.0000 </r>
       <r>   14.3203    0.0000 </r>
       <r>   14.5731    0.0000 </r>
       <r>   14.5929    0.0000 </r>
       <r>   15.3792    0.0000 </r>
       <r>   15.5753    0.0000 </r>
       <r>   15.5871    0.0000 </r>
       <r>   16.3881    0.0000 </r>
      </set>
      <set comment="kpoint 30">
       <r>  -15.4075    1.0000 </r>
       <r>  -15.4075    1.0000 </r>
       <r>  -15.3985    1.0000 </r>
       <r>  -15.3985    1.0000 </r>
       <r>  -15.3926    1.0000 </r>
       <r>  -15.3926    1.0000 </r>
       <r>  -15.3922    1.0000 </r>
       <r>  -15.3922    1.0000 </r>
       <r>  -15.3823    1.0000 </r>
       <r>  -15.3823    1.0000 </r>
       <r>  -15.3690    1.0000 </r>
       <r>  -15.3690    1.0000 </r>
       <r>  -15.3632    1.0000 </r>
       <r>  -15.3632    1.0000 </r>
       <r>  -15.3433    1.0000 </r>
       <r>  -15.3433    1.0000 </r>
       <r>  -15.3334    1.0000 </r>
       <r>  -15.3334    1.0000 </r>
       <r>  -15.3120    1.0000 </r>
       <r>  -15.3120    1.0000 </r>
       <r>   -7.2832    1.0000 </r>
       <r>   -7.2832    1.0000 </r>
       <r>   -6.9245    1.0000 </r>
       <r>   -6.9245    1.0000 </r>
       <r>   -2.4489    1.0000 </r>
       <r>   -2.4489    1.0000 </r>
       <r>   -1.1109    1.0000 </r>
       <r>   -1.1109    1.0000 </r>
       <r>    2.4439    1.0000 </r>
       <r>    2.4439    1.0000 </r>
       <r>    3.5913    1.0000 </r>
       <r>    3.5913    1.0000 </r>
       <r>    3.7037    1.0000 </r>
       <r>    3.7037    1.0000 </r>
       <r>    4.1105    1.0000 </r>
       <r>    4.1105    1.0000 </r>
       <r>    5.3583    1.0000 </r>
       <r>    5.3583    1.0000 </r>
       <r>    5.7176    1.0000 </r>
       <r>    5.7176    1.0000 </r>
       <r>    6.9098    0.0000 </r>
       <r>    6.9098    0.0000 </r>
       <r>    7.2807    0.0000 </r>
       <r>    7.2807    0.0000 </r>
       <r>    7.5948    0.0000 </r>
       <r>    7.5948    0.0000 </r>
       <r>    8.8414    0.0000 </r>
       <r>    8.8414    0.0000 </r>
       <r>    8.8875    0.0000 </r>
       <r>    8.8875    0.0000 </r>
       <r>   11.2048    0.0000 </r>
       <r>   11.2048    0.0000 </r>
       <r>   13.4955    0.0000 </r>
       <r>   13.4955    0.0000 </r>
       <r>   14.1199    0.0000 </r>
       <r>   14.1199    0.0000 </r>
       <r>   14.2061    0.0000 </r>
       <r>   14.2061    0.0000 </r>
       <r>   14.5187    0.0000 </r>
       <r>   14.5187    0.0000 </r>
       <r>   15.7764    0.0000 </r>
       <r>   15.7764    0.0000 </r>
       <r>   15.8024    0.0000 </r>
       <r>   15.8024    0.0000 </r>
      </set>
      <set comment="kpoint 31">
       <r>  -15.4138    1.0000 </r>
       <r>  -15.4057    1.0000 </r>
       <r>  -15.3975    1.0000 </r>
       <r>  -15.3952    1.0000 </r>
       <r>  -15.3938    1.0000 </r>
       <r>  -15.3922    1.0000 </r>
       <r>  -15.3921    1.0000 </r>
       <r>  -15.3894    1.0000 </r>
       <r>  -15.3834    1.0000 </r>
       <r>  -15.3816    1.0000 </r>
       <r>  -15.3779    1.0000 </r>
       <r>  -15.3754    1.0000 </r>
       <r>  -15.3653    1.0000 </r>
       <r>  -15.3641    1.0000 </r>
       <r>  -15.3444    1.0000 </r>
       <r>  -15.3408    1.0000 </r>
       <r>  -15.3343    1.0000 </r>
       <r>  -15.3319    1.0000 </r>
       <r>  -15.3149    1.0000 </r>
       <r>  -15.3109    1.0000 </r>
       <r>   -8.0259    1.0000 </r>
       <r>   -7.8366    1.0000 </r>
       <r>   -6.8837    1.0000 </r>
       <r>   -6.6105    1.0000 </r>
       <r>   -1.4171    1.0000 </r>
       <r>   -0.9882    1.0000 </r>
       <r>    0.4306    1.0000 </r>
       <r>    0.4393    1.0000 </r>
       <r>    1.2380    1.0000 </r>
       <r>    2.1182    1.0000 </r>
       <r>    2.3407    1.0000 </r>
       <r>    2.6667    1.0000 </r>
       <r>    2.8703    1.0000 </r>
       <r>    3.1532    1.0000 </r>
       <r>    3.6606    1.0000 </r>
       <r>    3.7585    1.0000 </r>
       <r>    4.0608    1.0000 </r>
       <r>    4.1042    1.0000 </r>
       <r>    5.2512    1.0000 </r>
       <r>    5.2918    1.0000 </r>
       <r>    7.7320    0.0000 </r>
       <r>    8.4405    0.0000 </r>
       <r>    8.6689    0.0000 </r>
       <r>    8.9348    0.0000 </r>
       <r>    9.0997    0.0000 </r>
       <r>    9.4281    0.0000 </r>
       <r>    9.4360    0.0000 </r>
       <r>    9.9649    0.0000 </r>
       <r>   10.5407    0.0000 </r>
       <r>   11.0160    0.0000 </r>
       <r>   11.0327    0.0000 </r>
       <r>   11.3027    0.0000 </r>
       <r>   11.4930    0.0000 </r>
       <r>   11.6076    0.0000 </r>
       <r>   11.8167    0.0000 </r>
       <r>   12.2244    0.0000 </r>
       <r>   12.5721    0.0000 </r>
       <r>   13.5796    0.0000 </r>
       <r>   13.8611    0.0000 </r>
       <r>   14.3805    0.0000 </r>
       <r>   15.2839    0.0000 </r>
       <r>   15.3077    0.0000 </r>
       <r>   15.3421    0.0000 </r>
       <r>   15.4543    0.0000 </r>
      </set>
      <set comment="kpoint 32">
       <r>  -15.4130    1.0000 </r>
       <r>  -15.4054    1.0000 </r>
       <r>  -15.3964    1.0000 </r>
       <r>  -15.3948    1.0000 </r>
       <r>  -15.3942    1.0000 </r>
       <r>  -15.3931    1.0000 </r>
       <r>  -15.3924    1.0000 </r>
       <r>  -15.3896    1.0000 </r>
       <r>  -15.3838    1.0000 </r>
       <r>  -15.3822    1.0000 </r>
       <r>  -15.3767    1.0000 </r>
       <r>  -15.3738    1.0000 </r>
       <r>  -15.3649    1.0000 </r>
       <r>  -15.3638    1.0000 </r>
       <r>  -15.3444    1.0000 </r>
       <r>  -15.3408    1.0000 </r>
       <r>  -15.3346    1.0000 </r>
       <r>  -15.3322    1.0000 </r>
       <r>  -15.3147    1.0000 </r>
       <r>  -15.3110    1.0000 </r>
       <r>   -7.9543    1.0000 </r>
       <r>   -7.7688    1.0000 </r>
       <r>   -6.8675    1.0000 </r>
       <r>   -6.6093    1.0000 </r>
       <r>   -1.6199    1.0000 </r>
       <r>   -1.1462    1.0000 </r>
       <r>    0.0915    1.0000 </r>
       <r>    0.2598    1.0000 </r>
       <r>    1.3030    1.0000 </r>
       <r>    2.0428    1.0000 </r>
       <r>    2.2574    1.0000 </r>
       <r>    2.5871    1.0000 </r>
       <r>    3.0769    1.0000 </r>
       <r>    3.4253    1.0000 </r>
       <r>    3.5991    1.0000 </r>
       <r>    3.7536    1.0000 </r>
       <r>    4.4843    1.0000 </r>
       <r>    4.7358    1.0000 </r>
       <r>    5.1563    1.0000 </r>
       <r>    5.3127    1.0000 </r>
       <r>    7.6535    0.0000 </r>
       <r>    7.9215    0.0000 </r>
       <r>    8.3087    0.0000 </r>
       <r>    8.7444    0.0000 </r>
       <r>    8.9108    0.0000 </r>
       <r>    9.2012    0.0000 </r>
       <r>    9.6547    0.0000 </r>
       <r>    9.9724    0.0000 </r>
       <r>   10.3169    0.0000 </r>
       <r>   10.4874    0.0000 </r>
       <r>   10.8720    0.0000 </r>
       <r>   10.9851    0.0000 </r>
       <r>   11.7572    0.0000 </r>
       <r>   12.0083    0.0000 </r>
       <r>   12.1244    0.0000 </r>
       <r>   12.5130    0.0000 </r>
       <r>   12.9629    0.0000 </r>
       <r>   13.7343    0.0000 </r>
       <r>   14.0764    0.0000 </r>
       <r>   14.6182    0.0000 </r>
       <r>   14.8255    0.0000 </r>
       <r>   15.2222    0.0000 </r>
       <r>   15.5514    0.0000 </r>
       <r>   15.7667    0.0000 </r>
      </set>
      <set comment="kpoint 33">
       <r>  -15.4110    1.0000 </r>
       <r>  -15.4048    1.0000 </r>
       <r>  -15.3977    1.0000 </r>
       <r>  -15.3966    1.0000 </r>
       <r>  -15.3938    1.0000 </r>
       <r>  -15.3926    1.0000 </r>
       <r>  -15.3923    1.0000 </r>
       <r>  -15.3899    1.0000 </r>
       <r>  -15.3846    1.0000 </r>
       <r>  -15.3834    1.0000 </r>
       <r>  -15.3741    1.0000 </r>
       <r>  -15.3704    1.0000 </r>
       <r>  -15.3643    1.0000 </r>
       <r>  -15.3624    1.0000 </r>
       <r>  -15.3442    1.0000 </r>
       <r>  -15.3409    1.0000 </r>
       <r>  -15.3350    1.0000 </r>
       <r>  -15.3330    1.0000 </r>
       <r>  -15.3142    1.0000 </r>
       <r>  -15.3114    1.0000 </r>
       <r>   -7.7533    1.0000 </r>
       <r>   -7.5800    1.0000 </r>
       <r>   -6.8471    1.0000 </r>
       <r>   -6.6296    1.0000 </r>
       <r>   -2.0478    1.0000 </r>
       <r>   -1.5690    1.0000 </r>
       <r>   -0.5125    1.0000 </r>
       <r>   -0.2108    1.0000 </r>
       <r>    1.5055    1.0000 </r>
       <r>    2.0565    1.0000 </r>
       <r>    2.2790    1.0000 </r>
       <r>    2.9159    1.0000 </r>
       <r>    3.0786    1.0000 </r>
       <r>    3.4443    1.0000 </r>
       <r>    4.0587    1.0000 </r>
       <r>    4.2243    1.0000 </r>
       <r>    4.9369    1.0000 </r>
       <r>    5.0680    1.0000 </r>
       <r>    5.1755    1.0000 </r>
       <r>    5.3796    1.0000 </r>
       <r>    7.2623    0.0000 </r>
       <r>    7.4234    0.0000 </r>
       <r>    7.8489    0.0000 </r>
       <r>    8.0224    0.0000 </r>
       <r>    8.6666    0.0000 </r>
       <r>    9.0143    0.0000 </r>
       <r>    9.3388    0.0000 </r>
       <r>    9.5178    0.0000 </r>
       <r>   10.1621    0.0000 </r>
       <r>   10.3100    0.0000 </r>
       <r>   10.8419    0.0000 </r>
       <r>   10.9319    0.0000 </r>
       <r>   12.0093    0.0000 </r>
       <r>   12.0957    0.0000 </r>
       <r>   12.8908    0.0000 </r>
       <r>   12.9825    0.0000 </r>
       <r>   13.4013    0.0000 </r>
       <r>   13.8777    0.0000 </r>
       <r>   14.1769    0.0000 </r>
       <r>   14.7467    0.0000 </r>
       <r>   14.9073    0.0000 </r>
       <r>   15.5258    0.0000 </r>
       <r>   15.8944    0.0000 </r>
       <r>   16.2317    0.0000 </r>
      </set>
      <set comment="kpoint 34">
       <r>  -15.4083    1.0000 </r>
       <r>  -15.4044    1.0000 </r>
       <r>  -15.4008    1.0000 </r>
       <r>  -15.3995    1.0000 </r>
       <r>  -15.3938    1.0000 </r>
       <r>  -15.3933    1.0000 </r>
       <r>  -15.3905    1.0000 </r>
       <r>  -15.3893    1.0000 </r>
       <r>  -15.3851    1.0000 </r>
       <r>  -15.3845    1.0000 </r>
       <r>  -15.3710    1.0000 </r>
       <r>  -15.3681    1.0000 </r>
       <r>  -15.3629    1.0000 </r>
       <r>  -15.3611    1.0000 </r>
       <r>  -15.3432    1.0000 </r>
       <r>  -15.3411    1.0000 </r>
       <r>  -15.3349    1.0000 </r>
       <r>  -15.3338    1.0000 </r>
       <r>  -15.3135    1.0000 </r>
       <r>  -15.3120    1.0000 </r>
       <r>   -7.4721    1.0000 </r>
       <r>   -7.3261    1.0000 </r>
       <r>   -6.8849    1.0000 </r>
       <r>   -6.7239    1.0000 </r>
       <r>   -2.3633    1.0000 </r>
       <r>   -2.0436    1.0000 </r>
       <r>   -0.9660    1.0000 </r>
       <r>   -0.7298    1.0000 </r>
       <r>    1.8751    1.0000 </r>
       <r>    2.3468    1.0000 </r>
       <r>    2.6275    1.0000 </r>
       <r>    3.0197    1.0000 </r>
       <r>    3.3378    1.0000 </r>
       <r>    3.4556    1.0000 </r>
       <r>    3.8607    1.0000 </r>
       <r>    4.3387    1.0000 </r>
       <r>    4.9524    1.0000 </r>
       <r>    5.1395    1.0000 </r>
       <r>    5.2978    1.0000 </r>
       <r>    5.3930    1.0000 </r>
       <r>    7.0806    0.0000 </r>
       <r>    7.3333    0.0000 </r>
       <r>    7.5778    0.0000 </r>
       <r>    7.9338    0.0000 </r>
       <r>    8.2195    0.0000 </r>
       <r>    8.6447    0.0000 </r>
       <r>    8.7255    0.0000 </r>
       <r>    9.0367    0.0000 </r>
       <r>   10.0362    0.0000 </r>
       <r>   10.1872    0.0000 </r>
       <r>   10.8151    0.0000 </r>
       <r>   11.0749    0.0000 </r>
       <r>   12.5982    0.0000 </r>
       <r>   12.8845    0.0000 </r>
       <r>   13.1328    0.0000 </r>
       <r>   13.3878    0.0000 </r>
       <r>   13.9278    0.0000 </r>
       <r>   14.2722    0.0000 </r>
       <r>   14.4503    0.0000 </r>
       <r>   14.6411    0.0000 </r>
       <r>   15.3153    0.0000 </r>
       <r>   15.6885    0.0000 </r>
       <r>   15.9488    0.0000 </r>
       <r>   16.6475    0.0000 </r>
      </set>
      <set comment="kpoint 35">
       <r>  -15.4057    1.0000 </r>
       <r>  -15.4057    1.0000 </r>
       <r>  -15.4014    1.0000 </r>
       <r>  -15.4014    1.0000 </r>
       <r>  -15.3940    1.0000 </r>
       <r>  -15.3940    1.0000 </r>
       <r>  -15.3894    1.0000 </r>
       <r>  -15.3894    1.0000 </r>
       <r>  -15.3851    1.0000 </r>
       <r>  -15.3851    1.0000 </r>
       <r>  -15.3685    1.0000 </r>
       <r>  -15.3685    1.0000 </r>
       <r>  -15.3613    1.0000 </r>
       <r>  -15.3613    1.0000 </r>
       <r>  -15.3418    1.0000 </r>
       <r>  -15.3418    1.0000 </r>
       <r>  -15.3345    1.0000 </r>
       <r>  -15.3345    1.0000 </r>
       <r>  -15.3127    1.0000 </r>
       <r>  -15.3127    1.0000 </r>
       <r>   -7.2310    1.0000 </r>
       <r>   -7.2310    1.0000 </r>
       <r>   -6.8879    1.0000 </r>
       <r>   -6.8879    1.0000 </r>
       <r>   -2.3577    1.0000 </r>
       <r>   -2.3577    1.0000 </r>
       <r>   -1.0394    1.0000 </r>
       <r>   -1.0394    1.0000 </r>
       <r>    2.3439    1.0000 </r>
       <r>    2.3439    1.0000 </r>
       <r>    2.9764    1.0000 </r>
       <r>    2.9764    1.0000 </r>
       <r>    3.3334    1.0000 </r>
       <r>    3.3334    1.0000 </r>
       <r>    3.9675    1.0000 </r>
       <r>    3.9675    1.0000 </r>
       <r>    5.0159    1.0000 </r>
       <r>    5.0159    1.0000 </r>
       <r>    5.3855    1.0000 </r>
       <r>    5.3855    1.0000 </r>
       <r>    7.2384    0.0000 </r>
       <r>    7.2384    0.0000 </r>
       <r>    7.6544    0.0000 </r>
       <r>    7.6544    0.0000 </r>
       <r>    8.2273    0.0000 </r>
       <r>    8.2273    0.0000 </r>
       <r>    8.8957    0.0000 </r>
       <r>    8.8957    0.0000 </r>
       <r>    9.7774    0.0000 </r>
       <r>    9.7774    0.0000 </r>
       <r>   11.0557    0.0000 </r>
       <r>   11.0557    0.0000 </r>
       <r>   12.8140    0.0000 </r>
       <r>   12.8140    0.0000 </r>
       <r>   13.9250    0.0000 </r>
       <r>   13.9250    0.0000 </r>
       <r>   14.3164    0.0000 </r>
       <r>   14.3164    0.0000 </r>
       <r>   15.2142    0.0000 </r>
       <r>   15.2142    0.0000 </r>
       <r>   15.7460    0.0000 </r>
       <r>   15.7460    0.0000 </r>
       <r>   15.9416    0.0000 </r>
       <r>   15.9416    0.0000 </r>
      </set>
      <set comment="kpoint 36">
       <r>  -15.4056    1.0000 </r>
       <r>  -15.4019    1.0000 </r>
       <r>  -15.3959    1.0000 </r>
       <r>  -15.3951    1.0000 </r>
       <r>  -15.3946    1.0000 </r>
       <r>  -15.3928    1.0000 </r>
       <r>  -15.3919    1.0000 </r>
       <r>  -15.3915    1.0000 </r>
       <r>  -15.3881    1.0000 </r>
       <r>  -15.3867    1.0000 </r>
       <r>  -15.3746    1.0000 </r>
       <r>  -15.3715    1.0000 </r>
       <r>  -15.3632    1.0000 </r>
       <r>  -15.3620    1.0000 </r>
       <r>  -15.3410    1.0000 </r>
       <r>  -15.3402    1.0000 </r>
       <r>  -15.3353    1.0000 </r>
       <r>  -15.3344    1.0000 </r>
       <r>  -15.3167    1.0000 </r>
       <r>  -15.3141    1.0000 </r>
       <r>   -7.8241    1.0000 </r>
       <r>   -7.6515    1.0000 </r>
       <r>   -6.8199    1.0000 </r>
       <r>   -6.6021    1.0000 </r>
       <r>   -1.7131    1.0000 </r>
       <r>   -1.3257    1.0000 </r>
       <r>   -0.3546    1.0000 </r>
       <r>   -0.1843    1.0000 </r>
       <r>    1.3785    1.0000 </r>
       <r>    2.3151    1.0000 </r>
       <r>    2.5086    1.0000 </r>
       <r>    2.7887    1.0000 </r>
       <r>    3.2115    1.0000 </r>
       <r>    3.3909    1.0000 </r>
       <r>    3.8010    1.0000 </r>
       <r>    3.8997    1.0000 </r>
       <r>    4.1947    1.0000 </r>
       <r>    4.5024    1.0000 </r>
       <r>    5.2537    1.0000 </r>
       <r>    5.3887    1.0000 </r>
       <r>    7.3161    0.0000 </r>
       <r>    8.0032    0.0000 </r>
       <r>    8.0463    0.0000 </r>
       <r>    8.4918    0.0000 </r>
       <r>    8.6554    0.0000 </r>
       <r>    9.1823    0.0000 </r>
       <r>    9.2882    0.0000 </r>
       <r>    9.8827    0.0000 </r>
       <r>   10.0559    0.0000 </r>
       <r>   10.4611    0.0000 </r>
       <r>   10.5841    0.0000 </r>
       <r>   10.6223    0.0000 </r>
       <r>   11.2824    0.0000 </r>
       <r>   11.4549    0.0000 </r>
       <r>   12.3662    0.0000 </r>
       <r>   12.3746    0.0000 </r>
       <r>   12.9035    0.0000 </r>
       <r>   13.4700    0.0000 </r>
       <r>   14.5306    0.0000 </r>
       <r>   14.7492    0.0000 </r>
       <r>   15.8089    0.0000 </r>
       <r>   15.9486    0.0000 </r>
       <r>   16.0300    0.0000 </r>
       <r>   16.4070    0.0000 </r>
      </set>
      <set comment="kpoint 37">
       <r>  -15.4063    1.0000 </r>
       <r>  -15.4024    1.0000 </r>
       <r>  -15.3974    1.0000 </r>
       <r>  -15.3954    1.0000 </r>
       <r>  -15.3943    1.0000 </r>
       <r>  -15.3925    1.0000 </r>
       <r>  -15.3921    1.0000 </r>
       <r>  -15.3904    1.0000 </r>
       <r>  -15.3884    1.0000 </r>
       <r>  -15.3867    1.0000 </r>
       <r>  -15.3739    1.0000 </r>
       <r>  -15.3704    1.0000 </r>
       <r>  -15.3631    1.0000 </r>
       <r>  -15.3610    1.0000 </r>
       <r>  -15.3410    1.0000 </r>
       <r>  -15.3398    1.0000 </r>
       <r>  -15.3356    1.0000 </r>
       <r>  -15.3349    1.0000 </r>
       <r>  -15.3165    1.0000 </r>
       <r>  -15.3141    1.0000 </r>
       <r>   -7.7557    1.0000 </r>
       <r>   -7.5871    1.0000 </r>
       <r>   -6.8022    1.0000 </r>
       <r>   -6.5960    1.0000 </r>
       <r>   -1.7715    1.0000 </r>
       <r>   -1.3414    1.0000 </r>
       <r>   -0.4176    1.0000 </r>
       <r>   -0.2913    1.0000 </r>
       <r>    1.4377    1.0000 </r>
       <r>    1.8261    1.0000 </r>
       <r>    2.1493    1.0000 </r>
       <r>    2.6512    1.0000 </r>
       <r>    2.9929    1.0000 </r>
       <r>    3.3749    1.0000 </r>
       <r>    3.9358    1.0000 </r>
       <r>    4.0284    1.0000 </r>
       <r>    4.7202    1.0000 </r>
       <r>    4.8847    1.0000 </r>
       <r>    5.2708    1.0000 </r>
       <r>    5.3706    1.0000 </r>
       <r>    7.1183    0.0000 </r>
       <r>    7.3733    0.0000 </r>
       <r>    8.0470    0.0000 </r>
       <r>    8.2567    0.0000 </r>
       <r>    8.7424    0.0000 </r>
       <r>    9.0464    0.0000 </r>
       <r>    9.4549    0.0000 </r>
       <r>    9.6273    0.0000 </r>
       <r>   10.0796    0.0000 </r>
       <r>   10.4274    0.0000 </r>
       <r>   10.6900    0.0000 </r>
       <r>   10.9778    0.0000 </r>
       <r>   11.8421    0.0000 </r>
       <r>   12.2696    0.0000 </r>
       <r>   12.6934    0.0000 </r>
       <r>   12.7165    0.0000 </r>
       <r>   13.1146    0.0000 </r>
       <r>   13.7701    0.0000 </r>
       <r>   14.3557    0.0000 </r>
       <r>   14.6465    0.0000 </r>
       <r>   15.1788    0.0000 </r>
       <r>   15.5819    0.0000 </r>
       <r>   15.7868    0.0000 </r>
       <r>   16.0022    0.0000 </r>
      </set>
      <set comment="kpoint 38">
       <r>  -15.4081    1.0000 </r>
       <r>  -15.4040    1.0000 </r>
       <r>  -15.4012    1.0000 </r>
       <r>  -15.3983    1.0000 </r>
       <r>  -15.3930    1.0000 </r>
       <r>  -15.3926    1.0000 </r>
       <r>  -15.3911    1.0000 </r>
       <r>  -15.3891    1.0000 </r>
       <r>  -15.3874    1.0000 </r>
       <r>  -15.3865    1.0000 </r>
       <r>  -15.3722    1.0000 </r>
       <r>  -15.3685    1.0000 </r>
       <r>  -15.3615    1.0000 </r>
       <r>  -15.3591    1.0000 </r>
       <r>  -15.3407    1.0000 </r>
       <r>  -15.3389    1.0000 </r>
       <r>  -15.3361    1.0000 </r>
       <r>  -15.3359    1.0000 </r>
       <r>  -15.3160    1.0000 </r>
       <r>  -15.3142    1.0000 </r>
       <r>   -7.5656    1.0000 </r>
       <r>   -7.4097    1.0000 </r>
       <r>   -6.7753    1.0000 </r>
       <r>   -6.5998    1.0000 </r>
       <r>   -1.9472    1.0000 </r>
       <r>   -1.4895    1.0000 </r>
       <r>   -0.6430    1.0000 </r>
       <r>   -0.4673    1.0000 </r>
       <r>    1.3860    1.0000 </r>
       <r>    1.5100    1.0000 </r>
       <r>    1.9188    1.0000 </r>
       <r>    2.5238    1.0000 </r>
       <r>    2.5681    1.0000 </r>
       <r>    3.2094    1.0000 </r>
       <r>    4.1365    1.0000 </r>
       <r>    4.3955    1.0000 </r>
       <r>    4.4713    1.0000 </r>
       <r>    4.6263    1.0000 </r>
       <r>    5.2662    1.0000 </r>
       <r>    5.4113    1.0000 </r>
       <r>    7.2636    0.0000 </r>
       <r>    7.6462    0.0000 </r>
       <r>    7.7515    0.0000 </r>
       <r>    8.1840    0.0000 </r>
       <r>    8.4540    0.0000 </r>
       <r>    8.8845    0.0000 </r>
       <r>    9.3345    0.0000 </r>
       <r>    9.9092    0.0000 </r>
       <r>   10.4406    0.0000 </r>
       <r>   10.7900    0.0000 </r>
       <r>   11.0386    0.0000 </r>
       <r>   11.1677    0.0000 </r>
       <r>   12.2134    0.0000 </r>
       <r>   13.0013    0.0000 </r>
       <r>   13.3234    0.0000 </r>
       <r>   13.3990    0.0000 </r>
       <r>   13.6507    0.0000 </r>
       <r>   13.9271    0.0000 </r>
       <r>   14.2072    0.0000 </r>
       <r>   14.6642    0.0000 </r>
       <r>   14.8665    0.0000 </r>
       <r>   15.2757    0.0000 </r>
       <r>   15.9895    0.0000 </r>
       <r>   16.1207    0.0000 </r>
      </set>
      <set comment="kpoint 39">
       <r>  -15.4097    1.0000 </r>
       <r>  -15.4071    1.0000 </r>
       <r>  -15.4037    1.0000 </r>
       <r>  -15.4018    1.0000 </r>
       <r>  -15.3926    1.0000 </r>
       <r>  -15.3916    1.0000 </r>
       <r>  -15.3912    1.0000 </r>
       <r>  -15.3887    1.0000 </r>
       <r>  -15.3859    1.0000 </r>
       <r>  -15.3853    1.0000 </r>
       <r>  -15.3702    1.0000 </r>
       <r>  -15.3679    1.0000 </r>
       <r>  -15.3587    1.0000 </r>
       <r>  -15.3572    1.0000 </r>
       <r>  -15.3396    1.0000 </r>
       <r>  -15.3379    1.0000 </r>
       <r>  -15.3371    1.0000 </r>
       <r>  -15.3365    1.0000 </r>
       <r>  -15.3153    1.0000 </r>
       <r>  -15.3143    1.0000 </r>
       <r>   -7.3052    1.0000 </r>
       <r>   -7.1761    1.0000 </r>
       <r>   -6.7970    1.0000 </r>
       <r>   -6.6642    1.0000 </r>
       <r>   -2.1212    1.0000 </r>
       <r>   -1.8222    1.0000 </r>
       <r>   -0.8338    1.0000 </r>
       <r>   -0.6817    1.0000 </r>
       <r>    1.4205    1.0000 </r>
       <r>    1.5652    1.0000 </r>
       <r>    2.1607    1.0000 </r>
       <r>    2.3054    1.0000 </r>
       <r>    2.5587    1.0000 </r>
       <r>    3.2847    1.0000 </r>
       <r>    3.6988    1.0000 </r>
       <r>    3.8816    1.0000 </r>
       <r>    4.1344    1.0000 </r>
       <r>    4.2171    1.0000 </r>
       <r>    4.9685    1.0000 </r>
       <r>    5.2045    1.0000 </r>
       <r>    7.4350    0.0000 </r>
       <r>    8.0092    0.0000 </r>
       <r>    8.1917    0.0000 </r>
       <r>    8.3693    0.0000 </r>
       <r>    8.9733    0.0000 </r>
       <r>    9.2082    0.0000 </r>
       <r>    9.4290    0.0000 </r>
       <r>    9.9373    0.0000 </r>
       <r>   10.4625    0.0000 </r>
       <r>   10.7842    0.0000 </r>
       <r>   11.1387    0.0000 </r>
       <r>   11.2805    0.0000 </r>
       <r>   12.1919    0.0000 </r>
       <r>   12.6518    0.0000 </r>
       <r>   13.2243    0.0000 </r>
       <r>   13.8128    0.0000 </r>
       <r>   14.0072    0.0000 </r>
       <r>   14.3784    0.0000 </r>
       <r>   14.9365    0.0000 </r>
       <r>   15.1280    0.0000 </r>
       <r>   15.4592    0.0000 </r>
       <r>   15.6147    0.0000 </r>
       <r>   16.5872    0.0000 </r>
       <r>   17.0112    0.0000 </r>
      </set>
      <set comment="kpoint 40">
       <r>  -15.4096    1.0000 </r>
       <r>  -15.4096    1.0000 </r>
       <r>  -15.4038    1.0000 </r>
       <r>  -15.4038    1.0000 </r>
       <r>  -15.3921    1.0000 </r>
       <r>  -15.3921    1.0000 </r>
       <r>  -15.3898    1.0000 </r>
       <r>  -15.3898    1.0000 </r>
       <r>  -15.3850    1.0000 </r>
       <r>  -15.3850    1.0000 </r>
       <r>  -15.3685    1.0000 </r>
       <r>  -15.3685    1.0000 </r>
       <r>  -15.3569    1.0000 </r>
       <r>  -15.3569    1.0000 </r>
       <r>  -15.3382    1.0000 </r>
       <r>  -15.3382    1.0000 </r>
       <r>  -15.3370    1.0000 </r>
       <r>  -15.3370    1.0000 </r>
       <r>  -15.3146    1.0000 </r>
       <r>  -15.3146    1.0000 </r>
       <r>   -7.0890    1.0000 </r>
       <r>   -7.0890    1.0000 </r>
       <r>   -6.7955    1.0000 </r>
       <r>   -6.7955    1.0000 </r>
       <r>   -2.0922    1.0000 </r>
       <r>   -2.0922    1.0000 </r>
       <r>   -0.8532    1.0000 </r>
       <r>   -0.8532    1.0000 </r>
       <r>    1.7811    1.0000 </r>
       <r>    1.7811    1.0000 </r>
       <r>    2.0088    1.0000 </r>
       <r>    2.0088    1.0000 </r>
       <r>    2.9474    1.0000 </r>
       <r>    2.9474    1.0000 </r>
       <r>    3.6537    1.0000 </r>
       <r>    3.6537    1.0000 </r>
       <r>    4.0243    1.0000 </r>
       <r>    4.0243    1.0000 </r>
       <r>    4.8204    1.0000 </r>
       <r>    4.8204    1.0000 </r>
       <r>    7.7635    0.0000 </r>
       <r>    7.7635    0.0000 </r>
       <r>    8.7744    0.0000 </r>
       <r>    8.7744    0.0000 </r>
       <r>    9.0323    0.0000 </r>
       <r>    9.0323    0.0000 </r>
       <r>    9.9035    0.0000 </r>
       <r>    9.9035    0.0000 </r>
       <r>   10.6352    0.0000 </r>
       <r>   10.6352    0.0000 </r>
       <r>   10.9625    0.0000 </r>
       <r>   10.9625    0.0000 </r>
       <r>   12.2847    0.0000 </r>
       <r>   12.2847    0.0000 </r>
       <r>   13.4926    0.0000 </r>
       <r>   13.4926    0.0000 </r>
       <r>   14.6955    0.0000 </r>
       <r>   14.6955    0.0000 </r>
       <r>   15.8868    0.0000 </r>
       <r>   15.8868    0.0000 </r>
       <r>   16.0295    0.0000 </r>
       <r>   16.0295    0.0000 </r>
       <r>   16.6231    0.0000 </r>
       <r>   16.6231    0.0000 </r>
      </set>
      <set comment="kpoint 41">
       <r>  -15.4040    1.0000 </r>
       <r>  -15.4023    1.0000 </r>
       <r>  -15.3990    1.0000 </r>
       <r>  -15.3970    1.0000 </r>
       <r>  -15.3915    1.0000 </r>
       <r>  -15.3914    1.0000 </r>
       <r>  -15.3911    1.0000 </r>
       <r>  -15.3906    1.0000 </r>
       <r>  -15.3883    1.0000 </r>
       <r>  -15.3841    1.0000 </r>
       <r>  -15.3724    1.0000 </r>
       <r>  -15.3694    1.0000 </r>
       <r>  -15.3608    1.0000 </r>
       <r>  -15.3580    1.0000 </r>
       <r>  -15.3438    1.0000 </r>
       <r>  -15.3431    1.0000 </r>
       <r>  -15.3341    1.0000 </r>
       <r>  -15.3308    1.0000 </r>
       <r>  -15.3187    1.0000 </r>
       <r>  -15.3179    1.0000 </r>
       <r>   -7.5191    1.0000 </r>
       <r>   -7.3802    1.0000 </r>
       <r>   -6.7871    1.0000 </r>
       <r>   -6.6623    1.0000 </r>
       <r>   -2.0031    1.0000 </r>
       <r>   -1.6425    1.0000 </r>
       <r>   -1.1562    1.0000 </r>
       <r>   -0.8583    1.0000 </r>
       <r>    1.7259    1.0000 </r>
       <r>    2.6750    1.0000 </r>
       <r>    2.8558    1.0000 </r>
       <r>    3.0933    1.0000 </r>
       <r>    3.3010    1.0000 </r>
       <r>    3.7243    1.0000 </r>
       <r>    3.9693    1.0000 </r>
       <r>    4.0250    1.0000 </r>
       <r>    4.3081    1.0000 </r>
       <r>    4.5030    1.0000 </r>
       <r>    5.3095    1.0000 </r>
       <r>    5.6097    1.0000 </r>
       <r>    6.5918    0.0000 </r>
       <r>    7.1186    0.0000 </r>
       <r>    7.8390    0.0000 </r>
       <r>    7.8698    0.0000 </r>
       <r>    8.3309    0.0000 </r>
       <r>    8.5416    0.0000 </r>
       <r>    8.5643    0.0000 </r>
       <r>    9.0966    0.0000 </r>
       <r>    9.3353    0.0000 </r>
       <r>    9.9278    0.0000 </r>
       <r>   10.0534    0.0000 </r>
       <r>   10.4660    0.0000 </r>
       <r>   12.4129    0.0000 </r>
       <r>   12.7586    0.0000 </r>
       <r>   12.7592    0.0000 </r>
       <r>   13.4061    0.0000 </r>
       <r>   13.7987    0.0000 </r>
       <r>   14.1181    0.0000 </r>
       <r>   14.4846    0.0000 </r>
       <r>   15.0996    0.0000 </r>
       <r>   15.1896    0.0000 </r>
       <r>   15.4179    0.0000 </r>
       <r>   16.3691    0.0000 </r>
       <r>   16.4847    0.0000 </r>
      </set>
      <set comment="kpoint 42">
       <r>  -15.4064    1.0000 </r>
       <r>  -15.4037    1.0000 </r>
       <r>  -15.4013    1.0000 </r>
       <r>  -15.3986    1.0000 </r>
       <r>  -15.3927    1.0000 </r>
       <r>  -15.3914    1.0000 </r>
       <r>  -15.3893    1.0000 </r>
       <r>  -15.3888    1.0000 </r>
       <r>  -15.3874    1.0000 </r>
       <r>  -15.3835    1.0000 </r>
       <r>  -15.3721    1.0000 </r>
       <r>  -15.3692    1.0000 </r>
       <r>  -15.3599    1.0000 </r>
       <r>  -15.3571    1.0000 </r>
       <r>  -15.3434    1.0000 </r>
       <r>  -15.3427    1.0000 </r>
       <r>  -15.3341    1.0000 </r>
       <r>  -15.3311    1.0000 </r>
       <r>  -15.3186    1.0000 </r>
       <r>  -15.3178    1.0000 </r>
       <r>   -7.4575    1.0000 </r>
       <r>   -7.3229    1.0000 </r>
       <r>   -6.7648    1.0000 </r>
       <r>   -6.6455    1.0000 </r>
       <r>   -1.9510    1.0000 </r>
       <r>   -1.5717    1.0000 </r>
       <r>   -1.1078    1.0000 </r>
       <r>   -0.8619    1.0000 </r>
       <r>    1.7164    1.0000 </r>
       <r>    1.9151    1.0000 </r>
       <r>    2.3730    1.0000 </r>
       <r>    2.8221    1.0000 </r>
       <r>    3.1465    1.0000 </r>
       <r>    3.4101    1.0000 </r>
       <r>    3.8766    1.0000 </r>
       <r>    4.2379    1.0000 </r>
       <r>    4.6086    1.0000 </r>
       <r>    4.6592    1.0000 </r>
       <r>    5.0652    1.0000 </r>
       <r>    5.1859    1.0000 </r>
       <r>    7.1294    0.0000 </r>
       <r>    7.2026    0.0000 </r>
       <r>    7.5557    0.0000 </r>
       <r>    7.7691    0.0000 </r>
       <r>    8.5164    0.0000 </r>
       <r>    8.8070    0.0000 </r>
       <r>    8.9411    0.0000 </r>
       <r>    9.3629    0.0000 </r>
       <r>    9.7525    0.0000 </r>
       <r>   10.1975    0.0000 </r>
       <r>   10.5259    0.0000 </r>
       <r>   10.7438    0.0000 </r>
       <r>   12.2608    0.0000 </r>
       <r>   12.8892    0.0000 </r>
       <r>   13.1955    0.0000 </r>
       <r>   13.5437    0.0000 </r>
       <r>   13.8595    0.0000 </r>
       <r>   13.8938    0.0000 </r>
       <r>   14.2888    0.0000 </r>
       <r>   14.9411    0.0000 </r>
       <r>   15.3073    0.0000 </r>
       <r>   15.4523    0.0000 </r>
       <r>   16.5093    0.0000 </r>
       <r>   16.6918    0.0000 </r>
      </set>
      <set comment="kpoint 43">
       <r>  -15.4113    1.0000 </r>
       <r>  -15.4082    1.0000 </r>
       <r>  -15.4054    1.0000 </r>
       <r>  -15.4028    1.0000 </r>
       <r>  -15.3932    1.0000 </r>
       <r>  -15.3919    1.0000 </r>
       <r>  -15.3866    1.0000 </r>
       <r>  -15.3863    1.0000 </r>
       <r>  -15.3852    1.0000 </r>
       <r>  -15.3824    1.0000 </r>
       <r>  -15.3714    1.0000 </r>
       <r>  -15.3688    1.0000 </r>
       <r>  -15.3570    1.0000 </r>
       <r>  -15.3549    1.0000 </r>
       <r>  -15.3424    1.0000 </r>
       <r>  -15.3417    1.0000 </r>
       <r>  -15.3342    1.0000 </r>
       <r>  -15.3318    1.0000 </r>
       <r>  -15.3182    1.0000 </r>
       <r>  -15.3176    1.0000 </r>
       <r>   -7.2900    1.0000 </r>
       <r>   -7.1681    1.0000 </r>
       <r>   -6.7208    1.0000 </r>
       <r>   -6.6161    1.0000 </r>
       <r>   -1.8412    1.0000 </r>
       <r>   -1.4440    1.0000 </r>
       <r>   -0.9803    1.0000 </r>
       <r>   -0.8629    1.0000 </r>
       <r>    1.1627    1.0000 </r>
       <r>    1.3758    1.0000 </r>
       <r>    2.1099    1.0000 </r>
       <r>    2.2373    1.0000 </r>
       <r>    2.4191    1.0000 </r>
       <r>    3.1136    1.0000 </r>
       <r>    3.6073    1.0000 </r>
       <r>    3.8512    1.0000 </r>
       <r>    3.9776    1.0000 </r>
       <r>    4.3002    1.0000 </r>
       <r>    4.7938    1.0000 </r>
       <r>    5.2140    1.0000 </r>
       <r>    7.3038    0.0000 </r>
       <r>    7.8899    0.0000 </r>
       <r>    8.2215    0.0000 </r>
       <r>    8.4153    0.0000 </r>
       <r>    8.7567    0.0000 </r>
       <r>    8.9409    0.0000 </r>
       <r>    9.7372    0.0000 </r>
       <r>   10.0031    0.0000 </r>
       <r>   10.2119    0.0000 </r>
       <r>   10.4844    0.0000 </r>
       <r>   11.4292    0.0000 </r>
       <r>   11.6603    0.0000 </r>
       <r>   12.1596    0.0000 </r>
       <r>   12.6589    0.0000 </r>
       <r>   13.3267    0.0000 </r>
       <r>   13.9458    0.0000 </r>
       <r>   14.1942    0.0000 </r>
       <r>   14.3008    0.0000 </r>
       <r>   14.6452    0.0000 </r>
       <r>   14.8868    0.0000 </r>
       <r>   15.4094    0.0000 </r>
       <r>   16.0108    0.0000 </r>
       <r>   16.1532    0.0000 </r>
       <r>   16.5302    0.0000 </r>
      </set>
      <set comment="kpoint 44">
       <r>  -15.4154    1.0000 </r>
       <r>  -15.4135    1.0000 </r>
       <r>  -15.4088    1.0000 </r>
       <r>  -15.4073    1.0000 </r>
       <r>  -15.3933    1.0000 </r>
       <r>  -15.3924    1.0000 </r>
       <r>  -15.3847    1.0000 </r>
       <r>  -15.3843    1.0000 </r>
       <r>  -15.3830    1.0000 </r>
       <r>  -15.3818    1.0000 </r>
       <r>  -15.3705    1.0000 </r>
       <r>  -15.3688    1.0000 </r>
       <r>  -15.3536    1.0000 </r>
       <r>  -15.3526    1.0000 </r>
       <r>  -15.3410    1.0000 </r>
       <r>  -15.3406    1.0000 </r>
       <r>  -15.3338    1.0000 </r>
       <r>  -15.3324    1.0000 </r>
       <r>  -15.3177    1.0000 </r>
       <r>  -15.3174    1.0000 </r>
       <r>   -7.0704    1.0000 </r>
       <r>   -6.9733    1.0000 </r>
       <r>   -6.7087    1.0000 </r>
       <r>   -6.6248    1.0000 </r>
       <r>   -1.7662    1.0000 </r>
       <r>   -1.5148    1.0000 </r>
       <r>   -0.7862    1.0000 </r>
       <r>   -0.7623    1.0000 </r>
       <r>    0.8657    1.0000 </r>
       <r>    1.0995    1.0000 </r>
       <r>    1.6571    1.0000 </r>
       <r>    1.8871    1.0000 </r>
       <r>    2.2027    1.0000 </r>
       <r>    2.6285    1.0000 </r>
       <r>    2.8349    1.0000 </r>
       <r>    3.4560    1.0000 </r>
       <r>    3.7111    1.0000 </r>
       <r>    4.0666    1.0000 </r>
       <r>    4.4475    1.0000 </r>
       <r>    4.7815    1.0000 </r>
       <r>    7.5965    0.0000 </r>
       <r>    8.2298    0.0000 </r>
       <r>    8.8535    0.0000 </r>
       <r>    9.0696    0.0000 </r>
       <r>    9.1638    0.0000 </r>
       <r>    9.5606    0.0000 </r>
       <r>   10.5540    0.0000 </r>
       <r>   10.6366    0.0000 </r>
       <r>   10.7493    0.0000 </r>
       <r>   10.9113    0.0000 </r>
       <r>   11.9109    0.0000 </r>
       <r>   11.9870    0.0000 </r>
       <r>   12.1226    0.0000 </r>
       <r>   12.3597    0.0000 </r>
       <r>   13.1449    0.0000 </r>
       <r>   13.4816    0.0000 </r>
       <r>   14.9907    0.0000 </r>
       <r>   15.3649    0.0000 </r>
       <r>   15.5210    0.0000 </r>
       <r>   15.5384    0.0000 </r>
       <r>   16.0208    0.0000 </r>
       <r>   16.1804    0.0000 </r>
       <r>   16.4135    0.0000 </r>
       <r>   16.7610    0.0000 </r>
      </set>
      <set comment="kpoint 45">
       <r>  -15.4163    1.0000 </r>
       <r>  -15.4163    1.0000 </r>
       <r>  -15.4097    1.0000 </r>
       <r>  -15.4097    1.0000 </r>
       <r>  -15.3930    1.0000 </r>
       <r>  -15.3930    1.0000 </r>
       <r>  -15.3839    1.0000 </r>
       <r>  -15.3839    1.0000 </r>
       <r>  -15.3820    1.0000 </r>
       <r>  -15.3820    1.0000 </r>
       <r>  -15.3694    1.0000 </r>
       <r>  -15.3694    1.0000 </r>
       <r>  -15.3519    1.0000 </r>
       <r>  -15.3519    1.0000 </r>
       <r>  -15.3403    1.0000 </r>
       <r>  -15.3403    1.0000 </r>
       <r>  -15.3330    1.0000 </r>
       <r>  -15.3330    1.0000 </r>
       <r>  -15.3174    1.0000 </r>
       <r>  -15.3174    1.0000 </r>
       <r>   -6.9012    1.0000 </r>
       <r>   -6.9012    1.0000 </r>
       <r>   -6.6974    1.0000 </r>
       <r>   -6.6974    1.0000 </r>
       <r>   -1.6829    1.0000 </r>
       <r>   -1.6829    1.0000 </r>
       <r>   -0.6820    1.0000 </r>
       <r>   -0.6820    1.0000 </r>
       <r>    1.0777    1.0000 </r>
       <r>    1.0777    1.0000 </r>
       <r>    1.3583    1.0000 </r>
       <r>    1.3583    1.0000 </r>
       <r>    2.3198    1.0000 </r>
       <r>    2.3198    1.0000 </r>
       <r>    2.9384    1.0000 </r>
       <r>    2.9384    1.0000 </r>
       <r>    3.7733    1.0000 </r>
       <r>    3.7733    1.0000 </r>
       <r>    4.5103    1.0000 </r>
       <r>    4.5103    1.0000 </r>
       <r>    7.8454    0.0000 </r>
       <r>    7.8454    0.0000 </r>
       <r>    9.1498    0.0000 </r>
       <r>    9.1498    0.0000 </r>
       <r>   10.1197    0.0000 </r>
       <r>   10.1197    0.0000 </r>
       <r>   10.3330    0.0000 </r>
       <r>   10.3330    0.0000 </r>
       <r>   11.4536    0.0000 </r>
       <r>   11.4536    0.0000 </r>
       <r>   11.8483    0.0000 </r>
       <r>   11.8483    0.0000 </r>
       <r>   12.2715    0.0000 </r>
       <r>   12.2715    0.0000 </r>
       <r>   13.2029    0.0000 </r>
       <r>   13.2029    0.0000 </r>
       <r>   15.1224    0.0000 </r>
       <r>   15.1224    0.0000 </r>
       <r>   16.3778    0.0000 </r>
       <r>   16.3778    0.0000 </r>
       <r>   16.6387    0.0000 </r>
       <r>   16.6387    0.0000 </r>
       <r>   17.1932    0.0000 </r>
       <r>   17.1932    0.0000 </r>
      </set>
      <set comment="kpoint 46">
       <r>  -15.4053    1.0000 </r>
       <r>  -15.4035    1.0000 </r>
       <r>  -15.4026    1.0000 </r>
       <r>  -15.4006    1.0000 </r>
       <r>  -15.3915    1.0000 </r>
       <r>  -15.3910    1.0000 </r>
       <r>  -15.3909    1.0000 </r>
       <r>  -15.3895    1.0000 </r>
       <r>  -15.3797    1.0000 </r>
       <r>  -15.3765    1.0000 </r>
       <r>  -15.3726    1.0000 </r>
       <r>  -15.3724    1.0000 </r>
       <r>  -15.3558    1.0000 </r>
       <r>  -15.3536    1.0000 </r>
       <r>  -15.3498    1.0000 </r>
       <r>  -15.3488    1.0000 </r>
       <r>  -15.3282    1.0000 </r>
       <r>  -15.3259    1.0000 </r>
       <r>  -15.3225    1.0000 </r>
       <r>  -15.3216    1.0000 </r>
       <r>   -7.1671    1.0000 </r>
       <r>   -7.0884    1.0000 </r>
       <r>   -6.8684    1.0000 </r>
       <r>   -6.8541    1.0000 </r>
       <r>   -2.0603    1.0000 </r>
       <r>   -1.7661    1.0000 </r>
       <r>   -1.6963    1.0000 </r>
       <r>   -1.4101    1.0000 </r>
       <r>    2.2431    1.0000 </r>
       <r>    2.8037    1.0000 </r>
       <r>    3.1773    1.0000 </r>
       <r>    3.4244    1.0000 </r>
       <r>    3.4299    1.0000 </r>
       <r>    3.8396    1.0000 </r>
       <r>    3.8518    1.0000 </r>
       <r>    3.8953    1.0000 </r>
       <r>    4.5571    1.0000 </r>
       <r>    4.7372    1.0000 </r>
       <r>    5.1159    1.0000 </r>
       <r>    5.2404    1.0000 </r>
       <r>    6.8260    0.0000 </r>
       <r>    7.0307    0.0000 </r>
       <r>    7.3330    0.0000 </r>
       <r>    7.5331    0.0000 </r>
       <r>    7.8273    0.0000 </r>
       <r>    8.0143    0.0000 </r>
       <r>    8.0248    0.0000 </r>
       <r>    8.3499    0.0000 </r>
       <r>    8.9601    0.0000 </r>
       <r>    9.3692    0.0000 </r>
       <r>   10.1930    0.0000 </r>
       <r>   10.3582    0.0000 </r>
       <r>   13.2148    0.0000 </r>
       <r>   13.5530    0.0000 </r>
       <r>   13.9512    0.0000 </r>
       <r>   14.0046    0.0000 </r>
       <r>   14.4511    0.0000 </r>
       <r>   14.5364    0.0000 </r>
       <r>   14.7321    0.0000 </r>
       <r>   15.1553    0.0000 </r>
       <r>   15.7886    0.0000 </r>
       <r>   15.8028    0.0000 </r>
       <r>   16.0475    0.0000 </r>
       <r>   16.3228    0.0000 </r>
      </set>
      <set comment="kpoint 47">
       <r>  -15.4078    1.0000 </r>
       <r>  -15.4061    1.0000 </r>
       <r>  -15.4043    1.0000 </r>
       <r>  -15.4026    1.0000 </r>
       <r>  -15.3915    1.0000 </r>
       <r>  -15.3913    1.0000 </r>
       <r>  -15.3894    1.0000 </r>
       <r>  -15.3888    1.0000 </r>
       <r>  -15.3789    1.0000 </r>
       <r>  -15.3762    1.0000 </r>
       <r>  -15.3725    1.0000 </r>
       <r>  -15.3721    1.0000 </r>
       <r>  -15.3549    1.0000 </r>
       <r>  -15.3530    1.0000 </r>
       <r>  -15.3489    1.0000 </r>
       <r>  -15.3481    1.0000 </r>
       <r>  -15.3282    1.0000 </r>
       <r>  -15.3261    1.0000 </r>
       <r>  -15.3223    1.0000 </r>
       <r>  -15.3215    1.0000 </r>
       <r>   -7.1176    1.0000 </r>
       <r>   -7.0424    1.0000 </r>
       <r>   -6.8360    1.0000 </r>
       <r>   -6.8212    1.0000 </r>
       <r>   -1.9654    1.0000 </r>
       <r>   -1.6821    1.0000 </r>
       <r>   -1.6022    1.0000 </r>
       <r>   -1.3483    1.0000 </r>
       <r>    2.1588    1.0000 </r>
       <r>    2.3031    1.0000 </r>
       <r>    2.6183    1.0000 </r>
       <r>    2.8754    1.0000 </r>
       <r>    3.0431    1.0000 </r>
       <r>    3.4585    1.0000 </r>
       <r>    3.6414    1.0000 </r>
       <r>    4.0261    1.0000 </r>
       <r>    4.4404    1.0000 </r>
       <r>    4.7308    1.0000 </r>
       <r>    4.7639    1.0000 </r>
       <r>    5.0296    1.0000 </r>
       <r>    7.1100    0.0000 </r>
       <r>    7.1683    0.0000 </r>
       <r>    7.3393    0.0000 </r>
       <r>    7.5996    0.0000 </r>
       <r>    8.4281    0.0000 </r>
       <r>    8.6938    0.0000 </r>
       <r>    8.8596    0.0000 </r>
       <r>    9.2353    0.0000 </r>
       <r>    9.3167    0.0000 </r>
       <r>    9.9197    0.0000 </r>
       <r>   10.1938    0.0000 </r>
       <r>   10.2804    0.0000 </r>
       <r>   12.4533    0.0000 </r>
       <r>   12.8363    0.0000 </r>
       <r>   13.8560    0.0000 </r>
       <r>   14.2612    0.0000 </r>
       <r>   14.6538    0.0000 </r>
       <r>   14.8519    0.0000 </r>
       <r>   14.9664    0.0000 </r>
       <r>   15.5089    0.0000 </r>
       <r>   15.9021    0.0000 </r>
       <r>   16.0175    0.0000 </r>
       <r>   16.4975    0.0000 </r>
       <r>   16.8120    0.0000 </r>
      </set>
      <set comment="kpoint 48">
       <r>  -15.4134    1.0000 </r>
       <r>  -15.4120    1.0000 </r>
       <r>  -15.4088    1.0000 </r>
       <r>  -15.4075    1.0000 </r>
       <r>  -15.3916    1.0000 </r>
       <r>  -15.3909    1.0000 </r>
       <r>  -15.3878    1.0000 </r>
       <r>  -15.3874    1.0000 </r>
       <r>  -15.3771    1.0000 </r>
       <r>  -15.3754    1.0000 </r>
       <r>  -15.3719    1.0000 </r>
       <r>  -15.3713    1.0000 </r>
       <r>  -15.3523    1.0000 </r>
       <r>  -15.3511    1.0000 </r>
       <r>  -15.3466    1.0000 </r>
       <r>  -15.3460    1.0000 </r>
       <r>  -15.3283    1.0000 </r>
       <r>  -15.3267    1.0000 </r>
       <r>  -15.3218    1.0000 </r>
       <r>  -15.3213    1.0000 </r>
       <r>   -6.9881    1.0000 </r>
       <r>   -6.9233    1.0000 </r>
       <r>   -6.7591    1.0000 </r>
       <r>   -6.7424    1.0000 </r>
       <r>   -1.7049    1.0000 </r>
       <r>   -1.4563    1.0000 </r>
       <r>   -1.3419    1.0000 </r>
       <r>   -1.1869    1.0000 </r>
       <r>    1.3684    1.0000 </r>
       <r>    1.6265    1.0000 </r>
       <r>    1.9231    1.0000 </r>
       <r>    2.1127    1.0000 </r>
       <r>    2.4640    1.0000 </r>
       <r>    2.9378    1.0000 </r>
       <r>    3.1314    1.0000 </r>
       <r>    3.5731    1.0000 </r>
       <r>    3.7580    1.0000 </r>
       <r>    4.1332    1.0000 </r>
       <r>    4.3917    1.0000 </r>
       <r>    4.7858    1.0000 </r>
       <r>    7.5316    0.0000 </r>
       <r>    7.9018    0.0000 </r>
       <r>    8.4626    0.0000 </r>
       <r>    8.7401    0.0000 </r>
       <r>    9.0853    0.0000 </r>
       <r>    9.1867    0.0000 </r>
       <r>    9.6543    0.0000 </r>
       <r>    9.7787    0.0000 </r>
       <r>   10.3946    0.0000 </r>
       <r>   10.6412    0.0000 </r>
       <r>   11.0297    0.0000 </r>
       <r>   11.3901    0.0000 </r>
       <r>   12.0811    0.0000 </r>
       <r>   12.2505    0.0000 </r>
       <r>   13.5089    0.0000 </r>
       <r>   13.6122    0.0000 </r>
       <r>   14.9401    0.0000 </r>
       <r>   15.2775    0.0000 </r>
       <r>   15.4273    0.0000 </r>
       <r>   15.9991    0.0000 </r>
       <r>   16.3589    0.0000 </r>
       <r>   16.5267    0.0000 </r>
       <r>   16.9328    0.0000 </r>
       <r>   17.2128    0.0000 </r>
      </set>
      <set comment="kpoint 49">
       <r>  -15.4186    1.0000 </r>
       <r>  -15.4177    1.0000 </r>
       <r>  -15.4132    1.0000 </r>
       <r>  -15.4125    1.0000 </r>
       <r>  -15.3916    1.0000 </r>
       <r>  -15.3910    1.0000 </r>
       <r>  -15.3867    1.0000 </r>
       <r>  -15.3863    1.0000 </r>
       <r>  -15.3756    1.0000 </r>
       <r>  -15.3747    1.0000 </r>
       <r>  -15.3711    1.0000 </r>
       <r>  -15.3707    1.0000 </r>
       <r>  -15.3494    1.0000 </r>
       <r>  -15.3488    1.0000 </r>
       <r>  -15.3442    1.0000 </r>
       <r>  -15.3439    1.0000 </r>
       <r>  -15.3279    1.0000 </r>
       <r>  -15.3271    1.0000 </r>
       <r>  -15.3214    1.0000 </r>
       <r>  -15.3211    1.0000 </r>
       <r>   -6.8340    1.0000 </r>
       <r>   -6.7873    1.0000 </r>
       <r>   -6.6911    1.0000 </r>
       <r>   -6.6716    1.0000 </r>
       <r>   -1.3876    1.0000 </r>
       <r>   -1.2281    1.0000 </r>
       <r>   -1.0131    1.0000 </r>
       <r>   -0.9434    1.0000 </r>
       <r>    0.7905    1.0000 </r>
       <r>    1.1415    1.0000 </r>
       <r>    1.1993    1.0000 </r>
       <r>    1.6257    1.0000 </r>
       <r>    1.8315    1.0000 </r>
       <r>    2.2081    1.0000 </r>
       <r>    2.3655    1.0000 </r>
       <r>    2.8488    1.0000 </r>
       <r>    3.6697    1.0000 </r>
       <r>    3.9817    1.0000 </r>
       <r>    4.3648    1.0000 </r>
       <r>    4.5330    1.0000 </r>
       <r>    7.8405    0.0000 </r>
       <r>    8.1671    0.0000 </r>
       <r>    8.5849    0.0000 </r>
       <r>    8.8847    0.0000 </r>
       <r>    9.9908    0.0000 </r>
       <r>   10.0378    0.0000 </r>
       <r>   10.4620    0.0000 </r>
       <r>   10.5891    0.0000 </r>
       <r>   11.5535    0.0000 </r>
       <r>   11.8107    0.0000 </r>
       <r>   12.1263    0.0000 </r>
       <r>   12.1559    0.0000 </r>
       <r>   12.2367    0.0000 </r>
       <r>   12.4893    0.0000 </r>
       <r>   13.1547    0.0000 </r>
       <r>   13.2824    0.0000 </r>
       <r>   15.1686    0.0000 </r>
       <r>   15.3750    0.0000 </r>
       <r>   16.1682    0.0000 </r>
       <r>   16.3731    0.0000 </r>
       <r>   16.8181    0.0000 </r>
       <r>   16.9316    0.0000 </r>
       <r>   17.1132    0.0000 </r>
       <r>   17.1568    0.0000 </r>
      </set>
      <set comment="kpoint 50">
       <r>  -15.4204    1.0000 </r>
       <r>  -15.4204    1.0000 </r>
       <r>  -15.4148    1.0000 </r>
       <r>  -15.4148    1.0000 </r>
       <r>  -15.3914    1.0000 </r>
       <r>  -15.3914    1.0000 </r>
       <r>  -15.3862    1.0000 </r>
       <r>  -15.3862    1.0000 </r>
       <r>  -15.3747    1.0000 </r>
       <r>  -15.3747    1.0000 </r>
       <r>  -15.3706    1.0000 </r>
       <r>  -15.3706    1.0000 </r>
       <r>  -15.3480    1.0000 </r>
       <r>  -15.3480    1.0000 </r>
       <r>  -15.3431    1.0000 </r>
       <r>  -15.3431    1.0000 </r>
       <r>  -15.3275    1.0000 </r>
       <r>  -15.3275    1.0000 </r>
       <r>  -15.3211    1.0000 </r>
       <r>  -15.3211    1.0000 </r>
       <r>   -6.7367    1.0000 </r>
       <r>   -6.7367    1.0000 </r>
       <r>   -6.6623    1.0000 </r>
       <r>   -6.6623    1.0000 </r>
       <r>   -1.2063    1.0000 </r>
       <r>   -1.2063    1.0000 </r>
       <r>   -0.7932    1.0000 </r>
       <r>   -0.7932    1.0000 </r>
       <r>    0.7444    1.0000 </r>
       <r>    0.7444    1.0000 </r>
       <r>    1.1717    1.0000 </r>
       <r>    1.1717    1.0000 </r>
       <r>    1.7259    1.0000 </r>
       <r>    1.7259    1.0000 </r>
       <r>    2.2731    1.0000 </r>
       <r>    2.2731    1.0000 </r>
       <r>    3.8730    1.0000 </r>
       <r>    3.8730    1.0000 </r>
       <r>    4.4100    1.0000 </r>
       <r>    4.4100    1.0000 </r>
       <r>    8.0257    0.0000 </r>
       <r>    8.0257    0.0000 </r>
       <r>    8.5790    0.0000 </r>
       <r>    8.5790    0.0000 </r>
       <r>   10.6403    0.0000 </r>
       <r>   10.6403    0.0000 </r>
       <r>   10.8211    0.0000 </r>
       <r>   10.8211    0.0000 </r>
       <r>   12.2055    0.0000 </r>
       <r>   12.2055    0.0000 </r>
       <r>   12.4801    0.0000 </r>
       <r>   12.4801    0.0000 </r>
       <r>   12.5940    0.0000 </r>
       <r>   12.5940    0.0000 </r>
       <r>   13.1778    0.0000 </r>
       <r>   13.1778    0.0000 </r>
       <r>   15.4376    0.0000 </r>
       <r>   15.4376    0.0000 </r>
       <r>   16.3703    0.0000 </r>
       <r>   16.3703    0.0000 </r>
       <r>   16.9522    0.0000 </r>
       <r>   16.9522    0.0000 </r>
       <r>   17.1649    0.0000 </r>
       <r>   17.1649    0.0000 </r>
      </set>
     </set>
    </set>
   </array>
  </eigenvalues>
  <separator name="orbital magnetization" >
   <v name="MAGDIPOLOUT">      0.00000000      0.00000000      0.00000000</v>
  </separator>
  <dos>
   <i name="efermi">      5.96665607 </i>
   <total>
    <array>
     <dimension dim="1">gridpoints</dimension>
     <dimension dim="2">spin</dimension>
     <field>energy</field>
     <field>total</field>
     <field>integrated</field>
     <set>
      <set comment="spin 1">
       <r>   -17.0837     0.0000     0.0000 </r>
       <r>   -16.9619     0.0000     0.0000 </r>
       <r>   -16.8401     0.0000     0.0000 </r>
       <r>   -16.7183     0.0000     0.0000 </r>
       <r>   -16.5965     0.0000     0.0000 </r>
       <r>   -16.4747     0.0000     0.0000 </r>
       <r>   -16.3529     0.0000     0.0000 </r>
       <r>   -16.2311     0.0000     0.0000 </r>
       <r>   -16.1093     0.0000     0.0000 </r>
       <r>   -15.9875     0.0000     0.0000 </r>
       <r>   -15.8657     0.0000     0.0000 </r>
       <r>   -15.7439     0.0000     0.0000 </r>
       <r>   -15.6221     0.0000     0.0000 </r>
       <r>   -15.5003     0.0000     0.0000 </r>
       <r>   -15.3785   156.9902    19.1212 </r>
       <r>   -15.2567    63.6297    40.0000 </r>
       <r>   -15.1349     0.0000    40.0000 </r>
       <r>   -15.0131     0.0000    40.0000 </r>
       <r>   -14.8913     0.0000    40.0000 </r>
       <r>   -14.7695     0.0000    40.0000 </r>
       <r>   -14.6477     0.0000    40.0000 </r>
       <r>   -14.5259     0.0000    40.0000 </r>
       <r>   -14.4041     0.0000    40.0000 </r>
       <r>   -14.2823     0.0000    40.0000 </r>
       <r>   -14.1605     0.0000    40.0000 </r>
       <r>   -14.0387     0.0000    40.0000 </r>
       <r>   -13.9169     0.0000    40.0000 </r>
       <r>   -13.7951     0.0000    40.0000 </r>
       <r>   -13.6733     0.0000    40.0000 </r>
       <r>   -13.5515     0.0000    40.0000 </r>
       <r>   -13.4297     0.0000    40.0000 </r>
       <r>   -13.3079     0.0000    40.0000 </r>
       <r>   -13.1861     0.0000    40.0000 </r>
       <r>   -13.0643     0.0000    40.0000 </r>
       <r>   -12.9425     0.0000    40.0000 </r>
       <r>   -12.8207     0.0000    40.0000 </r>
       <r>   -12.6990     0.0000    40.0000 </r>
       <r>   -12.5772     0.0000    40.0000 </r>
       <r>   -12.4554     0.0000    40.0000 </r>
       <r>   -12.3336     0.0000    40.0000 </r>
       <r>   -12.2118     0.0000    40.0000 </r>
       <r>   -12.0900     0.0000    40.0000 </r>
       <r>   -11.9682     0.0000    40.0000 </r>
       <r>   -11.8464     0.0000    40.0000 </r>
       <r>   -11.7246     0.0000    40.0000 </r>
       <r>   -11.6028     0.0000    40.0000 </r>
       <r>   -11.4810     0.0000    40.0000 </r>
       <r>   -11.3592     0.0000    40.0000 </r>
       <r>   -11.2374     0.0000    40.0000 </r>
       <r>   -11.1156     0.0000    40.0000 </r>
       <r>   -10.9938     0.0000    40.0000 </r>
       <r>   -10.8720     0.0000    40.0000 </r>
       <r>   -10.7502     0.0000    40.0000 </r>
       <r>   -10.6284     0.0000    40.0000 </r>
       <r>   -10.5066     0.0000    40.0000 </r>
       <r>   -10.3848     0.0000    40.0000 </r>
       <r>   -10.2630     0.0000    40.0000 </r>
       <r>   -10.1412     0.0000    40.0000 </r>
       <r>   -10.0194     0.0000    40.0000 </r>
       <r>    -9.8976     0.0000    40.0000 </r>
       <r>    -9.7758     0.0000    40.0000 </r>
       <r>    -9.6540     0.0000    40.0000 </r>
       <r>    -9.5322     0.0000    40.0000 </r>
       <r>    -9.4104     0.0000    40.0000 </r>
       <r>    -9.2886     0.0000    40.0000 </r>
       <r>    -9.1668     0.0000    40.0000 </r>
       <r>    -9.0450     0.0000    40.0000 </r>
       <r>    -8.9232     0.0000    40.0000 </r>
       <r>    -8.8014     0.0000    40.0000 </r>
       <r>    -8.6796     0.0000    40.0000 </r>
       <r>    -8.5578     0.0000    40.0000 </r>
       <r>    -8.4360     0.0000    40.0000 </r>
       <r>    -8.3142     0.0000    40.0000 </r>
       <r>    -8.1924     0.0000    40.0000 </r>
       <r>    -8.0706     0.4561    40.0648 </r>
       <r>    -7.9488     1.3861    40.2336 </r>
       <r>    -7.8270     1.2010    40.3963 </r>
       <r>    -7.7052     1.9010    40.7593 </r>
       <r>    -7.5834     1.9506    41.0339 </r>
       <r>    -7.4616     2.2996    41.4838 </r>
       <r>    -7.3398     1.6396    41.8108 </r>
       <r>    -7.2180     2.6517    42.3785 </r>
       <r>    -7.0962     3.4027    42.8404 </r>
       <r>    -6.9744     3.5530    43.5716 </r>
       <r>    -6.8526     8.0069    44.6697 </r>
       <r>    -6.7308     8.1220    46.0726 </r>
       <r>    -6.6090     7.3000    47.4169 </r>
       <r>    -6.4872     1.8792    47.9974 </r>
       <r>    -6.3654     0.0000    48.0000 </r>
       <r>    -6.2436     0.0000    48.0000 </r>
       <r>    -6.1218     0.0000    48.0000 </r>
       <r>    -6.0000     0.0000    48.0000 </r>
       <r>    -5.8782     0.0000    48.0000 </r>
       <r>    -5.7564     0.0000    48.0000 </r>
       <r>    -5.6346     0.0000    48.0000 </r>
       <r>    -5.5128     0.0000    48.0000 </r>
       <r>    -5.3910     0.0000    48.0000 </r>
       <r>    -5.2692     0.0000    48.0000 </r>
       <r>    -5.1474     0.0000    48.0000 </r>
       <r>    -5.0257     0.0000    48.0000 </r>
       <r>    -4.9039     0.0000    48.0000 </r>
       <r>    -4.7821     0.0000    48.0000 </r>
       <r>    -4.6603     0.0000    48.0000 </r>
       <r>    -4.5385     0.0000    48.0000 </r>
       <r>    -4.4167     0.0000    48.0000 </r>
       <r>    -4.2949     0.0000    48.0000 </r>
       <r>    -4.1731     0.0000    48.0000 </r>
       <r>    -4.0513     0.0000    48.0000 </r>
       <r>    -3.9295     0.0000    48.0000 </r>
       <r>    -3.8077     0.0000    48.0000 </r>
       <r>    -3.6859     0.0000    48.0000 </r>
       <r>    -3.5641     0.0000    48.0000 </r>
       <r>    -3.4423     0.0000    48.0000 </r>
       <r>    -3.3205     0.0000    48.0000 </r>
       <r>    -3.1987     0.0000    48.0000 </r>
       <r>    -3.0769     0.0000    48.0000 </r>
       <r>    -2.9551     0.0000    48.0000 </r>
       <r>    -2.8333     0.0000    48.0000 </r>
       <r>    -2.7115     0.0000    48.0000 </r>
       <r>    -2.5897     0.1332    48.0162 </r>
       <r>    -2.4679     0.4580    48.0743 </r>
       <r>    -2.3461     1.4856    48.3291 </r>
       <r>    -2.2243     0.5558    48.4010 </r>
       <r>    -2.1025     2.0405    48.6930 </r>
       <r>    -1.9807     2.1487    49.0950 </r>
       <r>    -1.8589     1.0760    49.4644 </r>
       <r>    -1.7371     1.8503    49.9291 </r>
       <r>    -1.6153     2.3347    50.4140 </r>
       <r>    -1.4935     2.7687    50.8743 </r>
       <r>    -1.3717     2.4605    51.3552 </r>
       <r>    -1.2499     0.9187    51.7137 </r>
       <r>    -1.1281     3.2724    52.2967 </r>
       <r>    -1.0063     2.7858    52.7930 </r>
       <r>    -0.8845     1.6727    53.2500 </r>
       <r>    -0.7627     3.4340    54.0201 </r>
       <r>    -0.6409     2.0594    54.5379 </r>
       <r>    -0.5191     1.4674    54.7806 </r>
       <r>    -0.3973     1.5294    55.0659 </r>
       <r>    -0.2755     1.4929    55.3022 </r>
       <r>    -0.1537     1.1691    55.4665 </r>
       <r>    -0.0319     0.3041    55.5370 </r>
       <r>     0.0899     0.6292    55.6137 </r>
       <r>     0.2117     0.0000    55.6574 </r>
       <r>     0.3335     1.2163    55.8056 </r>
       <r>     0.4553     0.7595    55.8981 </r>
       <r>     0.5771     0.3041    55.9907 </r>
       <r>     0.6989     0.3129    56.0288 </r>
       <r>     0.8207     1.5667    56.2742 </r>
       <r>     0.9425     1.0902    56.4476 </r>
       <r>     1.0643     0.9296    56.6410 </r>
       <r>     1.1861     2.5334    57.0956 </r>
       <r>     1.3079     2.0263    57.4598 </r>
       <r>     1.4297     4.0981    58.0454 </r>
       <r>     1.5515     1.7099    58.4212 </r>
       <r>     1.6733     2.1218    58.8788 </r>
       <r>     1.7951     3.1783    59.3038 </r>
       <r>     1.9169     2.8365    59.8733 </r>
       <r>     2.0387     2.1816    60.3305 </r>
       <r>     2.1605     3.0670    60.9013 </r>
       <r>     2.2823     5.2221    61.7564 </r>
       <r>     2.4041     3.4457    62.4938 </r>
       <r>     2.5259     2.3781    62.9841 </r>
       <r>     2.6476     3.8616    63.6740 </r>
       <r>     2.7694     1.2027    64.0354 </r>
       <r>     2.8912     3.8144    64.7053 </r>
       <r>     3.0130     4.8254    65.5322 </r>
       <r>     3.1348     2.8824    66.0548 </r>
       <r>     3.2566     3.2534    66.6370 </r>
       <r>     3.3784     4.6925    67.3863 </r>
       <r>     3.5002     6.6571    68.4127 </r>
       <r>     3.6220     3.7781    68.9509 </r>
       <r>     3.7438     3.8709    69.7770 </r>
       <r>     3.8656     2.7292    70.4157 </r>
       <r>     3.9874     4.2778    71.2895 </r>
       <r>     4.1092     5.2415    72.2125 </r>
       <r>     4.2310     1.9420    72.8291 </r>
       <r>     4.3528     3.7059    73.4977 </r>
       <r>     4.4746     3.3558    74.1958 </r>
       <r>     4.5964     2.0474    74.7957 </r>
       <r>     4.7182     1.8833    75.2294 </r>
       <r>     4.8400     5.0329    76.1686 </r>
       <r>     4.9618     2.7443    76.5380 </r>
       <r>     5.0836     4.3841    77.2747 </r>
       <r>     5.2054     4.3632    77.9851 </r>
       <r>     5.3272     5.6389    79.0294 </r>
       <r>     5.4490     4.3978    79.6468 </r>
       <r>     5.5708     0.6153    79.7601 </r>
       <r>     5.6926     0.6082    79.8889 </r>
       <r>     5.8144     0.1544    79.9447 </r>
       <r>     5.9362     0.1520    80.0000 </r>
       <r>     6.0580     0.0000    80.0000 </r>
       <r>     6.1798     0.0000    80.0000 </r>
       <r>     6.3016     0.0498    80.0061 </r>
       <r>     6.4234     0.3041    80.0833 </r>
       <r>     6.5452     0.6082    80.1759 </r>
       <r>     6.6670     1.1781    80.3194 </r>
       <r>     6.7888     1.4033    80.4950 </r>
       <r>     6.9106     1.2056    80.7302 </r>
       <r>     7.0324     0.6366    80.8646 </r>
       <r>     7.1542     3.5723    81.4444 </r>
       <r>     7.2760     2.9374    81.9596 </r>
       <r>     7.3978     2.5721    82.5633 </r>
       <r>     7.5196     1.5491    82.9572 </r>
       <r>     7.6414     3.6107    83.6157 </r>
       <r>     7.7632     1.8965    84.1291 </r>
       <r>     7.8850     4.2542    84.8237 </r>
       <r>     8.0068     1.1582    85.2429 </r>
       <r>     8.1286     0.4898    85.6985 </r>
       <r>     8.2504     4.6862    86.3763 </r>
       <r>     8.3722     2.9806    86.8723 </r>
       <r>     8.4940     4.4573    87.4966 </r>
       <r>     8.6158     2.7665    88.1240 </r>
       <r>     8.7376     3.0229    88.6923 </r>
       <r>     8.8594     3.4879    89.5174 </r>
       <r>     8.9812     5.1805    90.5291 </r>
       <r>     9.1030     5.4547    91.4421 </r>
       <r>     9.2248     4.2163    92.0321 </r>
       <r>     9.3466     5.1576    92.7300 </r>
       <r>     9.4684     3.5044    93.3342 </r>
       <r>     9.5902     1.8554    93.6519 </r>
       <r>     9.7120     2.1287    94.1111 </r>
       <r>     9.8338     2.0646    94.5107 </r>
       <r>     9.9556     4.8731    95.2047 </r>
       <r>    10.0774     3.2731    95.8246 </r>
       <r>    10.1992     3.7864    96.3408 </r>
       <r>    10.3209     3.7596    96.9672 </r>
       <r>    10.4427     3.6056    97.6151 </r>
       <r>    10.5645     2.9535    98.3968 </r>
       <r>    10.6863     4.1595    99.2011 </r>
       <r>    10.8081     4.5921    99.8834 </r>
       <r>    10.9299     2.8924   100.6856 </r>
       <r>    11.0517     4.4113   101.5188 </r>
       <r>    11.1735     1.7261   101.8954 </r>
       <r>    11.2953     1.9989   102.2249 </r>
       <r>    11.4171     3.0960   102.7104 </r>
       <r>    11.5389     2.1516   103.2713 </r>
       <r>    11.6607     2.0049   103.6794 </r>
       <r>    11.7825     2.3530   104.1477 </r>
       <r>    11.9043     2.2314   104.6422 </r>
       <r>    12.0261     2.9441   105.0993 </r>
       <r>    12.1479     4.3327   105.6666 </r>
       <r>    12.2697     4.9355   106.4993 </r>
       <r>    12.3915     1.9744   106.9164 </r>
       <r>    12.5133     2.5971   107.3626 </r>
       <r>    12.6351     2.5133   107.7043 </r>
       <r>    12.7569     3.1587   108.3755 </r>
       <r>    12.8787     2.2618   108.8033 </r>
       <r>    13.0005     2.9236   109.4950 </r>
       <r>    13.1223     1.9034   109.8152 </r>
       <r>    13.2441     4.2363   110.5993 </r>
       <r>    13.3659     2.1253   110.9718 </r>
       <r>    13.4877     1.6459   111.4875 </r>
       <r>    13.6095     2.5008   111.9805 </r>
       <r>    13.7313     0.3561   112.2100 </r>
       <r>    13.8531     2.1618   112.6707 </r>
       <r>    13.9749     4.2301   113.5708 </r>
       <r>    14.0967     2.0282   114.0618 </r>
       <r>    14.2185     4.6868   114.7375 </r>
       <r>    14.3403     3.9612   115.2417 </r>
       <r>    14.4621     1.6266   115.7352 </r>
       <r>    14.5839     2.6428   116.1367 </r>
       <r>    14.7057     4.3794   116.7834 </r>
       <r>    14.8275     1.6199   117.1973 </r>
       <r>    14.9493     3.9425   117.9432 </r>
       <r>    15.0711     1.0642   118.2407 </r>
       <r>    15.1929     4.2092   118.8090 </r>
       <r>    15.3147     4.5730   119.5940 </r>
       <r>    15.4365     4.9490   120.4176 </r>
       <r>    15.5583     4.0179   121.1746 </r>
       <r>    15.6801     1.9107   121.6772 </r>
       <r>    15.8019     4.5078   122.4194 </r>
       <r>    15.9237     2.9137   122.8919 </r>
       <r>    16.0455     5.7232   123.8267 </r>
       <r>    16.1673     2.5351   124.2347 </r>
       <r>    16.2891     1.7828   124.6060 </r>
       <r>    16.4109     3.9453   125.1657 </r>
       <r>    16.5327     2.9012   125.7052 </r>
       <r>    16.6545     2.9943   126.2536 </r>
       <r>    16.7763     1.6071   126.6217 </r>
       <r>    16.8981     1.5132   126.9250 </r>
       <r>    17.0199     2.0621   127.3252 </r>
       <r>    17.1417     0.8268   127.4711 </r>
       <r>    17.2635     1.2163   127.8519 </r>
       <r>    17.3853     0.3041   127.8889 </r>
       <r>    17.5071     0.0000   127.8889 </r>
       <r>    17.6289     0.3448   127.9309 </r>
       <r>    17.7507     0.0000   127.9630 </r>
       <r>    17.8725     0.3041   128.0000 </r>
       <r>    17.9942     0.0000   128.0000 </r>
       <r>    18.1160     0.0000   128.0000 </r>
       <r>    18.2378     0.0000   128.0000 </r>
       <r>    18.3596     0.0000   128.0000 </r>
       <r>    18.4814     0.0000   128.0000 </r>
       <r>    18.6032     0.0000   128.0000 </r>
       <r>    18.7250     0.0000   128.0000 </r>
       <r>    18.8468     0.0000   128.0000 </r>
       <r>    18.9686     0.0000   128.0000 </r>
       <r>    19.0904     0.0000   128.0000 </r>
       <r>    19.2122     0.0000   128.0000 </r>
       <r>    19.3340     0.0000   128.0000 </r>
       <r>    19.4558     0.0000   128.0000 </r>
      </set>
     </set>
    </array>
   </total>
  </dos>
 </calculation>
 <structure name="finalpos" >
  <crystal>
   <varray name="basis" >
    <v>       4.34539863       0.00000000       0.00000000 </v>
    <v>       0.00000000       4.11936655       0.00000000 </v>
    <v>       0.00000000       0.00000000      11.35478920 </v>
   </varray>
   <i name="volume">    203.25401695 </i>
   <varray name="rec_basis" >
    <v>       0.23012848       0.00000000       0.00000000 </v>
    <v>       0.00000000       0.24275577       0.00000000 </v>
    <v>       0.00000000       0.00000000       0.08806857 </v>
   </varray>
  </crystal>
  <varray name="positions" >
   <v>       0.09893052       0.25000000       0.11517728 </v>
   <v>       0.40106948       0.25000000       0.61517728 </v>
   <v>       0.59893052       0.75000000       0.38482272 </v>
   <v>       0.90106948       0.75000000       0.88482272 </v>
   <v>       0.02605685       0.25000000       0.35716751 </v>
   <v>       0.47394315       0.25000000       0.85716751 </v>
   <v>       0.52605685       0.75000000       0.14283249 </v>
   <v>       0.97394315       0.75000000       0.64283249 </v>
  </varray>
 </structure>
</modeling>
