<?xml version="1.0" encoding="ISO-8859-1"?>
<modeling>
 <generator>
  <i name="program" type="string">vasp </i>
  <i name="version" type="string">6.2.0  </i>
  <i name="subversion" type="string">18Jan21 (build Mar  1 2021 20:13:55) complex                          parallel </i>
  <i name="platform" type="string">HPECrayEX_GCC </i>
  <i name="date" type="string">2026 03 07 </i>
  <i name="time" type="string">19:41:41 </i>
 </generator>
 <incar>
  <i type="string" name="SYSTEM">Pnma SnSe</i>
  <i type="string" name="PREC">Accurate</i>
  <i type="string" name="ALGO">Normal</i>
  <i type="logical" name="ADDGRID"> T  </i>
  <i type="int" name="NELM">   250</i>
  <i type="int" name="NELMIN">     5</i>
  <i name="EDIFF">      0.00000001</i>
  <i type="int" name="NSW">     0</i>
  <i type="int" name="ISIF">     2</i>
  <i name="ENCUT">    700.00000000</i>
  <i type="logical" name="LREAL"> F  </i>
  <i type="int" name="ISMEAR">     0</i>
  <i name="SIGMA">      0.01000000</i>
  <i type="logical" name="LWAVE"> F  </i>
  <i type="logical" name="LCHARG"> F  </i>
  <i type="logical" name="LASPH"> T  </i>
  <i type="string" name="GGA">PS</i>
  <i type="logical" name="LEPSILON"> T  </i>
  <i type="int" name="IVDW">    11</i>
 </incar>
 <primitive_cell>
  <structure name="primitive_cell" >
   <crystal>
    <varray name="basis" >
     <v>       4.34539863       0.00000000       0.00000000 </v>
     <v>       0.00000000       4.11936655       0.00000000 </v>
     <v>       0.00000000       0.00000000      11.35478920 </v>
    </varray>
    <i name="volume">    203.25401695 </i>
    <varray name="rec_basis" >
     <v>       0.23012848       0.00000000       0.00000000 </v>
     <v>       0.00000000       0.24275577       0.00000000 </v>
     <v>       0.00000000       0.00000000       0.08806857 </v>
    </varray>
   </crystal>
   <varray name="positions" >
    <v>       0.09848548       0.25000000       0.11528682 </v>
    <v>       0.40151452       0.25000000       0.61528682 </v>
    <v>       0.59848548       0.75000000       0.38471318 </v>
    <v>       0.90151452       0.75000000       0.88471318 </v>
    <v>       0.02704790       0.25000000       0.35663305 </v>
    <v>       0.47295210       0.25000000       0.85663305 </v>
    <v>       0.52704790       0.75000000       0.14336695 </v>
    <v>       0.97295210       0.75000000       0.64336695 </v>
   </varray>
  </structure>
  <varray name="primitive_index" >
   <v type="int" >        1 </v>
   <v type="int" >        2 </v>
   <v type="int" >        3 </v>
   <v type="int" >        4 </v>
   <v type="int" >        5 </v>
   <v type="int" >        6 </v>
   <v type="int" >        7 </v>
   <v type="int" >        8 </v>
  </varray>
 </primitive_cell>
 <kpoints>
  <generation param="Gamma">
   <v type="int" name="divisions">       8        9        3 </v>
   <v name="usershift">      0.00000000       0.00000000       0.00000000 </v>
   <v name="genvec1">      0.12500000       0.00000000       0.00000000 </v>
   <v name="genvec2">      0.00000000       0.11111111       0.00000000 </v>
   <v name="genvec3">      0.00000000       0.00000000       0.33333333 </v>
   <v name="shift">      0.00000000       0.00000000       0.00000000 </v>
  </generation>
  <varray name="kpointlist" >
   <v>       0.00000000       0.00000000       0.00000000 </v>
   <v>       0.12500000       0.00000000       0.00000000 </v>
   <v>       0.25000000       0.00000000       0.00000000 </v>
   <v>       0.37500000       0.00000000       0.00000000 </v>
   <v>       0.50000000       0.00000000       0.00000000 </v>
   <v>       0.00000000       0.11111111       0.00000000 </v>
   <v>       0.12500000       0.11111111       0.00000000 </v>
   <v>       0.25000000       0.11111111       0.00000000 </v>
   <v>       0.37500000       0.11111111       0.00000000 </v>
   <v>       0.50000000       0.11111111       0.00000000 </v>
   <v>       0.00000000       0.22222222       0.00000000 </v>
   <v>       0.12500000       0.22222222       0.00000000 </v>
   <v>       0.25000000       0.22222222       0.00000000 </v>
   <v>       0.37500000       0.22222222       0.00000000 </v>
   <v>       0.50000000       0.22222222       0.00000000 </v>
   <v>       0.00000000       0.33333333       0.00000000 </v>
   <v>       0.12500000       0.33333333       0.00000000 </v>
   <v>       0.25000000       0.33333333       0.00000000 </v>
   <v>       0.37500000       0.33333333       0.00000000 </v>
   <v>       0.50000000       0.33333333       0.00000000 </v>
   <v>       0.00000000       0.44444444       0.00000000 </v>
   <v>       0.12500000       0.44444444       0.00000000 </v>
   <v>       0.25000000       0.44444444       0.00000000 </v>
   <v>       0.37500000       0.44444444       0.00000000 </v>
   <v>       0.50000000       0.44444444       0.00000000 </v>
   <v>       0.00000000       0.00000000       0.33333333 </v>
   <v>       0.12500000       0.00000000       0.33333333 </v>
   <v>       0.25000000       0.00000000       0.33333333 </v>
   <v>       0.37500000       0.00000000       0.33333333 </v>
   <v>       0.50000000       0.00000000       0.33333333 </v>
   <v>       0.00000000       0.11111111       0.33333333 </v>
   <v>       0.12500000       0.11111111       0.33333333 </v>
   <v>       0.25000000       0.11111111       0.33333333 </v>
   <v>       0.37500000       0.11111111       0.33333333 </v>
   <v>       0.50000000       0.11111111       0.33333333 </v>
   <v>       0.00000000       0.22222222       0.33333333 </v>
   <v>       0.12500000       0.22222222       0.33333333 </v>
   <v>       0.25000000       0.22222222       0.33333333 </v>
   <v>       0.37500000       0.22222222       0.33333333 </v>
   <v>       0.50000000       0.22222222       0.33333333 </v>
   <v>       0.00000000       0.33333333       0.33333333 </v>
   <v>       0.12500000       0.33333333       0.33333333 </v>
   <v>       0.25000000       0.33333333       0.33333333 </v>
   <v>       0.37500000       0.33333333       0.33333333 </v>
   <v>       0.50000000       0.33333333       0.33333333 </v>
   <v>       0.00000000       0.44444444       0.33333333 </v>
   <v>       0.12500000       0.44444444       0.33333333 </v>
   <v>       0.25000000       0.44444444       0.33333333 </v>
   <v>       0.37500000       0.44444444       0.33333333 </v>
   <v>       0.50000000       0.44444444       0.33333333 </v>
  </varray>
  <varray name="weights" >
   <v>       0.00462963 </v>
   <v>       0.00925926 </v>
   <v>       0.00925926 </v>
   <v>       0.00925926 </v>
   <v>       0.00462963 </v>
   <v>       0.00925926 </v>
   <v>       0.01851852 </v>
   <v>       0.01851852 </v>
   <v>       0.01851852 </v>
   <v>       0.00925926 </v>
   <v>       0.00925926 </v>
   <v>       0.01851852 </v>
   <v>       0.01851852 </v>
   <v>       0.01851852 </v>
   <v>       0.00925926 </v>
   <v>       0.00925926 </v>
   <v>       0.01851852 </v>
   <v>       0.01851852 </v>
   <v>       0.01851852 </v>
   <v>       0.00925926 </v>
   <v>       0.00925926 </v>
   <v>       0.01851852 </v>
   <v>       0.01851852 </v>
   <v>       0.01851852 </v>
   <v>       0.00925926 </v>
   <v>       0.00925926 </v>
   <v>       0.01851852 </v>
   <v>       0.01851852 </v>
   <v>       0.01851852 </v>
   <v>       0.00925926 </v>
   <v>       0.01851852 </v>
   <v>       0.03703704 </v>
   <v>       0.03703704 </v>
   <v>       0.03703704 </v>
   <v>       0.01851852 </v>
   <v>       0.01851852 </v>
   <v>       0.03703704 </v>
   <v>       0.03703704 </v>
   <v>       0.03703704 </v>
   <v>       0.01851852 </v>
   <v>       0.01851852 </v>
   <v>       0.03703704 </v>
   <v>       0.03703704 </v>
   <v>       0.03703704 </v>
   <v>       0.01851852 </v>
   <v>       0.01851852 </v>
   <v>       0.03703704 </v>
   <v>       0.03703704 </v>
   <v>       0.03703704 </v>
   <v>       0.01851852 </v>
  </varray>
 </kpoints>
 <parameters>
  <separator name="general" >
   <i type="string" name="SYSTEM">Pnma SnSe</i>
   <i type="logical" name="LCOMPAT"> F  </i>
  </separator>
  <separator name="electronic" >
   <i type="string" name="PREC">accura</i>
   <i name="ENMAX">    700.00000000</i>
   <i name="ENAUG">    446.84200000</i>
   <i name="EDIFF">      0.00000001</i>
   <i type="int" name="IALGO">    38</i>
   <i type="int" name="IWAVPR">    10</i>
   <i type="int" name="NBANDS">    64</i>
   <i type="int" name="NBANDSLOW">    -1</i>
   <i type="int" name="NBANDSHIGH">    -1</i>
   <i name="NELECT">     80.00000000</i>
   <i type="int" name="TURBO">     0</i>
   <i type="int" name="IRESTART">     0</i>
   <i type="int" name="NREBOOT">     0</i>
   <i type="int" name="NMIN">     0</i>
   <i name="EREF">      0.00000000</i>
   <separator name="electronic smearing" >
    <i type="int" name="ISMEAR">     0</i>
    <i name="SIGMA">      0.01000000</i>
    <i name="KSPACING">      0.50000000</i>
    <i type="logical" name="KGAMMA"> T  </i>
    <i type="logical" name="KBLOWUP"> T  </i>
   </separator>
   <separator name="electronic projectors" >
    <i type="logical" name="LREAL"> F  </i>
    <v name="ROPT">      0.00000000      0.00000000</v>
    <i type="int" name="LMAXPAW">  -100</i>
    <i type="int" name="LMAXMIX">     2</i>
    <i type="logical" name="NLSPLINE"> F  </i>
   </separator>
   <separator name="electronic startup" >
    <i type="int" name="ISTART">     0</i>
    <i type="int" name="ICHARG">     2</i>
    <i type="int" name="INIWAV">     1</i>
   </separator>
   <separator name="electronic spin" >
    <i type="int" name="ISPIN">     1</i>
    <i type="logical" name="LNONCOLLINEAR"> F  </i>
    <v name="MAGMOM">      1.00000000      1.00000000      1.00000000      1.00000000      1.00000000      1.00000000      1.00000000      1.00000000</v>
    <i name="NUPDOWN">     -1.00000000</i>
    <i type="logical" name="LSORBIT"> F  </i>
    <v name="SAXIS">      0.00000000      0.00000000      1.00000000</v>
    <i type="logical" name="LSPIRAL"> F  </i>
    <v name="QSPIRAL">      0.00000000      0.00000000      0.00000000</v>
    <i type="logical" name="LZEROZ"> F  </i>
   </separator>
   <separator name="electronic exchange-correlation" >
    <i type="logical" name="LASPH"> T  </i>
    <i type="logical" name="LMETAGGA"> F  </i>
   </separator>
   <separator name="electronic convergence" >
    <i type="int" name="NELM">   250</i>
    <i type="int" name="NELMDL">    -5</i>
    <i type="int" name="NELMIN">     5</i>
    <i name="ENINI">    700.00000000</i>
    <separator name="electronic convergence detail" >
     <i type="logical" name="LDIAG"> T  </i>
     <i type="logical" name="LSUBROT"> F  </i>
     <i name="WEIMIN">      0.00000000</i>
     <i name="EBREAK">      0.00000000</i>
     <i name="DEPER">      0.30000000</i>
     <i type="int" name="NRMM">     4</i>
     <i name="TIME">      0.40000000</i>
    </separator>
   </separator>
   <separator name="electronic mixer" >
    <i name="AMIX">      0.40000000</i>
    <i name="BMIX">      1.00000000</i>
    <i name="AMIN">      0.10000000</i>
    <i name="AMIX_MAG">      1.60000000</i>
    <i name="BMIX_MAG">      1.00000000</i>
    <separator name="electronic mixer details" >
     <i type="int" name="IMIX">     4</i>
     <i type="logical" name="MIXFIRST"> F  </i>
     <i type="int" name="MAXMIX">   -45</i>
     <i name="WC">    100.00000000</i>
     <i type="int" name="INIMIX">     1</i>
     <i type="int" name="MIXPRE">     1</i>
     <i type="int" name="MREMOVE">     5</i>
    </separator>
   </separator>
   <separator name="electronic dipolcorrection" >
    <i type="logical" name="LDIPOL"> F  </i>
    <i type="logical" name="LMONO"> F  </i>
    <i type="int" name="IDIPOL">     0</i>
    <i name="EPSILON">      1.00000000</i>
    <v name="DIPOL">   -100.00000000   -100.00000000   -100.00000000</v>
    <i name="EFIELD">      0.00000000</i>
   </separator>
  </separator>
  <separator name="grids" >
   <i type="int" name="NGX">    40</i>
   <i type="int" name="NGY">    36</i>
   <i type="int" name="NGZ">    98</i>
   <i type="int" name="NGXF">    80</i>
   <i type="int" name="NGYF">    72</i>
   <i type="int" name="NGZF">   196</i>
   <i type="logical" name="ADDGRID"> T  </i>
  </separator>
  <separator name="ionic" >
   <i type="int" name="NSW">     0</i>
   <i type="int" name="IBRION">    -1</i>
   <i type="int" name="MDALGO">     0</i>
   <i type="int" name="ISIF">     2</i>
   <i name="PSTRESS">      0.00000000</i>
   <i name="EDIFFG">      0.00000010</i>
   <i type="int" name="NFREE">     0</i>
   <i name="POTIM">      0.50000000</i>
   <i name="SMASS">     -3.00000000</i>
   <i name="SCALEE">      1.00000000</i>
  </separator>
  <separator name="ionic md" >
   <i name="TEBEG">      0.00010000</i>
   <i name="TEEND">      0.00010000</i>
   <i type="int" name="NBLOCK">     1</i>
   <i type="int" name="KBLOCK">     1</i>
   <i type="int" name="NPACO">   256</i>
   <i name="APACO">     16.00000000</i>
  </separator>
  <separator name="symmetry" >
   <i type="int" name="ISYM">     2</i>
   <i name="SYMPREC">      0.00001000</i>
  </separator>
  <separator name="dos" >
   <i type="int" name="LORBIT">     0</i>
   <v name="RWIGS">     -1.00000000     -1.00000000</v>
   <i type="int" name="NEDOS">   301</i>
   <i name="EMIN">     10.00000000</i>
   <i name="EMAX">    -10.00000000</i>
   <i name="EFERMI">      0.00000000</i>
  </separator>
  <separator name="writing" >
   <i type="int" name="NWRITE">     2</i>
   <i type="logical" name="LWAVE"> F  </i>
   <i type="logical" name="LDOWNSAMPLE"> F  </i>
   <i type="logical" name="LCHARG"> F  </i>
   <i type="logical" name="LPARD"> F  </i>
   <i type="logical" name="LVTOT"> F  </i>
   <i type="logical" name="LVHAR"> F  </i>
   <i type="logical" name="LELF"> F  </i>
   <i type="logical" name="LOPTICS"> F  </i>
   <v name="STM">      0.00000000      0.00000000      0.00000000      0.00000000      0.00000000      0.00000000      0.00000000</v>
  </separator>
  <separator name="performance" >
   <i type="int" name="NPAR">    32</i>
   <i type="int" name="NSIM">     4</i>
   <i type="int" name="NBLK">    -1</i>
   <i type="logical" name="LPLANE"> T  </i>
   <i type="logical" name="LSCALAPACK"> T  </i>
   <i type="logical" name="LSCAAWARE"> F  </i>
   <i type="logical" name="LSCALU"> F  </i>
   <i type="logical" name="LASYNC"> F  </i>
   <i type="logical" name="LORBITALREAL"> F  </i>
  </separator>
  <separator name="miscellaneous" >
   <i type="int" name="IDIOT">     3</i>
   <i type="int" name="PHON_NSTRUCT">    -1</i>
   <i type="logical" name="LMUSIC"> F  </i>
   <v name="POMASS">    118.71000000     78.96000000</v>
   <v name="DARWINR">      0.00000000      0.00000000</v>
   <v name="DARWINV">      1.00000000      1.00000000</v>
   <i type="logical" name="LCORR"> T  </i>
  </separator>
  <i type="logical" name="GGA_COMPAT"> T  </i>
  <i type="logical" name="LBERRY"> F  </i>
  <i type="int" name="ICORELEVEL">     0</i>
  <i type="logical" name="LDAU"> F  </i>
  <i type="int" name="I_CONSTRAINED_M">     0</i>
  <separator name="electronic exchange-correlation" >
   <i type="string" name="GGA">PS</i>
   <i type="int" name="VOSKOWN">     0</i>
   <i type="logical" name="LHFCALC"> F  </i>
   <i type="string" name="PRECFOCK"></i>
   <i type="logical" name="LSYMGRAD"> F  </i>
   <i type="logical" name="LHFONE"> F  </i>
   <i type="logical" name="LRHFCALC"> F  </i>
   <i type="logical" name="LTHOMAS"> F  </i>
   <i type="logical" name="LMODELHF"> F  </i>
   <i type="logical" name="LFOCKACE"> F  </i>
   <i name="ENCUT4O">     -1.00000000</i>
   <i type="int" name="EXXOEP">     0</i>
   <i type="int" name="FOURORBIT">     0</i>
   <i name="AEXX">      0.00000000</i>
   <i name="HFALPHA">      0.00000000</i>
   <i name="MCALPHA">      0.00000000</i>
   <i name="ALDAX">      1.00000000</i>
   <i name="AGGAX">      1.00000000</i>
   <i name="ALDAC">      1.00000000</i>
   <i name="AGGAC">      1.00000000</i>
   <i type="int" name="NKREDX">     1</i>
   <i type="int" name="NKREDY">     1</i>
   <i type="int" name="NKREDZ">     1</i>
   <i type="logical" name="SHIFTRED"> F  </i>
   <i type="logical" name="ODDONLY"> F  </i>
   <i type="logical" name="EVENONLY"> F  </i>
   <i type="int" name="LMAXFOCK">     0</i>
   <i type="int" name="NMAXFOCKAE">     0</i>
   <i type="logical" name="LFOCKAEDFT"> F  </i>
   <i name="HFSCREEN">      0.00000000</i>
   <i name="HFSCREENC">      0.00000000</i>
   <i type="int" name="NBANDSGWLOW">     0</i>
  </separator>
  <separator name="vdW DFT" >
   <i type="logical" name="LUSE_VDW"> F  </i>
   <i name="Zab_VDW">     -0.84910000</i>
   <i name="PARAM1">      0.12340000</i>
   <i name="PARAM2">      1.00000000</i>
   <i name="PARAM3">      0.00000000</i>
  </separator>
  <separator name="model GW" >
   <i type="int" name="MODEL_GW">     0</i>
   <i name="MODEL_EPS0">     15.24405127</i>
   <i name="MODEL_ALPHA">      1.00000000</i>
  </separator>
  <separator name="linear response parameters" >
   <i type="logical" name="LEPSILON"> T  </i>
   <i type="logical" name="LRPA"> F  </i>
   <i type="logical" name="LNABLA"> F  </i>
   <i type="logical" name="LVEL"> F  </i>
   <i type="int" name="KINTER">     0</i>
   <i name="CSHIFT">      0.10000000</i>
   <i name="OMEGAMAX">     -1.00000000</i>
   <i name="DEG_THRESHOLD">      0.00200000</i>
   <i name="RTIME">     -0.10000000</i>
   <i name="WPLASMAI">      0.00000000</i>
   <v name="DFIELD">      0.00000000      0.00000000      0.00000000</v>
   <v name="WPLASMA">      0.00000000      0.00000000      0.00000000      0.00000000      0.00000000      0.00000000      0.00000000      0.00000000      0.00000000</v>
  </separator>
  <separator name="orbital magnetization" >
   <i type="logical" name="NUCIND"> F  </i>
   <v name="MAGPOS">      0.00000000      0.00000000      0.00000000</v>
   <i type="logical" name="LNICSALL"> T  </i>
   <i type="logical" name="ORBITALMAG"> F  </i>
   <i type="logical" name="LMAGBLOCH"> F  </i>
   <i type="logical" name="LCHIMAG"> F  </i>
   <i type="logical" name="LGAUGE"> T  </i>
   <i type="int" name="MAGATOM">     0</i>
   <v name="MAGDIPOL">      0.00000000      0.00000000      0.00000000</v>
   <v name="AVECCONST">      0.00000000      0.00000000      0.00000000</v>
  </separator>
  <separator name="response functions" >
   <i type="logical" name="LFINITE_TEMPERATURE"> F  </i>
   <i type="logical" name="LADDER"> F  </i>
   <i type="logical" name="LRPAFORCE"> F  </i>
   <i type="logical" name="LFXC"> F  </i>
   <i type="logical" name="LHARTREE"> T  </i>
   <i type="int" name="IBSE">     0</i>
   <v type="int" name="KPOINT">    -1     0     0     0</v>
   <i type="logical" name="LTCTC"> F  </i>
   <i type="logical" name="LTCTE"> F  </i>
   <i type="logical" name="LTETE"> F  </i>
   <i type="logical" name="LTRIPLET"> F  </i>
   <i type="logical" name="LFXCEPS"> F  </i>
   <i type="logical" name="LFXHEG"> F  </i>
   <i type="int" name="NATURALO">     2</i>
   <i type="logical" name="LHOLEGF"> F  </i>
   <i type="logical" name="L2ORDER"> F  </i>
   <i type="logical" name="LDMP1"> F  </i>
   <i type="logical" name="LMP2LT"> F  </i>
   <i type="logical" name="LSMP2LT"> F  </i>
   <i type="logical" name="LGWLF"> F  </i>
   <i name="ENCUTGW">     -2.00000000</i>
   <i name="ENCUTGWSOFT">     -2.00000000</i>
   <i name="ENCUTLF">     -1.00000000</i>
   <i type="logical" name="LESF_SPLINES"> F  </i>
   <i type="int" name="LMAXMP2">    -1</i>
   <i name="SCISSOR">      0.00000000</i>
   <i type="int" name="NOMEGA">     0</i>
   <i type="int" name="NOMEGAR">     0</i>
   <i type="int" name="NBANDSGW">    -1</i>
   <i type="int" name="NBANDSO">    -1</i>
   <i type="int" name="NBANDSV">    -1</i>
   <i type="int" name="NELM">   250</i>
   <i type="int" name="NELMHF">     1</i>
   <i type="int" name="DIM">     3</i>
   <i type="int" name="IESPILON">     4</i>
   <i type="int" name="ANTIRES">     0</i>
   <i name="OMEGAMAX">    -30.00000000</i>
   <i name="OMEGAMIN">    -30.00000000</i>
   <i name="OMEGATL">   -200.00000000</i>
   <i type="int" name="OMEGAGRID">     0</i>
   <i name="CSHIFT">     -0.10000000</i>
   <i type="logical" name="LSELFENERGY"> F  </i>
   <i type="logical" name="LSPECTRAL"> F  </i>
   <i type="logical" name="LSPECTRALGW"> F  </i>
   <i type="logical" name="LSINGLES"> F  </i>
   <i type="logical" name="LFERMIGW"> F  </i>
   <i type="logical" name="ODDONLYGW"> F  </i>
   <i type="logical" name="EVENONLYGW"> F  </i>
   <i type="int" name="NKREDLFX">     1</i>
   <i type="int" name="NKREDLFY">     1</i>
   <i type="int" name="NKREDLFZ">     1</i>
   <i type="int" name="MAXMEM">  2800</i>
   <i type="int" name="TELESCOPE">     0</i>
   <i type="int" name="NTAUPAR">    -1</i>
   <i type="int" name="NOMEGAPAR">    -1</i>
   <i name="DAMP_NEWTON">      0.80000001</i>
   <i name="LAMBDA">      1.00000000</i>
  </separator>
  <separator name="External order field" >
   <i name="OFIELD_KAPPA">      0.00000000</i>
   <v name="OFIELD_K">      0.00000000      0.00000000      0.00000000</v>
   <i name="OFIELD_Q6_NEAR">      0.00000000</i>
   <i name="OFIELD_Q6_FAR">      0.00000000</i>
   <i name="OFIELD_A">      0.00000000</i>
  </separator>
 </parameters>
 <atominfo>
  <atoms>       8 </atoms>
  <types>       2 </types>
  <array name="atoms" >
   <dimension dim="1">ion</dimension>
   <field type="string">element</field>
   <field type="int">atomtype</field>
   <set>
    <rc><c>Sn</c><c>   1</c></rc>
    <rc><c>Sn</c><c>   1</c></rc>
    <rc><c>Sn</c><c>   1</c></rc>
    <rc><c>Sn</c><c>   1</c></rc>
    <rc><c>Se</c><c>   2</c></rc>
    <rc><c>Se</c><c>   2</c></rc>
    <rc><c>Se</c><c>   2</c></rc>
    <rc><c>Se</c><c>   2</c></rc>
   </set>
  </array>
  <array name="atomtypes" >
   <dimension dim="1">type</dimension>
   <field type="int">atomspertype</field>
   <field type="string">element</field>
   <field>mass</field>
   <field>valence</field>
   <field type="string">pseudopotential</field>
   <set>
    <rc><c>   4</c><c>Sn</c><c>    118.71000000</c><c>     14.00000000</c><c>  PAW_PBE Sn_d 06Sep2000                </c></rc>
    <rc><c>   4</c><c>Se</c><c>     78.96000000</c><c>      6.00000000</c><c>  PAW_PBE Se 06Sep2000                  </c></rc>
   </set>
  </array>
 </atominfo>
 <structure name="initialpos" >
  <crystal>
   <varray name="basis" >
    <v>       4.34539863       0.00000000       0.00000000 </v>
    <v>       0.00000000       4.11936655       0.00000000 </v>
    <v>       0.00000000       0.00000000      11.35478920 </v>
   </varray>
   <i name="volume">    203.25401695 </i>
   <varray name="rec_basis" >
    <v>       0.23012848       0.00000000       0.00000000 </v>
    <v>       0.00000000       0.24275577       0.00000000 </v>
    <v>       0.00000000       0.00000000       0.08806857 </v>
   </varray>
  </crystal>
  <varray name="positions" >
   <v>       0.09848548       0.25000000       0.11528682 </v>
   <v>       0.40151452       0.25000000       0.61528682 </v>
   <v>       0.59848548       0.75000000       0.38471318 </v>
   <v>       0.90151452       0.75000000       0.88471318 </v>
   <v>       0.02704790       0.25000000       0.35663305 </v>
   <v>       0.47295210       0.25000000       0.85663305 </v>
   <v>       0.52704790       0.75000000       0.14336695 </v>
   <v>       0.97295210       0.75000000       0.64336695 </v>
  </varray>
 </structure>
 <calculation>
  <scstep>
   <time name="dav">   11.54   10.65</time>
   <time name="total">   11.84   10.92</time>
   <energy>
    <i name="alphaZ">    217.43841536 </i>
    <i name="ewald">  -6083.13883935 </i>
    <i name="hartreedc">  -2321.81485672 </i>
    <i name="XCdc">    230.10351912 </i>
    <i name="pawpsdc">   7112.06264409 </i>
    <i name="pawaedc">  -7207.42447429 </i>
    <i name="eentropy">     -0.00028270 </i>
    <i name="bandstr">     37.32639563 </i>
    <i name="atom">   8598.20158228 </i>
    <i name="e_fr_energy">    582.75410340 </i>
    <i name="e_wo_entrp">    582.75438611 </i>
    <i name="e_0_energy">    582.75424476 </i>
   </energy>
  </scstep>
  <scstep>
   <time name="dav">    1.47    0.75</time>
   <time name="total">    1.47    0.75</time>
   <energy>
    <i name="e_fr_energy">     16.40349272 </i>
    <i name="e_wo_entrp">     16.40368874 </i>
    <i name="e_0_energy">     16.40359073 </i>
   </energy>
  </scstep>
  <scstep>
   <time name="dav">    2.00    1.01</time>
   <time name="total">    2.00    1.01</time>
   <energy>
    <i name="e_fr_energy">    -35.45572405 </i>
    <i name="e_wo_entrp">    -35.45572405 </i>
    <i name="e_0_energy">    -35.45572405 </i>
   </energy>
  </scstep>
  <scstep>
   <time name="dav">    1.79    0.90</time>
   <time name="total">    1.80    0.90</time>
   <energy>
    <i name="e_fr_energy">    -36.55790624 </i>
    <i name="e_wo_entrp">    -36.55790624 </i>
    <i name="e_0_energy">    -36.55790624 </i>
   </energy>
  </scstep>
  <scstep>
   <time name="dav">    2.24    1.12</time>
   <time name="total">    2.52    1.28</time>
   <energy>
    <i name="e_fr_energy">    -36.58567354 </i>
    <i name="e_wo_entrp">    -36.58567354 </i>
    <i name="e_0_energy">    -36.58567354 </i>
   </energy>
  </scstep>
  <scstep>
   <time name="dav">    2.40    1.20</time>
   <time name="total">    2.87    1.57</time>
   <energy>
    <i name="e_fr_energy">    -35.95360968 </i>
    <i name="e_wo_entrp">    -35.95360968 </i>
    <i name="e_0_energy">    -35.95360968 </i>
   </energy>
  </scstep>
  <scstep>
   <time name="dav">    2.14    1.07</time>
   <time name="total">    2.60    1.43</time>
   <energy>
    <i name="e_fr_energy">    -35.91914163 </i>
    <i name="e_wo_entrp">    -35.91914163 </i>
    <i name="e_0_energy">    -35.91914163 </i>
   </energy>
  </scstep>
  <scstep>
   <time name="dav">    1.92    0.97</time>
   <time name="total">    2.39    1.32</time>
   <energy>
    <i name="e_fr_energy">    -35.91413259 </i>
    <i name="e_wo_entrp">    -35.91413259 </i>
    <i name="e_0_energy">    -35.91413259 </i>
   </energy>
  </scstep>
  <scstep>
   <time name="dav">    2.09    1.05</time>
   <time name="total">    2.57    1.41</time>
   <energy>
    <i name="e_fr_energy">    -35.91416018 </i>
    <i name="e_wo_entrp">    -35.91416018 </i>
    <i name="e_0_energy">    -35.91416018 </i>
   </energy>
  </scstep>
  <scstep>
   <time name="dav">    1.95    0.98</time>
   <time name="total">    2.43    1.34</time>
   <energy>
    <i name="e_fr_energy">    -35.91416318 </i>
    <i name="e_wo_entrp">    -35.91416318 </i>
    <i name="e_0_energy">    -35.91416318 </i>
   </energy>
  </scstep>
  <scstep>
   <time name="dav">    2.04    1.02</time>
   <time name="total">    2.53    1.39</time>
   <energy>
    <i name="e_fr_energy">    -35.91417644 </i>
    <i name="e_wo_entrp">    -35.91417644 </i>
    <i name="e_0_energy">    -35.91417644 </i>
   </energy>
  </scstep>
  <scstep>
   <time name="dav">    2.03    1.05</time>
   <time name="total">    2.38    1.40</time>
   <energy>
    <i name="e_fr_energy">    -35.91417475 </i>
    <i name="e_wo_entrp">    -35.91417475 </i>
    <i name="e_0_energy">    -35.91417475 </i>
   </energy>
  </scstep>
  <scstep>
   <time name="dav">    2.09    1.05</time>
   <time name="total">    2.55    1.41</time>
   <energy>
    <i name="e_fr_energy">    -35.91417469 </i>
    <i name="e_wo_entrp">    -35.91417469 </i>
    <i name="e_0_energy">    -35.91417469 </i>
   </energy>
  </scstep>
  <scstep>
   <time name="dav">    2.01    1.01</time>
   <time name="total">    2.41    1.36</time>
   <energy>
    <i name="e_fr_energy">    -35.91417471 </i>
    <i name="e_wo_entrp">    -35.91417471 </i>
    <i name="e_0_energy">    -35.91417471 </i>
   </energy>
  </scstep>
  <scstep>
   <time name="dav">    1.72    0.86</time>
   <time name="total">    2.18    1.22</time>
   <energy>
    <i name="e_fr_energy">    -35.91417464 </i>
    <i name="e_wo_entrp">    -35.91417464 </i>
    <i name="e_0_energy">    -35.91417464 </i>
   </energy>
  </scstep>
  <scstep>
   <time name="dav">    1.40    0.71</time>
   <time name="total">    1.89    1.07</time>
   <energy>
    <i name="e_fr_energy">    -35.91417463 </i>
    <i name="e_wo_entrp">    -35.91417463 </i>
    <i name="e_0_energy">    -35.91417463 </i>
   </energy>
  </scstep>
  <scstep>
   <time name="dav">    1.37    0.69</time>
   <time name="total">    1.61    0.94</time>
   <energy>
    <i name="alphaZ">    217.43841536 </i>
    <i name="ewald">  -6083.13883935 </i>
    <i name="hartreedc">  -2303.47868996 </i>
    <i name="XCdc">    230.41956334 </i>
    <i name="pawpsdc">   8465.47036889 </i>
    <i name="pawaedc">  -8561.32130530 </i>
    <i name="eentropy">     -0.00000000 </i>
    <i name="bandstr">   -599.50526989 </i>
    <i name="atom">   8598.20158228 </i>
    <i name="e_fr_energy">    -35.91417463 </i>
    <i name="e_wo_entrp">    -35.91417463 </i>
    <i name="e_0_energy">    -35.91417463 </i>
   </energy>
  </scstep>
  <structure>
   <crystal>
    <varray name="basis" >
     <v>       4.34539863       0.00000000       0.00000000 </v>
     <v>       0.00000000       4.11936655       0.00000000 </v>
     <v>       0.00000000       0.00000000      11.35478920 </v>
    </varray>
    <i name="volume">    203.25401695 </i>
    <varray name="rec_basis" >
     <v>       0.23012848       0.00000000       0.00000000 </v>
     <v>       0.00000000       0.24275577       0.00000000 </v>
     <v>       0.00000000       0.00000000       0.08806857 </v>
    </varray>
   </crystal>
   <varray name="positions" >
    <v>       0.09848548       0.25000000       0.11528682 </v>
    <v>       0.40151452       0.25000000       0.61528682 </v>
    <v>       0.59848548       0.75000000       0.38471318 </v>
    <v>       0.90151452       0.75000000       0.88471318 </v>
    <v>       0.02704790       0.25000000       0.35663305 </v>
    <v>       0.47295210       0.25000000       0.85663305 </v>
    <v>       0.52704790       0.75000000       0.14336695 </v>
    <v>       0.97295210       0.75000000       0.64336695 </v>
   </varray>
  </structure>
  <varray name="forces" >
   <v>       0.01001676       0.00000000       0.01326570 </v>
   <v>      -0.01001676      -0.00000000       0.01326570 </v>
   <v>       0.01001676      -0.00000000      -0.01326570 </v>
   <v>      -0.01001676      -0.00000000      -0.01326570 </v>
   <v>      -0.02507971      -0.00000000       0.00366385 </v>
   <v>       0.02507971      -0.00000000       0.00366385 </v>
   <v>      -0.02507971       0.00000000      -0.00366385 </v>
   <v>       0.02507971      -0.00000000      -0.00366385 </v>
  </varray>
  <varray name="stress" >
   <v>      -1.28545291       0.00000000       0.00000000 </v>
   <v>       0.00000000      -0.79877367       0.00000000 </v>
   <v>       0.00000000       0.00000000      -0.32774344 </v>
  </varray>
  <energy>
   <i name="e_fr_energy">    -37.43162018 </i>
   <i name="e_wo_entrp">    -37.43162018 </i>
   <i name="e_0_energy">    -37.43162018 </i>
  </energy>
  <scstep>
   <time name="total">    1.03    0.54</time>
   <energy>
    <i name="e_fr_energy">   -132.66183415 </i>
    <i name="e_wo_entrp">   -132.66183415 </i>
    <i name="e_0_energy">   -132.66183415 </i>
   </energy>
  </scstep>
  <scstep>
   <time name="total">    1.30    0.67</time>
   <energy>
    <i name="e_fr_energy">   -259.10776996 </i>
    <i name="e_wo_entrp">   -259.10776996 </i>
    <i name="e_0_energy">   -259.10776996 </i>
   </energy>
  </scstep>
  <scstep>
   <time name="total">    1.31    0.69</time>
   <energy>
    <i name="e_fr_energy">   -259.94026813 </i>
    <i name="e_wo_entrp">   -259.94026813 </i>
    <i name="e_0_energy">   -259.94026813 </i>
   </energy>
  </scstep>
  <scstep>
   <time name="total">    1.08    0.57</time>
   <energy>
    <i name="e_fr_energy">   -260.09308157 </i>
    <i name="e_wo_entrp">   -260.09308157 </i>
    <i name="e_0_energy">   -260.09308157 </i>
   </energy>
  </scstep>
  <scstep>
   <time name="total">    1.11    0.60</time>
   <energy>
    <i name="e_fr_energy">   -260.09689444 </i>
    <i name="e_wo_entrp">   -260.09689444 </i>
    <i name="e_0_energy">   -260.09689444 </i>
   </energy>
  </scstep>
  <scstep>
   <time name="total">    1.12    0.60</time>
   <energy>
    <i name="e_fr_energy">   -260.09909015 </i>
    <i name="e_wo_entrp">   -260.09909015 </i>
    <i name="e_0_energy">   -260.09909015 </i>
   </energy>
  </scstep>
  <scstep>
   <time name="total">    1.20    0.61</time>
   <energy>
    <i name="e_fr_energy">   -260.09932163 </i>
    <i name="e_wo_entrp">   -260.09932163 </i>
    <i name="e_0_energy">   -260.09932163 </i>
   </energy>
  </scstep>
  <scstep>
   <time name="total">    1.26    0.63</time>
   <energy>
    <i name="e_fr_energy">   -260.09931667 </i>
    <i name="e_wo_entrp">   -260.09931667 </i>
    <i name="e_0_energy">   -260.09931667 </i>
   </energy>
  </scstep>
  <scstep>
   <time name="total">    1.29    0.64</time>
   <energy>
    <i name="e_fr_energy">   -260.09932565 </i>
    <i name="e_wo_entrp">   -260.09932565 </i>
    <i name="e_0_energy">   -260.09932565 </i>
   </energy>
  </scstep>
  <scstep>
   <time name="total">    1.25    0.64</time>
   <energy>
    <i name="e_fr_energy">   -260.09931967 </i>
    <i name="e_wo_entrp">   -260.09931967 </i>
    <i name="e_0_energy">   -260.09931967 </i>
   </energy>
  </scstep>
  <scstep>
   <time name="total">    1.21    0.64</time>
   <energy>
    <i name="e_fr_energy">   -260.09932534 </i>
    <i name="e_wo_entrp">   -260.09932534 </i>
    <i name="e_0_energy">   -260.09932534 </i>
   </energy>
  </scstep>
  <scstep>
   <time name="total">    1.17    0.60</time>
   <energy>
    <i name="e_fr_energy">   -260.09932322 </i>
    <i name="e_wo_entrp">   -260.09932322 </i>
    <i name="e_0_energy">   -260.09932322 </i>
   </energy>
  </scstep>
  <scstep>
   <time name="total">    1.15    0.58</time>
   <energy>
    <i name="e_fr_energy">   -260.09932328 </i>
    <i name="e_wo_entrp">   -260.09932328 </i>
    <i name="e_0_energy">   -260.09932328 </i>
   </energy>
  </scstep>
  <scstep>
   <time name="total">    0.94    0.48</time>
   <energy>
    <i name="e_fr_energy">   -130.19007239 </i>
    <i name="e_wo_entrp">   -130.19007239 </i>
    <i name="e_0_energy">   -130.19007239 </i>
   </energy>
  </scstep>
  <scstep>
   <time name="total">    1.30    0.67</time>
   <energy>
    <i name="e_fr_energy">   -258.97676277 </i>
    <i name="e_wo_entrp">   -258.97676277 </i>
    <i name="e_0_energy">   -258.97676277 </i>
   </energy>
  </scstep>
  <scstep>
   <time name="total">    1.30    0.70</time>
   <energy>
    <i name="e_fr_energy">   -259.83417433 </i>
    <i name="e_wo_entrp">   -259.83417433 </i>
    <i name="e_0_energy">   -259.83417433 </i>
   </energy>
  </scstep>
  <scstep>
   <time name="total">    1.07    0.57</time>
   <energy>
    <i name="e_fr_energy">   -259.96613032 </i>
    <i name="e_wo_entrp">   -259.96613032 </i>
    <i name="e_0_energy">   -259.96613032 </i>
   </energy>
  </scstep>
  <scstep>
   <time name="total">    1.15    0.59</time>
   <energy>
    <i name="e_fr_energy">   -259.97614786 </i>
    <i name="e_wo_entrp">   -259.97614786 </i>
    <i name="e_0_energy">   -259.97614786 </i>
   </energy>
  </scstep>
  <scstep>
   <time name="total">    1.16    0.59</time>
   <energy>
    <i name="e_fr_energy">   -259.97912274 </i>
    <i name="e_wo_entrp">   -259.97912274 </i>
    <i name="e_0_energy">   -259.97912274 </i>
   </energy>
  </scstep>
  <scstep>
   <time name="total">    1.24    0.63</time>
   <energy>
    <i name="e_fr_energy">   -259.97941275 </i>
    <i name="e_wo_entrp">   -259.97941275 </i>
    <i name="e_0_energy">   -259.97941275 </i>
   </energy>
  </scstep>
  <scstep>
   <time name="total">    1.19    0.60</time>
   <energy>
    <i name="e_fr_energy">   -259.97937976 </i>
    <i name="e_wo_entrp">   -259.97937976 </i>
    <i name="e_0_energy">   -259.97937976 </i>
   </energy>
  </scstep>
  <scstep>
   <time name="total">    1.24    0.62</time>
   <energy>
    <i name="e_fr_energy">   -259.97934029 </i>
    <i name="e_wo_entrp">   -259.97934029 </i>
    <i name="e_0_energy">   -259.97934029 </i>
   </energy>
  </scstep>
  <scstep>
   <time name="total">    1.23    0.62</time>
   <energy>
    <i name="e_fr_energy">   -259.97937913 </i>
    <i name="e_wo_entrp">   -259.97937913 </i>
    <i name="e_0_energy">   -259.97937913 </i>
   </energy>
  </scstep>
  <scstep>
   <time name="total">    1.17    0.59</time>
   <energy>
    <i name="e_fr_energy">   -259.97937349 </i>
    <i name="e_wo_entrp">   -259.97937349 </i>
    <i name="e_0_energy">   -259.97937349 </i>
   </energy>
  </scstep>
  <scstep>
   <time name="total">    1.16    0.58</time>
   <energy>
    <i name="e_fr_energy">   -259.97937611 </i>
    <i name="e_wo_entrp">   -259.97937611 </i>
    <i name="e_0_energy">   -259.97937611 </i>
   </energy>
  </scstep>
  <scstep>
   <time name="total">    1.09    0.54</time>
   <energy>
    <i name="e_fr_energy">   -259.97935959 </i>
    <i name="e_wo_entrp">   -259.97935959 </i>
    <i name="e_0_energy">   -259.97935959 </i>
   </energy>
  </scstep>
  <scstep>
   <time name="total">    0.92    0.46</time>
   <energy>
    <i name="e_fr_energy">   -129.05618816 </i>
    <i name="e_wo_entrp">   -129.05618816 </i>
    <i name="e_0_energy">   -129.05618816 </i>
   </energy>
  </scstep>
  <scstep>
   <time name="total">    1.31    0.68</time>
   <energy>
    <i name="e_fr_energy">   -263.66795237 </i>
    <i name="e_wo_entrp">   -263.66795237 </i>
    <i name="e_0_energy">   -263.66795237 </i>
   </energy>
  </scstep>
  <scstep>
   <time name="total">    1.28    0.69</time>
   <energy>
    <i name="e_fr_energy">   -264.70035441 </i>
    <i name="e_wo_entrp">   -264.70035441 </i>
    <i name="e_0_energy">   -264.70035441 </i>
   </energy>
  </scstep>
  <scstep>
   <time name="total">    1.10    0.57</time>
   <energy>
    <i name="e_fr_energy">   -265.01125007 </i>
    <i name="e_wo_entrp">   -265.01125007 </i>
    <i name="e_0_energy">   -265.01125007 </i>
   </energy>
  </scstep>
  <scstep>
   <time name="total">    1.14    0.61</time>
   <energy>
    <i name="e_fr_energy">   -265.01232828 </i>
    <i name="e_wo_entrp">   -265.01232828 </i>
    <i name="e_0_energy">   -265.01232828 </i>
   </energy>
  </scstep>
  <scstep>
   <time name="total">    1.14    0.60</time>
   <energy>
    <i name="e_fr_energy">   -265.01634469 </i>
    <i name="e_wo_entrp">   -265.01634469 </i>
    <i name="e_0_energy">   -265.01634469 </i>
   </energy>
  </scstep>
  <scstep>
   <time name="total">    1.23    0.62</time>
   <energy>
    <i name="e_fr_energy">   -265.01650216 </i>
    <i name="e_wo_entrp">   -265.01650216 </i>
    <i name="e_0_energy">   -265.01650216 </i>
   </energy>
  </scstep>
  <scstep>
   <time name="total">    1.26    0.63</time>
   <energy>
    <i name="e_fr_energy">   -265.01652130 </i>
    <i name="e_wo_entrp">   -265.01652130 </i>
    <i name="e_0_energy">   -265.01652130 </i>
   </energy>
  </scstep>
  <scstep>
   <time name="total">    1.25    0.62</time>
   <energy>
    <i name="e_fr_energy">   -265.01652273 </i>
    <i name="e_wo_entrp">   -265.01652273 </i>
    <i name="e_0_energy">   -265.01652273 </i>
   </energy>
  </scstep>
  <scstep>
   <time name="total">    1.24    0.63</time>
   <energy>
    <i name="e_fr_energy">   -265.01652422 </i>
    <i name="e_wo_entrp">   -265.01652422 </i>
    <i name="e_0_energy">   -265.01652422 </i>
   </energy>
  </scstep>
  <scstep>
   <time name="total">    1.20    0.62</time>
   <energy>
    <i name="e_fr_energy">   -265.01653993 </i>
    <i name="e_wo_entrp">   -265.01653993 </i>
    <i name="e_0_energy">   -265.01653993 </i>
   </energy>
  </scstep>
  <scstep>
   <time name="total">    1.17    0.60</time>
   <energy>
    <i name="e_fr_energy">   -265.01652491 </i>
    <i name="e_wo_entrp">   -265.01652491 </i>
    <i name="e_0_energy">   -265.01652491 </i>
   </energy>
  </scstep>
  <scstep>
   <time name="total">    1.10    0.55</time>
   <energy>
    <i name="e_fr_energy">   -265.01653532 </i>
    <i name="e_wo_entrp">   -265.01653532 </i>
    <i name="e_0_energy">   -265.01653532 </i>
   </energy>
  </scstep>
  <scstep>
   <time name="total">    1.59    1.08</time>
   <energy>
    <i name="e_fr_energy">     -2.39901136 </i>
    <i name="e_wo_entrp">     -2.39901136 </i>
    <i name="e_0_energy">     -2.39901136 </i>
   </energy>
  </scstep>
  <scstep>
   <time name="total">    2.00    1.24</time>
   <energy>
    <i name="e_fr_energy">    -14.01749657 </i>
    <i name="e_wo_entrp">    -14.01749657 </i>
    <i name="e_0_energy">    -14.01749657 </i>
   </energy>
  </scstep>
  <scstep>
   <time name="total">    2.02    1.25</time>
   <energy>
    <i name="e_fr_energy">    -14.09164831 </i>
    <i name="e_wo_entrp">    -14.09164831 </i>
    <i name="e_0_energy">    -14.09164831 </i>
   </energy>
  </scstep>
  <scstep>
   <time name="total">    2.07    1.28</time>
   <energy>
    <i name="e_fr_energy">    -14.09208194 </i>
    <i name="e_wo_entrp">    -14.09208194 </i>
    <i name="e_0_energy">    -14.09208194 </i>
   </energy>
  </scstep>
  <scstep>
   <time name="total">    2.04    1.26</time>
   <energy>
    <i name="e_fr_energy">    -14.09217149 </i>
    <i name="e_wo_entrp">    -14.09217149 </i>
    <i name="e_0_energy">    -14.09217149 </i>
   </energy>
  </scstep>
  <scstep>
   <time name="total">    2.03    1.25</time>
   <energy>
    <i name="e_fr_energy">    -14.09217547 </i>
    <i name="e_wo_entrp">    -14.09217547 </i>
    <i name="e_0_energy">    -14.09217547 </i>
   </energy>
  </scstep>
  <scstep>
   <time name="total">    2.09    1.30</time>
   <energy>
    <i name="e_fr_energy">    -14.09217673 </i>
    <i name="e_wo_entrp">    -14.09217673 </i>
    <i name="e_0_energy">    -14.09217673 </i>
   </energy>
  </scstep>
  <scstep>
   <time name="total">    2.09    1.26</time>
   <energy>
    <i name="e_fr_energy">    -14.09217684 </i>
    <i name="e_wo_entrp">    -14.09217684 </i>
    <i name="e_0_energy">    -14.09217684 </i>
   </energy>
  </scstep>
  <scstep>
   <time name="total">    2.08    1.25</time>
   <energy>
    <i name="e_fr_energy">    -14.09217686 </i>
    <i name="e_wo_entrp">    -14.09217686 </i>
    <i name="e_0_energy">    -14.09217686 </i>
   </energy>
  </scstep>
  <scstep>
   <time name="total">    2.08    1.25</time>
   <energy>
    <i name="e_fr_energy">    -14.09217686 </i>
    <i name="e_wo_entrp">    -14.09217686 </i>
    <i name="e_0_energy">    -14.09217686 </i>
   </energy>
  </scstep>
  <scstep>
   <time name="total">    1.99    1.21</time>
   <energy>
    <i name="e_fr_energy">    -14.09217686 </i>
    <i name="e_wo_entrp">    -14.09217686 </i>
    <i name="e_0_energy">    -14.09217686 </i>
   </energy>
  </scstep>
  <scstep>
   <time name="total">    1.93    1.18</time>
   <energy>
    <i name="e_fr_energy">    -14.09217686 </i>
    <i name="e_wo_entrp">    -14.09217686 </i>
    <i name="e_0_energy">    -14.09217686 </i>
   </energy>
  </scstep>
  <scstep>
   <time name="total">    1.91    1.17</time>
   <energy>
    <i name="e_fr_energy">    -14.09217686 </i>
    <i name="e_wo_entrp">    -14.09217686 </i>
    <i name="e_0_energy">    -14.09217686 </i>
   </energy>
  </scstep>
  <scstep>
   <time name="total">    1.56    1.07</time>
   <energy>
    <i name="e_fr_energy">     -3.86145237 </i>
    <i name="e_wo_entrp">     -3.86145237 </i>
    <i name="e_0_energy">     -3.86145237 </i>
   </energy>
  </scstep>
  <scstep>
   <time name="total">    2.00    1.23</time>
   <energy>
    <i name="e_fr_energy">    -16.89303406 </i>
    <i name="e_wo_entrp">    -16.89303406 </i>
    <i name="e_0_energy">    -16.89303406 </i>
   </energy>
  </scstep>
  <scstep>
   <time name="total">    2.03    1.25</time>
   <energy>
    <i name="e_fr_energy">    -16.97966129 </i>
    <i name="e_wo_entrp">    -16.97966129 </i>
    <i name="e_0_energy">    -16.97966129 </i>
   </energy>
  </scstep>
  <scstep>
   <time name="total">    2.04    1.27</time>
   <energy>
    <i name="e_fr_energy">    -16.98009686 </i>
    <i name="e_wo_entrp">    -16.98009686 </i>
    <i name="e_0_energy">    -16.98009686 </i>
   </energy>
  </scstep>
  <scstep>
   <time name="total">    2.06    1.26</time>
   <energy>
    <i name="e_fr_energy">    -16.98017479 </i>
    <i name="e_wo_entrp">    -16.98017479 </i>
    <i name="e_0_energy">    -16.98017479 </i>
   </energy>
  </scstep>
  <scstep>
   <time name="total">    2.05    1.26</time>
   <energy>
    <i name="e_fr_energy">    -16.98017806 </i>
    <i name="e_wo_entrp">    -16.98017806 </i>
    <i name="e_0_energy">    -16.98017806 </i>
   </energy>
  </scstep>
  <scstep>
   <time name="total">    2.05    1.28</time>
   <energy>
    <i name="e_fr_energy">    -16.98017937 </i>
    <i name="e_wo_entrp">    -16.98017937 </i>
    <i name="e_0_energy">    -16.98017937 </i>
   </energy>
  </scstep>
  <scstep>
   <time name="total">    2.07    1.25</time>
   <energy>
    <i name="e_fr_energy">    -16.98017946 </i>
    <i name="e_wo_entrp">    -16.98017946 </i>
    <i name="e_0_energy">    -16.98017946 </i>
   </energy>
  </scstep>
  <scstep>
   <time name="total">    2.06    1.24</time>
   <energy>
    <i name="e_fr_energy">    -16.98017949 </i>
    <i name="e_wo_entrp">    -16.98017949 </i>
    <i name="e_0_energy">    -16.98017949 </i>
   </energy>
  </scstep>
  <scstep>
   <time name="total">    2.02    1.22</time>
   <energy>
    <i name="e_fr_energy">    -16.98017949 </i>
    <i name="e_wo_entrp">    -16.98017949 </i>
    <i name="e_0_energy">    -16.98017949 </i>
   </energy>
  </scstep>
  <scstep>
   <time name="total">    2.02    1.22</time>
   <energy>
    <i name="e_fr_energy">    -16.98017949 </i>
    <i name="e_wo_entrp">    -16.98017949 </i>
    <i name="e_0_energy">    -16.98017949 </i>
   </energy>
  </scstep>
  <scstep>
   <time name="total">    1.91    1.17</time>
   <energy>
    <i name="e_fr_energy">    -16.98017949 </i>
    <i name="e_wo_entrp">    -16.98017949 </i>
    <i name="e_0_energy">    -16.98017949 </i>
   </energy>
  </scstep>
  <scstep>
   <time name="total">    1.60    1.08</time>
   <energy>
    <i name="e_fr_energy">     -4.13856560 </i>
    <i name="e_wo_entrp">     -4.13856560 </i>
    <i name="e_0_energy">     -4.13856560 </i>
   </energy>
  </scstep>
  <scstep>
   <time name="total">    2.01    1.25</time>
   <energy>
    <i name="e_fr_energy">    -15.62812163 </i>
    <i name="e_wo_entrp">    -15.62812163 </i>
    <i name="e_0_energy">    -15.62812163 </i>
   </energy>
  </scstep>
  <scstep>
   <time name="total">    2.02    1.24</time>
   <energy>
    <i name="e_fr_energy">    -15.69189674 </i>
    <i name="e_wo_entrp">    -15.69189674 </i>
    <i name="e_0_energy">    -15.69189674 </i>
   </energy>
  </scstep>
  <scstep>
   <time name="total">    2.06    1.27</time>
   <energy>
    <i name="e_fr_energy">    -15.69230154 </i>
    <i name="e_wo_entrp">    -15.69230154 </i>
    <i name="e_0_energy">    -15.69230154 </i>
   </energy>
  </scstep>
  <scstep>
   <time name="total">    2.02    1.24</time>
   <energy>
    <i name="e_fr_energy">    -15.69240126 </i>
    <i name="e_wo_entrp">    -15.69240126 </i>
    <i name="e_0_energy">    -15.69240126 </i>
   </energy>
  </scstep>
  <scstep>
   <time name="total">    2.08    1.28</time>
   <energy>
    <i name="e_fr_energy">    -15.69240503 </i>
    <i name="e_wo_entrp">    -15.69240503 </i>
    <i name="e_0_energy">    -15.69240503 </i>
   </energy>
  </scstep>
  <scstep>
   <time name="total">    2.08    1.28</time>
   <energy>
    <i name="e_fr_energy">    -15.69240672 </i>
    <i name="e_wo_entrp">    -15.69240672 </i>
    <i name="e_0_energy">    -15.69240672 </i>
   </energy>
  </scstep>
  <scstep>
   <time name="total">    2.07    1.25</time>
   <energy>
    <i name="e_fr_energy">    -15.69240682 </i>
    <i name="e_wo_entrp">    -15.69240682 </i>
    <i name="e_0_energy">    -15.69240682 </i>
   </energy>
  </scstep>
  <scstep>
   <time name="total">    2.07    1.25</time>
   <energy>
    <i name="e_fr_energy">    -15.69240686 </i>
    <i name="e_wo_entrp">    -15.69240686 </i>
    <i name="e_0_energy">    -15.69240686 </i>
   </energy>
  </scstep>
  <scstep>
   <time name="total">    2.08    1.25</time>
   <energy>
    <i name="e_fr_energy">    -15.69240686 </i>
    <i name="e_wo_entrp">    -15.69240686 </i>
    <i name="e_0_energy">    -15.69240686 </i>
   </energy>
  </scstep>
  <varray name="dielectric_ipa" >
   <v>      26.09197722       0.00000000       0.00000000 </v>
   <v>      -0.00000000      31.23424014       0.00000000 </v>
   <v>       0.00000000       0.00000000      28.94128321 </v>
  </varray>
  <kpoints>
   <generation param="Gamma">
    <v type="int" name="divisions">       8        9        3 </v>
    <v name="usershift">      0.00000000       0.00000000       0.00000000 </v>
    <v name="genvec1">      0.12500000       0.00000000       0.00000000 </v>
    <v name="genvec2">      0.00000000       0.11111111       0.00000000 </v>
    <v name="genvec3">      0.00000000       0.00000000       0.33333333 </v>
    <v name="shift">      0.00000000       0.00000000       0.00000000 </v>
   </generation>
   <varray name="kpointlist" >
    <v>       0.00000000       0.00000000       0.00000000 </v>
    <v>       0.12500000       0.00000000       0.00000000 </v>
    <v>       0.25000000       0.00000000       0.00000000 </v>
    <v>       0.37500000       0.00000000       0.00000000 </v>
    <v>       0.50000000       0.00000000       0.00000000 </v>
    <v>       0.00000000       0.11111111       0.00000000 </v>
    <v>       0.12500000       0.11111111       0.00000000 </v>
    <v>       0.25000000       0.11111111       0.00000000 </v>
    <v>       0.37500000       0.11111111       0.00000000 </v>
    <v>       0.50000000       0.11111111       0.00000000 </v>
    <v>       0.00000000       0.22222222       0.00000000 </v>
    <v>       0.12500000       0.22222222       0.00000000 </v>
    <v>       0.25000000       0.22222222       0.00000000 </v>
    <v>       0.37500000       0.22222222       0.00000000 </v>
    <v>       0.50000000       0.22222222       0.00000000 </v>
    <v>       0.00000000       0.33333333       0.00000000 </v>
    <v>       0.12500000       0.33333333       0.00000000 </v>
    <v>       0.25000000       0.33333333       0.00000000 </v>
    <v>       0.37500000       0.33333333       0.00000000 </v>
    <v>       0.50000000       0.33333333       0.00000000 </v>
    <v>       0.00000000       0.44444444       0.00000000 </v>
    <v>       0.12500000       0.44444444       0.00000000 </v>
    <v>       0.25000000       0.44444444       0.00000000 </v>
    <v>       0.37500000       0.44444444       0.00000000 </v>
    <v>       0.50000000       0.44444444       0.00000000 </v>
    <v>       0.00000000       0.00000000       0.33333333 </v>
    <v>       0.12500000       0.00000000       0.33333333 </v>
    <v>       0.25000000       0.00000000       0.33333333 </v>
    <v>       0.37500000       0.00000000       0.33333333 </v>
    <v>       0.50000000       0.00000000       0.33333333 </v>
    <v>       0.00000000       0.11111111       0.33333333 </v>
    <v>       0.12500000       0.11111111       0.33333333 </v>
    <v>       0.25000000       0.11111111       0.33333333 </v>
    <v>       0.37500000       0.11111111       0.33333333 </v>
    <v>       0.50000000       0.11111111       0.33333333 </v>
    <v>       0.00000000       0.22222222       0.33333333 </v>
    <v>       0.12500000       0.22222222       0.33333333 </v>
    <v>       0.25000000       0.22222222       0.33333333 </v>
    <v>       0.37500000       0.22222222       0.33333333 </v>
    <v>       0.50000000       0.22222222       0.33333333 </v>
    <v>       0.00000000       0.33333333       0.33333333 </v>
    <v>       0.12500000       0.33333333       0.33333333 </v>
    <v>       0.25000000       0.33333333       0.33333333 </v>
    <v>       0.37500000       0.33333333       0.33333333 </v>
    <v>       0.50000000       0.33333333       0.33333333 </v>
    <v>       0.00000000       0.44444444       0.33333333 </v>
    <v>       0.12500000       0.44444444       0.33333333 </v>
    <v>       0.25000000       0.44444444       0.33333333 </v>
    <v>       0.37500000       0.44444444       0.33333333 </v>
    <v>       0.50000000       0.44444444       0.33333333 </v>
   </varray>
   <varray name="weights" >
    <v>       0.00462963 </v>
    <v>       0.00925926 </v>
    <v>       0.00925926 </v>
    <v>       0.00925926 </v>
    <v>       0.00462963 </v>
    <v>       0.00925926 </v>
    <v>       0.01851852 </v>
    <v>       0.01851852 </v>
    <v>       0.01851852 </v>
    <v>       0.00925926 </v>
    <v>       0.00925926 </v>
    <v>       0.01851852 </v>
    <v>       0.01851852 </v>
    <v>       0.01851852 </v>
    <v>       0.00925926 </v>
    <v>       0.00925926 </v>
    <v>       0.01851852 </v>
    <v>       0.01851852 </v>
    <v>       0.01851852 </v>
    <v>       0.00925926 </v>
    <v>       0.00925926 </v>
    <v>       0.01851852 </v>
    <v>       0.01851852 </v>
    <v>       0.01851852 </v>
    <v>       0.00925926 </v>
    <v>       0.00925926 </v>
    <v>       0.01851852 </v>
    <v>       0.01851852 </v>
    <v>       0.01851852 </v>
    <v>       0.00925926 </v>
    <v>       0.01851852 </v>
    <v>       0.03703704 </v>
    <v>       0.03703704 </v>
    <v>       0.03703704 </v>
    <v>       0.01851852 </v>
    <v>       0.01851852 </v>
    <v>       0.03703704 </v>
    <v>       0.03703704 </v>
    <v>       0.03703704 </v>
    <v>       0.01851852 </v>
    <v>       0.01851852 </v>
    <v>       0.03703704 </v>
    <v>       0.03703704 </v>
    <v>       0.03703704 </v>
    <v>       0.01851852 </v>
    <v>       0.01851852 </v>
    <v>       0.03703704 </v>
    <v>       0.03703704 </v>
    <v>       0.03703704 </v>
    <v>       0.01851852 </v>
   </varray>
  </kpoints>
  <scstep>
   <time name="total">    1.58    1.08</time>
   <energy>
    <i name="e_fr_energy">     -2.39901136 </i>
    <i name="e_wo_entrp">     -2.39901136 </i>
    <i name="e_0_energy">     -2.39901136 </i>
   </energy>
  </scstep>
  <scstep>
   <time name="total">    2.29    1.41</time>
   <energy>
    <i name="e_fr_energy">    -14.01749657 </i>
    <i name="e_wo_entrp">    -14.01749657 </i>
    <i name="e_0_energy">    -14.01749657 </i>
   </energy>
  </scstep>
  <scstep>
   <time name="total">    2.18    1.41</time>
   <energy>
    <i name="e_fr_energy">    -13.49306652 </i>
    <i name="e_wo_entrp">    -13.49306652 </i>
    <i name="e_0_energy">    -13.49306652 </i>
   </energy>
  </scstep>
  <scstep>
   <time name="total">    2.17    1.40</time>
   <energy>
    <i name="e_fr_energy">    -13.66340613 </i>
    <i name="e_wo_entrp">    -13.66340613 </i>
    <i name="e_0_energy">    -13.66340613 </i>
   </energy>
  </scstep>
  <scstep>
   <time name="total">    2.19    1.41</time>
   <energy>
    <i name="e_fr_energy">    -13.86418885 </i>
    <i name="e_wo_entrp">    -13.86418885 </i>
    <i name="e_0_energy">    -13.86418885 </i>
   </energy>
  </scstep>
  <scstep>
   <time name="total">    2.25    1.41</time>
   <energy>
    <i name="e_fr_energy">    -13.91836290 </i>
    <i name="e_wo_entrp">    -13.91836290 </i>
    <i name="e_0_energy">    -13.91836290 </i>
   </energy>
  </scstep>
  <scstep>
   <time name="total">    2.28    1.43</time>
   <energy>
    <i name="e_fr_energy">    -13.92914637 </i>
    <i name="e_wo_entrp">    -13.92914637 </i>
    <i name="e_0_energy">    -13.92914637 </i>
   </energy>
  </scstep>
  <scstep>
   <time name="total">    2.24    1.40</time>
   <energy>
    <i name="e_fr_energy">    -13.92757041 </i>
    <i name="e_wo_entrp">    -13.92757041 </i>
    <i name="e_0_energy">    -13.92757041 </i>
   </energy>
  </scstep>
  <scstep>
   <time name="total">    2.32    1.45</time>
   <energy>
    <i name="e_fr_energy">    -13.93668973 </i>
    <i name="e_wo_entrp">    -13.93668973 </i>
    <i name="e_0_energy">    -13.93668973 </i>
   </energy>
  </scstep>
  <scstep>
   <time name="total">    2.27    1.42</time>
   <energy>
    <i name="e_fr_energy">    -13.93402661 </i>
    <i name="e_wo_entrp">    -13.93402661 </i>
    <i name="e_0_energy">    -13.93402661 </i>
   </energy>
  </scstep>
  <scstep>
   <time name="total">    2.24    1.41</time>
   <energy>
    <i name="e_fr_energy">    -13.93694181 </i>
    <i name="e_wo_entrp">    -13.93694181 </i>
    <i name="e_0_energy">    -13.93694181 </i>
   </energy>
  </scstep>
  <scstep>
   <time name="total">    2.24    1.40</time>
   <energy>
    <i name="e_fr_energy">    -13.93437896 </i>
    <i name="e_wo_entrp">    -13.93437896 </i>
    <i name="e_0_energy">    -13.93437896 </i>
   </energy>
  </scstep>
  <scstep>
   <time name="total">    2.26    1.42</time>
   <energy>
    <i name="e_fr_energy">    -13.93425758 </i>
    <i name="e_wo_entrp">    -13.93425758 </i>
    <i name="e_0_energy">    -13.93425758 </i>
   </energy>
  </scstep>
  <scstep>
   <time name="total">    2.21    1.39</time>
   <energy>
    <i name="e_fr_energy">    -13.93730918 </i>
    <i name="e_wo_entrp">    -13.93730918 </i>
    <i name="e_0_energy">    -13.93730918 </i>
   </energy>
  </scstep>
  <scstep>
   <time name="total">    2.19    1.38</time>
   <energy>
    <i name="e_fr_energy">    -13.93475949 </i>
    <i name="e_wo_entrp">    -13.93475949 </i>
    <i name="e_0_energy">    -13.93475949 </i>
   </energy>
  </scstep>
  <scstep>
   <time name="total">    2.15    1.36</time>
   <energy>
    <i name="e_fr_energy">    -13.93596188 </i>
    <i name="e_wo_entrp">    -13.93596188 </i>
    <i name="e_0_energy">    -13.93596188 </i>
   </energy>
  </scstep>
  <scstep>
   <time name="total">    2.10    1.34</time>
   <energy>
    <i name="e_fr_energy">    -13.93628455 </i>
    <i name="e_wo_entrp">    -13.93628455 </i>
    <i name="e_0_energy">    -13.93628455 </i>
   </energy>
  </scstep>
  <scstep>
   <time name="total">    2.07    1.32</time>
   <energy>
    <i name="e_fr_energy">    -13.93701392 </i>
    <i name="e_wo_entrp">    -13.93701392 </i>
    <i name="e_0_energy">    -13.93701392 </i>
   </energy>
  </scstep>
  <scstep>
   <time name="total">    2.08    1.33</time>
   <energy>
    <i name="e_fr_energy">    -13.93767523 </i>
    <i name="e_wo_entrp">    -13.93767523 </i>
    <i name="e_0_energy">    -13.93767523 </i>
   </energy>
  </scstep>
  <scstep>
   <time name="total">    2.07    1.32</time>
   <energy>
    <i name="e_fr_energy">    -13.93731525 </i>
    <i name="e_wo_entrp">    -13.93731525 </i>
    <i name="e_0_energy">    -13.93731525 </i>
   </energy>
  </scstep>
  <scstep>
   <time name="total">    2.06    1.32</time>
   <energy>
    <i name="e_fr_energy">    -13.93505514 </i>
    <i name="e_wo_entrp">    -13.93505514 </i>
    <i name="e_0_energy">    -13.93505514 </i>
   </energy>
  </scstep>
  <scstep>
   <time name="total">    2.06    1.32</time>
   <energy>
    <i name="e_fr_energy">    -13.93743952 </i>
    <i name="e_wo_entrp">    -13.93743952 </i>
    <i name="e_0_energy">    -13.93743952 </i>
   </energy>
  </scstep>
  <scstep>
   <time name="total">    2.07    1.32</time>
   <energy>
    <i name="e_fr_energy">    -13.93460385 </i>
    <i name="e_wo_entrp">    -13.93460385 </i>
    <i name="e_0_energy">    -13.93460385 </i>
   </energy>
  </scstep>
  <scstep>
   <time name="total">    2.08    1.33</time>
   <energy>
    <i name="e_fr_energy">    -13.93457407 </i>
    <i name="e_wo_entrp">    -13.93457407 </i>
    <i name="e_0_energy">    -13.93457407 </i>
   </energy>
  </scstep>
  <scstep>
   <time name="total">    2.09    1.33</time>
   <energy>
    <i name="e_fr_energy">    -13.93738748 </i>
    <i name="e_wo_entrp">    -13.93738748 </i>
    <i name="e_0_energy">    -13.93738748 </i>
   </energy>
  </scstep>
  <scstep>
   <time name="total">    2.09    1.33</time>
   <energy>
    <i name="e_fr_energy">    -13.93666413 </i>
    <i name="e_wo_entrp">    -13.93666413 </i>
    <i name="e_0_energy">    -13.93666413 </i>
   </energy>
  </scstep>
  <scstep>
   <time name="total">    2.07    1.32</time>
   <energy>
    <i name="e_fr_energy">    -13.93727235 </i>
    <i name="e_wo_entrp">    -13.93727235 </i>
    <i name="e_0_energy">    -13.93727235 </i>
   </energy>
  </scstep>
  <scstep>
   <time name="total">    2.08    1.33</time>
   <energy>
    <i name="e_fr_energy">    -13.93686792 </i>
    <i name="e_wo_entrp">    -13.93686792 </i>
    <i name="e_0_energy">    -13.93686792 </i>
   </energy>
  </scstep>
  <scstep>
   <time name="total">    2.07    1.32</time>
   <energy>
    <i name="e_fr_energy">    -13.93593751 </i>
    <i name="e_wo_entrp">    -13.93593751 </i>
    <i name="e_0_energy">    -13.93593751 </i>
   </energy>
  </scstep>
  <scstep>
   <time name="total">    2.10    1.34</time>
   <energy>
    <i name="e_fr_energy">    -13.93537201 </i>
    <i name="e_wo_entrp">    -13.93537201 </i>
    <i name="e_0_energy">    -13.93537201 </i>
   </energy>
  </scstep>
  <scstep>
   <time name="total">    2.11    1.34</time>
   <energy>
    <i name="e_fr_energy">    -13.93527589 </i>
    <i name="e_wo_entrp">    -13.93527589 </i>
    <i name="e_0_energy">    -13.93527589 </i>
   </energy>
  </scstep>
  <scstep>
   <time name="total">    2.09    1.33</time>
   <energy>
    <i name="e_fr_energy">    -13.93659795 </i>
    <i name="e_wo_entrp">    -13.93659795 </i>
    <i name="e_0_energy">    -13.93659795 </i>
   </energy>
  </scstep>
  <scstep>
   <time name="total">    2.11    1.34</time>
   <energy>
    <i name="e_fr_energy">    -13.93554972 </i>
    <i name="e_wo_entrp">    -13.93554972 </i>
    <i name="e_0_energy">    -13.93554972 </i>
   </energy>
  </scstep>
  <kpoints>
   <generation param="Gamma">
    <v type="int" name="divisions">       8        9        3 </v>
    <v name="usershift">      0.00000000       0.00000000       0.00000000 </v>
    <v name="genvec1">      0.12500000       0.00000000       0.00000000 </v>
    <v name="genvec2">      0.00000000       0.11111111       0.00000000 </v>
    <v name="genvec3">      0.00000000       0.00000000       0.33333333 </v>
    <v name="shift">      0.00000000       0.00000000       0.00000000 </v>
   </generation>
   <varray name="kpointlist" >
    <v>       0.00000000       0.00000000       0.00000000 </v>
    <v>       0.12500000       0.00000000       0.00000000 </v>
    <v>       0.25000000       0.00000000       0.00000000 </v>
    <v>       0.37500000       0.00000000       0.00000000 </v>
    <v>       0.50000000       0.00000000       0.00000000 </v>
    <v>       0.00000000       0.11111111       0.00000000 </v>
    <v>       0.12500000       0.11111111       0.00000000 </v>
    <v>       0.25000000       0.11111111       0.00000000 </v>
    <v>       0.37500000       0.11111111       0.00000000 </v>
    <v>       0.50000000       0.11111111       0.00000000 </v>
    <v>       0.00000000       0.22222222       0.00000000 </v>
    <v>       0.12500000       0.22222222       0.00000000 </v>
    <v>       0.25000000       0.22222222       0.00000000 </v>
    <v>       0.37500000       0.22222222       0.00000000 </v>
    <v>       0.50000000       0.22222222       0.00000000 </v>
    <v>       0.00000000       0.33333333       0.00000000 </v>
    <v>       0.12500000       0.33333333       0.00000000 </v>
    <v>       0.25000000       0.33333333       0.00000000 </v>
    <v>       0.37500000       0.33333333       0.00000000 </v>
    <v>       0.50000000       0.33333333       0.00000000 </v>
    <v>       0.00000000       0.44444444       0.00000000 </v>
    <v>       0.12500000       0.44444444       0.00000000 </v>
    <v>       0.25000000       0.44444444       0.00000000 </v>
    <v>       0.37500000       0.44444444       0.00000000 </v>
    <v>       0.50000000       0.44444444       0.00000000 </v>
    <v>       0.00000000       0.00000000       0.33333333 </v>
    <v>       0.12500000       0.00000000       0.33333333 </v>
    <v>       0.25000000       0.00000000       0.33333333 </v>
    <v>       0.37500000       0.00000000       0.33333333 </v>
    <v>       0.50000000       0.00000000       0.33333333 </v>
    <v>       0.00000000       0.11111111       0.33333333 </v>
    <v>       0.12500000       0.11111111       0.33333333 </v>
    <v>       0.25000000       0.11111111       0.33333333 </v>
    <v>       0.37500000       0.11111111       0.33333333 </v>
    <v>       0.50000000       0.11111111       0.33333333 </v>
    <v>       0.00000000       0.22222222       0.33333333 </v>
    <v>       0.12500000       0.22222222       0.33333333 </v>
    <v>       0.25000000       0.22222222       0.33333333 </v>
    <v>       0.37500000       0.22222222       0.33333333 </v>
    <v>       0.50000000       0.22222222       0.33333333 </v>
    <v>       0.00000000       0.33333333       0.33333333 </v>
    <v>       0.12500000       0.33333333       0.33333333 </v>
    <v>       0.25000000       0.33333333       0.33333333 </v>
    <v>       0.37500000       0.33333333       0.33333333 </v>
    <v>       0.50000000       0.33333333       0.33333333 </v>
    <v>       0.00000000       0.44444444       0.33333333 </v>
    <v>       0.12500000       0.44444444       0.33333333 </v>
    <v>       0.25000000       0.44444444       0.33333333 </v>
    <v>       0.37500000       0.44444444       0.33333333 </v>
    <v>       0.50000000       0.44444444       0.33333333 </v>
   </varray>
   <varray name="weights" >
    <v>       0.00462963 </v>
    <v>       0.00925926 </v>
    <v>       0.00925926 </v>
    <v>       0.00925926 </v>
    <v>       0.00462963 </v>
    <v>       0.00925926 </v>
    <v>       0.01851852 </v>
    <v>       0.01851852 </v>
    <v>       0.01851852 </v>
    <v>       0.00925926 </v>
    <v>       0.00925926 </v>
    <v>       0.01851852 </v>
    <v>       0.01851852 </v>
    <v>       0.01851852 </v>
    <v>       0.00925926 </v>
    <v>       0.00925926 </v>
    <v>       0.01851852 </v>
    <v>       0.01851852 </v>
    <v>       0.01851852 </v>
    <v>       0.00925926 </v>
    <v>       0.00925926 </v>
    <v>       0.01851852 </v>
    <v>       0.01851852 </v>
    <v>       0.01851852 </v>
    <v>       0.00925926 </v>
    <v>       0.00925926 </v>
    <v>       0.01851852 </v>
    <v>       0.01851852 </v>
    <v>       0.01851852 </v>
    <v>       0.00925926 </v>
    <v>       0.01851852 </v>
    <v>       0.03703704 </v>
    <v>       0.03703704 </v>
    <v>       0.03703704 </v>
    <v>       0.01851852 </v>
    <v>       0.01851852 </v>
    <v>       0.03703704 </v>
    <v>       0.03703704 </v>
    <v>       0.03703704 </v>
    <v>       0.01851852 </v>
    <v>       0.01851852 </v>
    <v>       0.03703704 </v>
    <v>       0.03703704 </v>
    <v>       0.03703704 </v>
    <v>       0.01851852 </v>
    <v>       0.01851852 </v>
    <v>       0.03703704 </v>
    <v>       0.03703704 </v>
    <v>       0.03703704 </v>
    <v>       0.01851852 </v>
   </varray>
  </kpoints>
  <scstep>
   <time name="total">    1.54    1.04</time>
   <energy>
    <i name="e_fr_energy">     -3.86145237 </i>
    <i name="e_wo_entrp">     -3.86145237 </i>
    <i name="e_0_energy">     -3.86145237 </i>
   </energy>
  </scstep>
  <scstep>
   <time name="total">    2.24    1.36</time>
   <energy>
    <i name="e_fr_energy">    -16.89303406 </i>
    <i name="e_wo_entrp">    -16.89303406 </i>
    <i name="e_0_energy">    -16.89303406 </i>
   </energy>
  </scstep>
  <scstep>
   <time name="total">    2.10    1.35</time>
   <energy>
    <i name="e_fr_energy">    -16.61362853 </i>
    <i name="e_wo_entrp">    -16.61362853 </i>
    <i name="e_0_energy">    -16.61362853 </i>
   </energy>
  </scstep>
  <scstep>
   <time name="total">    2.12    1.33</time>
   <energy>
    <i name="e_fr_energy">    -17.06240170 </i>
    <i name="e_wo_entrp">    -17.06240170 </i>
    <i name="e_0_energy">    -17.06240170 </i>
   </energy>
  </scstep>
  <scstep>
   <time name="total">    2.16    1.37</time>
   <energy>
    <i name="e_fr_energy">    -17.18596836 </i>
    <i name="e_wo_entrp">    -17.18596836 </i>
    <i name="e_0_energy">    -17.18596836 </i>
   </energy>
  </scstep>
  <scstep>
   <time name="total">    2.23    1.39</time>
   <energy>
    <i name="e_fr_energy">    -17.20506501 </i>
    <i name="e_wo_entrp">    -17.20506501 </i>
    <i name="e_0_energy">    -17.20506501 </i>
   </energy>
  </scstep>
  <scstep>
   <time name="total">    2.20    1.37</time>
   <energy>
    <i name="e_fr_energy">    -17.20440688 </i>
    <i name="e_wo_entrp">    -17.20440688 </i>
    <i name="e_0_energy">    -17.20440688 </i>
   </energy>
  </scstep>
  <scstep>
   <time name="total">    2.28    1.41</time>
   <energy>
    <i name="e_fr_energy">    -17.20799878 </i>
    <i name="e_wo_entrp">    -17.20799878 </i>
    <i name="e_0_energy">    -17.20799878 </i>
   </energy>
  </scstep>
  <scstep>
   <time name="total">    2.24    1.40</time>
   <energy>
    <i name="e_fr_energy">    -17.20583979 </i>
    <i name="e_wo_entrp">    -17.20583979 </i>
    <i name="e_0_energy">    -17.20583979 </i>
   </energy>
  </scstep>
  <scstep>
   <time name="total">    2.26    1.40</time>
   <energy>
    <i name="e_fr_energy">    -17.20793598 </i>
    <i name="e_wo_entrp">    -17.20793598 </i>
    <i name="e_0_energy">    -17.20793598 </i>
   </energy>
  </scstep>
  <scstep>
   <time name="total">    2.29    1.42</time>
   <energy>
    <i name="e_fr_energy">    -17.20515661 </i>
    <i name="e_wo_entrp">    -17.20515661 </i>
    <i name="e_0_energy">    -17.20515661 </i>
   </energy>
  </scstep>
  <scstep>
   <time name="total">    2.28    1.42</time>
   <energy>
    <i name="e_fr_energy">    -17.20722310 </i>
    <i name="e_wo_entrp">    -17.20722310 </i>
    <i name="e_0_energy">    -17.20722310 </i>
   </energy>
  </scstep>
  <scstep>
   <time name="total">    2.23    1.39</time>
   <energy>
    <i name="e_fr_energy">    -17.20684275 </i>
    <i name="e_wo_entrp">    -17.20684275 </i>
    <i name="e_0_energy">    -17.20684275 </i>
   </energy>
  </scstep>
  <scstep>
   <time name="total">    2.13    1.34</time>
   <energy>
    <i name="e_fr_energy">    -17.20679745 </i>
    <i name="e_wo_entrp">    -17.20679745 </i>
    <i name="e_0_energy">    -17.20679745 </i>
   </energy>
  </scstep>
  <scstep>
   <time name="total">    2.12    1.34</time>
   <energy>
    <i name="e_fr_energy">    -17.20571291 </i>
    <i name="e_wo_entrp">    -17.20571291 </i>
    <i name="e_0_energy">    -17.20571291 </i>
   </energy>
  </scstep>
  <scstep>
   <time name="total">    2.05    1.30</time>
   <energy>
    <i name="e_fr_energy">    -17.20612990 </i>
    <i name="e_wo_entrp">    -17.20612990 </i>
    <i name="e_0_energy">    -17.20612990 </i>
   </energy>
  </scstep>
  <scstep>
   <time name="total">    2.10    1.32</time>
   <energy>
    <i name="e_fr_energy">    -17.20628605 </i>
    <i name="e_wo_entrp">    -17.20628605 </i>
    <i name="e_0_energy">    -17.20628605 </i>
   </energy>
  </scstep>
  <scstep>
   <time name="total">    2.04    1.29</time>
   <energy>
    <i name="e_fr_energy">    -17.20711632 </i>
    <i name="e_wo_entrp">    -17.20711632 </i>
    <i name="e_0_energy">    -17.20711632 </i>
   </energy>
  </scstep>
  <scstep>
   <time name="total">    2.04    1.29</time>
   <energy>
    <i name="e_fr_energy">    -17.20664890 </i>
    <i name="e_wo_entrp">    -17.20664890 </i>
    <i name="e_0_energy">    -17.20664890 </i>
   </energy>
  </scstep>
  <scstep>
   <time name="total">    2.03    1.29</time>
   <energy>
    <i name="e_fr_energy">    -17.20707527 </i>
    <i name="e_wo_entrp">    -17.20707527 </i>
    <i name="e_0_energy">    -17.20707527 </i>
   </energy>
  </scstep>
  <scstep>
   <time name="total">    2.03    1.29</time>
   <energy>
    <i name="e_fr_energy">    -17.20651214 </i>
    <i name="e_wo_entrp">    -17.20651214 </i>
    <i name="e_0_energy">    -17.20651214 </i>
   </energy>
  </scstep>
  <scstep>
   <time name="total">    2.04    1.29</time>
   <energy>
    <i name="e_fr_energy">    -17.20643865 </i>
    <i name="e_wo_entrp">    -17.20643865 </i>
    <i name="e_0_energy">    -17.20643865 </i>
   </energy>
  </scstep>
  <scstep>
   <time name="total">    2.04    1.29</time>
   <energy>
    <i name="e_fr_energy">    -17.20646101 </i>
    <i name="e_wo_entrp">    -17.20646101 </i>
    <i name="e_0_energy">    -17.20646101 </i>
   </energy>
  </scstep>
  <scstep>
   <time name="total">    2.06    1.30</time>
   <energy>
    <i name="e_fr_energy">    -17.20656419 </i>
    <i name="e_wo_entrp">    -17.20656419 </i>
    <i name="e_0_energy">    -17.20656419 </i>
   </energy>
  </scstep>
  <scstep>
   <time name="total">    2.03    1.29</time>
   <energy>
    <i name="e_fr_energy">    -17.20646983 </i>
    <i name="e_wo_entrp">    -17.20646983 </i>
    <i name="e_0_energy">    -17.20646983 </i>
   </energy>
  </scstep>
  <scstep>
   <time name="total">    2.05    1.30</time>
   <energy>
    <i name="e_fr_energy">    -17.20582259 </i>
    <i name="e_wo_entrp">    -17.20582259 </i>
    <i name="e_0_energy">    -17.20582259 </i>
   </energy>
  </scstep>
  <scstep>
   <time name="total">    2.07    1.30</time>
   <energy>
    <i name="e_fr_energy">    -17.20696669 </i>
    <i name="e_wo_entrp">    -17.20696669 </i>
    <i name="e_0_energy">    -17.20696669 </i>
   </energy>
  </scstep>
  <scstep>
   <time name="total">    2.06    1.30</time>
   <energy>
    <i name="e_fr_energy">    -17.20712508 </i>
    <i name="e_wo_entrp">    -17.20712508 </i>
    <i name="e_0_energy">    -17.20712508 </i>
   </energy>
  </scstep>
  <scstep>
   <time name="total">    2.08    1.31</time>
   <energy>
    <i name="e_fr_energy">    -17.20687144 </i>
    <i name="e_wo_entrp">    -17.20687144 </i>
    <i name="e_0_energy">    -17.20687144 </i>
   </energy>
  </scstep>
  <scstep>
   <time name="total">    2.05    1.30</time>
   <energy>
    <i name="e_fr_energy">    -17.20631842 </i>
    <i name="e_wo_entrp">    -17.20631842 </i>
    <i name="e_0_energy">    -17.20631842 </i>
   </energy>
  </scstep>
  <scstep>
   <time name="total">    2.09    1.32</time>
   <energy>
    <i name="e_fr_energy">    -17.20678131 </i>
    <i name="e_wo_entrp">    -17.20678131 </i>
    <i name="e_0_energy">    -17.20678131 </i>
   </energy>
  </scstep>
  <scstep>
   <time name="total">    2.06    1.30</time>
   <energy>
    <i name="e_fr_energy">    -17.20669436 </i>
    <i name="e_wo_entrp">    -17.20669436 </i>
    <i name="e_0_energy">    -17.20669436 </i>
   </energy>
  </scstep>
  <scstep>
   <time name="total">    2.09    1.32</time>
   <energy>
    <i name="e_fr_energy">    -17.20644489 </i>
    <i name="e_wo_entrp">    -17.20644489 </i>
    <i name="e_0_energy">    -17.20644489 </i>
   </energy>
  </scstep>
  <scstep>
   <time name="total">    2.07    1.31</time>
   <energy>
    <i name="e_fr_energy">    -17.20691339 </i>
    <i name="e_wo_entrp">    -17.20691339 </i>
    <i name="e_0_energy">    -17.20691339 </i>
   </energy>
  </scstep>
  <scstep>
   <time name="total">    2.10    1.32</time>
   <energy>
    <i name="e_fr_energy">    -17.20668163 </i>
    <i name="e_wo_entrp">    -17.20668163 </i>
    <i name="e_0_energy">    -17.20668163 </i>
   </energy>
  </scstep>
  <scstep>
   <time name="total">    2.07    1.31</time>
   <energy>
    <i name="e_fr_energy">    -17.20638538 </i>
    <i name="e_wo_entrp">    -17.20638538 </i>
    <i name="e_0_energy">    -17.20638538 </i>
   </energy>
  </scstep>
  <kpoints>
   <generation param="Gamma">
    <v type="int" name="divisions">       8        9        3 </v>
    <v name="usershift">      0.00000000       0.00000000       0.00000000 </v>
    <v name="genvec1">      0.12500000       0.00000000       0.00000000 </v>
    <v name="genvec2">      0.00000000       0.11111111       0.00000000 </v>
    <v name="genvec3">      0.00000000       0.00000000       0.33333333 </v>
    <v name="shift">      0.00000000       0.00000000       0.00000000 </v>
   </generation>
   <varray name="kpointlist" >
    <v>       0.00000000       0.00000000       0.00000000 </v>
    <v>       0.12500000       0.00000000       0.00000000 </v>
    <v>       0.25000000       0.00000000       0.00000000 </v>
    <v>       0.37500000       0.00000000       0.00000000 </v>
    <v>       0.50000000       0.00000000       0.00000000 </v>
    <v>       0.00000000       0.11111111       0.00000000 </v>
    <v>       0.12500000       0.11111111       0.00000000 </v>
    <v>       0.25000000       0.11111111       0.00000000 </v>
    <v>       0.37500000       0.11111111       0.00000000 </v>
    <v>       0.50000000       0.11111111       0.00000000 </v>
    <v>       0.00000000       0.22222222       0.00000000 </v>
    <v>       0.12500000       0.22222222       0.00000000 </v>
    <v>       0.25000000       0.22222222       0.00000000 </v>
    <v>       0.37500000       0.22222222       0.00000000 </v>
    <v>       0.50000000       0.22222222       0.00000000 </v>
    <v>       0.00000000       0.33333333       0.00000000 </v>
    <v>       0.12500000       0.33333333       0.00000000 </v>
    <v>       0.25000000       0.33333333       0.00000000 </v>
    <v>       0.37500000       0.33333333       0.00000000 </v>
    <v>       0.50000000       0.33333333       0.00000000 </v>
    <v>       0.00000000       0.44444444       0.00000000 </v>
    <v>       0.12500000       0.44444444       0.00000000 </v>
    <v>       0.25000000       0.44444444       0.00000000 </v>
    <v>       0.37500000       0.44444444       0.00000000 </v>
    <v>       0.50000000       0.44444444       0.00000000 </v>
    <v>       0.00000000       0.00000000       0.33333333 </v>
    <v>       0.12500000       0.00000000       0.33333333 </v>
    <v>       0.25000000       0.00000000       0.33333333 </v>
    <v>       0.37500000       0.00000000       0.33333333 </v>
    <v>       0.50000000       0.00000000       0.33333333 </v>
    <v>       0.00000000       0.11111111       0.33333333 </v>
    <v>       0.12500000       0.11111111       0.33333333 </v>
    <v>       0.25000000       0.11111111       0.33333333 </v>
    <v>       0.37500000       0.11111111       0.33333333 </v>
    <v>       0.50000000       0.11111111       0.33333333 </v>
    <v>       0.00000000       0.22222222       0.33333333 </v>
    <v>       0.12500000       0.22222222       0.33333333 </v>
    <v>       0.25000000       0.22222222       0.33333333 </v>
    <v>       0.37500000       0.22222222       0.33333333 </v>
    <v>       0.50000000       0.22222222       0.33333333 </v>
    <v>       0.00000000       0.33333333       0.33333333 </v>
    <v>       0.12500000       0.33333333       0.33333333 </v>
    <v>       0.25000000       0.33333333       0.33333333 </v>
    <v>       0.37500000       0.33333333       0.33333333 </v>
    <v>       0.50000000       0.33333333       0.33333333 </v>
    <v>       0.00000000       0.44444444       0.33333333 </v>
    <v>       0.12500000       0.44444444       0.33333333 </v>
    <v>       0.25000000       0.44444444       0.33333333 </v>
    <v>       0.37500000       0.44444444       0.33333333 </v>
    <v>       0.50000000       0.44444444       0.33333333 </v>
   </varray>
   <varray name="weights" >
    <v>       0.00462963 </v>
    <v>       0.00925926 </v>
    <v>       0.00925926 </v>
    <v>       0.00925926 </v>
    <v>       0.00462963 </v>
    <v>       0.00925926 </v>
    <v>       0.01851852 </v>
    <v>       0.01851852 </v>
    <v>       0.01851852 </v>
    <v>       0.00925926 </v>
    <v>       0.00925926 </v>
    <v>       0.01851852 </v>
    <v>       0.01851852 </v>
    <v>       0.01851852 </v>
    <v>       0.00925926 </v>
    <v>       0.00925926 </v>
    <v>       0.01851852 </v>
    <v>       0.01851852 </v>
    <v>       0.01851852 </v>
    <v>       0.00925926 </v>
    <v>       0.00925926 </v>
    <v>       0.01851852 </v>
    <v>       0.01851852 </v>
    <v>       0.01851852 </v>
    <v>       0.00925926 </v>
    <v>       0.00925926 </v>
    <v>       0.01851852 </v>
    <v>       0.01851852 </v>
    <v>       0.01851852 </v>
    <v>       0.00925926 </v>
    <v>       0.01851852 </v>
    <v>       0.03703704 </v>
    <v>       0.03703704 </v>
    <v>       0.03703704 </v>
    <v>       0.01851852 </v>
    <v>       0.01851852 </v>
    <v>       0.03703704 </v>
    <v>       0.03703704 </v>
    <v>       0.03703704 </v>
    <v>       0.01851852 </v>
    <v>       0.01851852 </v>
    <v>       0.03703704 </v>
    <v>       0.03703704 </v>
    <v>       0.03703704 </v>
    <v>       0.01851852 </v>
    <v>       0.01851852 </v>
    <v>       0.03703704 </v>
    <v>       0.03703704 </v>
    <v>       0.03703704 </v>
    <v>       0.01851852 </v>
   </varray>
  </kpoints>
  <scstep>
   <time name="total">    1.57    1.07</time>
   <energy>
    <i name="e_fr_energy">     -4.13856561 </i>
    <i name="e_wo_entrp">     -4.13856561 </i>
    <i name="e_0_energy">     -4.13856561 </i>
   </energy>
  </scstep>
  <scstep>
   <time name="total">    2.27    1.39</time>
   <energy>
    <i name="e_fr_energy">    -15.62812163 </i>
    <i name="e_wo_entrp">    -15.62812163 </i>
    <i name="e_0_energy">    -15.62812163 </i>
   </energy>
  </scstep>
  <scstep>
   <time name="total">    2.14    1.36</time>
   <energy>
    <i name="e_fr_energy">    -15.24033943 </i>
    <i name="e_wo_entrp">    -15.24033943 </i>
    <i name="e_0_energy">    -15.24033943 </i>
   </energy>
  </scstep>
  <scstep>
   <time name="total">    2.17    1.37</time>
   <energy>
    <i name="e_fr_energy">    -15.44926593 </i>
    <i name="e_wo_entrp">    -15.44926593 </i>
    <i name="e_0_energy">    -15.44926593 </i>
   </energy>
  </scstep>
  <scstep>
   <time name="total">    2.18    1.38</time>
   <energy>
    <i name="e_fr_energy">    -15.59718256 </i>
    <i name="e_wo_entrp">    -15.59718256 </i>
    <i name="e_0_energy">    -15.59718256 </i>
   </energy>
  </scstep>
  <scstep>
   <time name="total">    2.18    1.37</time>
   <energy>
    <i name="e_fr_energy">    -15.66076778 </i>
    <i name="e_wo_entrp">    -15.66076778 </i>
    <i name="e_0_energy">    -15.66076778 </i>
   </energy>
  </scstep>
  <scstep>
   <time name="total">    2.26    1.41</time>
   <energy>
    <i name="e_fr_energy">    -15.65699932 </i>
    <i name="e_wo_entrp">    -15.65699932 </i>
    <i name="e_0_energy">    -15.65699932 </i>
   </energy>
  </scstep>
  <scstep>
   <time name="total">    2.21    1.38</time>
   <energy>
    <i name="e_fr_energy">    -15.66189426 </i>
    <i name="e_wo_entrp">    -15.66189426 </i>
    <i name="e_0_energy">    -15.66189426 </i>
   </energy>
  </scstep>
  <scstep>
   <time name="total">    2.26    1.41</time>
   <energy>
    <i name="e_fr_energy">    -15.66113531 </i>
    <i name="e_wo_entrp">    -15.66113531 </i>
    <i name="e_0_energy">    -15.66113531 </i>
   </energy>
  </scstep>
  <scstep>
   <time name="total">    2.20    1.38</time>
   <energy>
    <i name="e_fr_energy">    -15.66040477 </i>
    <i name="e_wo_entrp">    -15.66040477 </i>
    <i name="e_0_energy">    -15.66040477 </i>
   </energy>
  </scstep>
  <scstep>
   <time name="total">    2.21    1.38</time>
   <energy>
    <i name="e_fr_energy">    -15.66006270 </i>
    <i name="e_wo_entrp">    -15.66006270 </i>
    <i name="e_0_energy">    -15.66006270 </i>
   </energy>
  </scstep>
  <scstep>
   <time name="total">    2.25    1.40</time>
   <energy>
    <i name="e_fr_energy">    -15.66231070 </i>
    <i name="e_wo_entrp">    -15.66231070 </i>
    <i name="e_0_energy">    -15.66231070 </i>
   </energy>
  </scstep>
  <scstep>
   <time name="total">    2.23    1.39</time>
   <energy>
    <i name="e_fr_energy">    -15.65769200 </i>
    <i name="e_wo_entrp">    -15.65769200 </i>
    <i name="e_0_energy">    -15.65769200 </i>
   </energy>
  </scstep>
  <scstep>
   <time name="total">    2.21    1.38</time>
   <energy>
    <i name="e_fr_energy">    -15.66275453 </i>
    <i name="e_wo_entrp">    -15.66275453 </i>
    <i name="e_0_energy">    -15.66275453 </i>
   </energy>
  </scstep>
  <scstep>
   <time name="total">    2.15    1.35</time>
   <energy>
    <i name="e_fr_energy">    -15.65876945 </i>
    <i name="e_wo_entrp">    -15.65876945 </i>
    <i name="e_0_energy">    -15.65876945 </i>
   </energy>
  </scstep>
  <scstep>
   <time name="total">    2.12    1.34</time>
   <energy>
    <i name="e_fr_energy">    -15.66188530 </i>
    <i name="e_wo_entrp">    -15.66188530 </i>
    <i name="e_0_energy">    -15.66188530 </i>
   </energy>
  </scstep>
  <scstep>
   <time name="total">    2.06    1.31</time>
   <energy>
    <i name="e_fr_energy">    -15.65965194 </i>
    <i name="e_wo_entrp">    -15.65965194 </i>
    <i name="e_0_energy">    -15.65965194 </i>
   </energy>
  </scstep>
  <scstep>
   <time name="total">    2.06    1.31</time>
   <energy>
    <i name="e_fr_energy">    -15.66044282 </i>
    <i name="e_wo_entrp">    -15.66044282 </i>
    <i name="e_0_energy">    -15.66044282 </i>
   </energy>
  </scstep>
  <scstep>
   <time name="total">    2.04    1.30</time>
   <energy>
    <i name="e_fr_energy">    -15.65767664 </i>
    <i name="e_wo_entrp">    -15.65767664 </i>
    <i name="e_0_energy">    -15.65767664 </i>
   </energy>
  </scstep>
  <scstep>
   <time name="total">    2.05    1.30</time>
   <energy>
    <i name="e_fr_energy">    -15.65908009 </i>
    <i name="e_wo_entrp">    -15.65908009 </i>
    <i name="e_0_energy">    -15.65908009 </i>
   </energy>
  </scstep>
  <scstep>
   <time name="total">    2.06    1.31</time>
   <energy>
    <i name="e_fr_energy">    -15.65878709 </i>
    <i name="e_wo_entrp">    -15.65878709 </i>
    <i name="e_0_energy">    -15.65878709 </i>
   </energy>
  </scstep>
  <scstep>
   <time name="total">    2.05    1.30</time>
   <energy>
    <i name="e_fr_energy">    -15.66055869 </i>
    <i name="e_wo_entrp">    -15.66055869 </i>
    <i name="e_0_energy">    -15.66055869 </i>
   </energy>
  </scstep>
  <scstep>
   <time name="total">    2.04    1.30</time>
   <energy>
    <i name="e_fr_energy">    -15.65993898 </i>
    <i name="e_wo_entrp">    -15.65993898 </i>
    <i name="e_0_energy">    -15.65993898 </i>
   </energy>
  </scstep>
  <scstep>
   <time name="total">    2.06    1.31</time>
   <energy>
    <i name="e_fr_energy">    -15.65970083 </i>
    <i name="e_wo_entrp">    -15.65970083 </i>
    <i name="e_0_energy">    -15.65970083 </i>
   </energy>
  </scstep>
  <scstep>
   <time name="total">    2.06    1.31</time>
   <energy>
    <i name="e_fr_energy">    -15.65893171 </i>
    <i name="e_wo_entrp">    -15.65893171 </i>
    <i name="e_0_energy">    -15.65893171 </i>
   </energy>
  </scstep>
  <scstep>
   <time name="total">    2.08    1.31</time>
   <energy>
    <i name="e_fr_energy">    -15.65786814 </i>
    <i name="e_wo_entrp">    -15.65786814 </i>
    <i name="e_0_energy">    -15.65786814 </i>
   </energy>
  </scstep>
  <scstep>
   <time name="total">    2.06    1.31</time>
   <energy>
    <i name="e_fr_energy">    -15.66013047 </i>
    <i name="e_wo_entrp">    -15.66013047 </i>
    <i name="e_0_energy">    -15.66013047 </i>
   </energy>
  </scstep>
  <scstep>
   <time name="total">    2.07    1.31</time>
   <energy>
    <i name="e_fr_energy">    -15.65980738 </i>
    <i name="e_wo_entrp">    -15.65980738 </i>
    <i name="e_0_energy">    -15.65980738 </i>
   </energy>
  </scstep>
  <scstep>
   <time name="total">    2.07    1.31</time>
   <energy>
    <i name="e_fr_energy">    -15.65799871 </i>
    <i name="e_wo_entrp">    -15.65799871 </i>
    <i name="e_0_energy">    -15.65799871 </i>
   </energy>
  </scstep>
  <scstep>
   <time name="total">    2.08    1.32</time>
   <energy>
    <i name="e_fr_energy">    -15.65835876 </i>
    <i name="e_wo_entrp">    -15.65835876 </i>
    <i name="e_0_energy">    -15.65835876 </i>
   </energy>
  </scstep>
  <scstep>
   <time name="total">    2.07    1.31</time>
   <energy>
    <i name="e_fr_energy">    -15.65985504 </i>
    <i name="e_wo_entrp">    -15.65985504 </i>
    <i name="e_0_energy">    -15.65985504 </i>
   </energy>
  </scstep>
  <scstep>
   <time name="total">    2.10    1.33</time>
   <energy>
    <i name="e_fr_energy">    -15.65870647 </i>
    <i name="e_wo_entrp">    -15.65870647 </i>
    <i name="e_0_energy">    -15.65870647 </i>
   </energy>
  </scstep>
  <scstep>
   <time name="total">    2.08    1.32</time>
   <energy>
    <i name="e_fr_energy">    -15.66019825 </i>
    <i name="e_wo_entrp">    -15.66019825 </i>
    <i name="e_0_energy">    -15.66019825 </i>
   </energy>
  </scstep>
  <scstep>
   <time name="total">    2.10    1.33</time>
   <energy>
    <i name="e_fr_energy">    -15.65889021 </i>
    <i name="e_wo_entrp">    -15.65889021 </i>
    <i name="e_0_energy">    -15.65889021 </i>
   </energy>
  </scstep>
  <scstep>
   <time name="total">    2.11    1.33</time>
   <energy>
    <i name="e_fr_energy">    -15.66199701 </i>
    <i name="e_wo_entrp">    -15.66199701 </i>
    <i name="e_0_energy">    -15.66199701 </i>
   </energy>
  </scstep>
  <kpoints>
   <generation param="Gamma">
    <v type="int" name="divisions">       8        9        3 </v>
    <v name="usershift">      0.00000000       0.00000000       0.00000000 </v>
    <v name="genvec1">      0.12500000       0.00000000       0.00000000 </v>
    <v name="genvec2">      0.00000000       0.11111111       0.00000000 </v>
    <v name="genvec3">      0.00000000       0.00000000       0.33333333 </v>
    <v name="shift">      0.00000000       0.00000000       0.00000000 </v>
   </generation>
   <varray name="kpointlist" >
    <v>       0.00000000       0.00000000       0.00000000 </v>
    <v>       0.12500000       0.00000000       0.00000000 </v>
    <v>       0.25000000       0.00000000       0.00000000 </v>
    <v>       0.37500000       0.00000000       0.00000000 </v>
    <v>       0.50000000       0.00000000       0.00000000 </v>
    <v>       0.00000000       0.11111111       0.00000000 </v>
    <v>       0.12500000       0.11111111       0.00000000 </v>
    <v>       0.25000000       0.11111111       0.00000000 </v>
    <v>       0.37500000       0.11111111       0.00000000 </v>
    <v>       0.50000000       0.11111111       0.00000000 </v>
    <v>       0.00000000       0.22222222       0.00000000 </v>
    <v>       0.12500000       0.22222222       0.00000000 </v>
    <v>       0.25000000       0.22222222       0.00000000 </v>
    <v>       0.37500000       0.22222222       0.00000000 </v>
    <v>       0.50000000       0.22222222       0.00000000 </v>
    <v>       0.00000000       0.33333333       0.00000000 </v>
    <v>       0.12500000       0.33333333       0.00000000 </v>
    <v>       0.25000000       0.33333333       0.00000000 </v>
    <v>       0.37500000       0.33333333       0.00000000 </v>
    <v>       0.50000000       0.33333333       0.00000000 </v>
    <v>       0.00000000       0.44444444       0.00000000 </v>
    <v>       0.12500000       0.44444444       0.00000000 </v>
    <v>       0.25000000       0.44444444       0.00000000 </v>
    <v>       0.37500000       0.44444444       0.00000000 </v>
    <v>       0.50000000       0.44444444       0.00000000 </v>
    <v>       0.00000000       0.00000000       0.33333333 </v>
    <v>       0.12500000       0.00000000       0.33333333 </v>
    <v>       0.25000000       0.00000000       0.33333333 </v>
    <v>       0.37500000       0.00000000       0.33333333 </v>
    <v>       0.50000000       0.00000000       0.33333333 </v>
    <v>       0.00000000       0.11111111       0.33333333 </v>
    <v>       0.12500000       0.11111111       0.33333333 </v>
    <v>       0.25000000       0.11111111       0.33333333 </v>
    <v>       0.37500000       0.11111111       0.33333333 </v>
    <v>       0.50000000       0.11111111       0.33333333 </v>
    <v>       0.00000000       0.22222222       0.33333333 </v>
    <v>       0.12500000       0.22222222       0.33333333 </v>
    <v>       0.25000000       0.22222222       0.33333333 </v>
    <v>       0.37500000       0.22222222       0.33333333 </v>
    <v>       0.50000000       0.22222222       0.33333333 </v>
    <v>       0.00000000       0.33333333       0.33333333 </v>
    <v>       0.12500000       0.33333333       0.33333333 </v>
    <v>       0.25000000       0.33333333       0.33333333 </v>
    <v>       0.37500000       0.33333333       0.33333333 </v>
    <v>       0.50000000       0.33333333       0.33333333 </v>
    <v>       0.00000000       0.44444444       0.33333333 </v>
    <v>       0.12500000       0.44444444       0.33333333 </v>
    <v>       0.25000000       0.44444444       0.33333333 </v>
    <v>       0.37500000       0.44444444       0.33333333 </v>
    <v>       0.50000000       0.44444444       0.33333333 </v>
   </varray>
   <varray name="weights" >
    <v>       0.00462963 </v>
    <v>       0.00925926 </v>
    <v>       0.00925926 </v>
    <v>       0.00925926 </v>
    <v>       0.00462963 </v>
    <v>       0.00925926 </v>
    <v>       0.01851852 </v>
    <v>       0.01851852 </v>
    <v>       0.01851852 </v>
    <v>       0.00925926 </v>
    <v>       0.00925926 </v>
    <v>       0.01851852 </v>
    <v>       0.01851852 </v>
    <v>       0.01851852 </v>
    <v>       0.00925926 </v>
    <v>       0.00925926 </v>
    <v>       0.01851852 </v>
    <v>       0.01851852 </v>
    <v>       0.01851852 </v>
    <v>       0.00925926 </v>
    <v>       0.00925926 </v>
    <v>       0.01851852 </v>
    <v>       0.01851852 </v>
    <v>       0.01851852 </v>
    <v>       0.00925926 </v>
    <v>       0.00925926 </v>
    <v>       0.01851852 </v>
    <v>       0.01851852 </v>
    <v>       0.01851852 </v>
    <v>       0.00925926 </v>
    <v>       0.01851852 </v>
    <v>       0.03703704 </v>
    <v>       0.03703704 </v>
    <v>       0.03703704 </v>
    <v>       0.01851852 </v>
    <v>       0.01851852 </v>
    <v>       0.03703704 </v>
    <v>       0.03703704 </v>
    <v>       0.03703704 </v>
    <v>       0.01851852 </v>
    <v>       0.01851852 </v>
    <v>       0.03703704 </v>
    <v>       0.03703704 </v>
    <v>       0.03703704 </v>
    <v>       0.01851852 </v>
    <v>       0.01851852 </v>
    <v>       0.03703704 </v>
    <v>       0.03703704 </v>
    <v>       0.03703704 </v>
    <v>       0.01851852 </v>
   </varray>
  </kpoints>
  <varray name="dielectric_dft" >
   <v>      24.63009843       0.00000000       0.00000000 </v>
   <v>       0.00000000      30.00412826       0.00000000 </v>
   <v>       0.00000000       0.00000000      27.75367841 </v>
  </varray>
  <varray name="epsilon" >
   <v>      24.63009843       0.00000000       0.00000000 </v>
   <v>       0.00000000      30.00412826       0.00000000 </v>
   <v>       0.00000000       0.00000000      27.75367841 </v>
  </varray>
  <kpoints>
   <generation param="Gamma">
    <v type="int" name="divisions">       8        9        3 </v>
    <v name="usershift">      0.00000000       0.00000000       0.00000000 </v>
    <v name="genvec1">      0.12500000       0.00000000       0.00000000 </v>
    <v name="genvec2">      0.00000000       0.11111111       0.00000000 </v>
    <v name="genvec3">      0.00000000       0.00000000       0.33333333 </v>
    <v name="shift">      0.00000000       0.00000000       0.00000000 </v>
   </generation>
   <varray name="kpointlist" >
    <v>       0.00000000       0.00000000       0.00000000 </v>
    <v>       0.12500000       0.00000000       0.00000000 </v>
    <v>       0.25000000       0.00000000       0.00000000 </v>
    <v>       0.37500000       0.00000000       0.00000000 </v>
    <v>       0.50000000       0.00000000       0.00000000 </v>
    <v>       0.00000000       0.11111111       0.00000000 </v>
    <v>       0.12500000       0.11111111       0.00000000 </v>
    <v>       0.25000000       0.11111111       0.00000000 </v>
    <v>       0.37500000       0.11111111       0.00000000 </v>
    <v>       0.50000000       0.11111111       0.00000000 </v>
    <v>       0.00000000       0.22222222       0.00000000 </v>
    <v>       0.12500000       0.22222222       0.00000000 </v>
    <v>       0.25000000       0.22222222       0.00000000 </v>
    <v>       0.37500000       0.22222222       0.00000000 </v>
    <v>       0.50000000       0.22222222       0.00000000 </v>
    <v>       0.00000000       0.33333333       0.00000000 </v>
    <v>       0.12500000       0.33333333       0.00000000 </v>
    <v>       0.25000000       0.33333333       0.00000000 </v>
    <v>       0.37500000       0.33333333       0.00000000 </v>
    <v>       0.50000000       0.33333333       0.00000000 </v>
    <v>       0.00000000       0.44444444       0.00000000 </v>
    <v>       0.12500000       0.44444444       0.00000000 </v>
    <v>       0.25000000       0.44444444       0.00000000 </v>
    <v>       0.37500000       0.44444444       0.00000000 </v>
    <v>       0.50000000       0.44444444       0.00000000 </v>
    <v>       0.00000000       0.00000000       0.33333333 </v>
    <v>       0.12500000       0.00000000       0.33333333 </v>
    <v>       0.25000000       0.00000000       0.33333333 </v>
    <v>       0.37500000       0.00000000       0.33333333 </v>
    <v>       0.50000000       0.00000000       0.33333333 </v>
    <v>       0.00000000       0.11111111       0.33333333 </v>
    <v>       0.12500000       0.11111111       0.33333333 </v>
    <v>       0.25000000       0.11111111       0.33333333 </v>
    <v>       0.37500000       0.11111111       0.33333333 </v>
    <v>       0.50000000       0.11111111       0.33333333 </v>
    <v>       0.00000000       0.22222222       0.33333333 </v>
    <v>       0.12500000       0.22222222       0.33333333 </v>
    <v>       0.25000000       0.22222222       0.33333333 </v>
    <v>       0.37500000       0.22222222       0.33333333 </v>
    <v>       0.50000000       0.22222222       0.33333333 </v>
    <v>       0.00000000       0.33333333       0.33333333 </v>
    <v>       0.12500000       0.33333333       0.33333333 </v>
    <v>       0.25000000       0.33333333       0.33333333 </v>
    <v>       0.37500000       0.33333333       0.33333333 </v>
    <v>       0.50000000       0.33333333       0.33333333 </v>
    <v>       0.00000000       0.44444444       0.33333333 </v>
    <v>       0.12500000       0.44444444       0.33333333 </v>
    <v>       0.25000000       0.44444444       0.33333333 </v>
    <v>       0.37500000       0.44444444       0.33333333 </v>
    <v>       0.50000000       0.44444444       0.33333333 </v>
   </varray>
   <varray name="weights" >
    <v>       0.00462963 </v>
    <v>       0.00925926 </v>
    <v>       0.00925926 </v>
    <v>       0.00925926 </v>
    <v>       0.00462963 </v>
    <v>       0.00925926 </v>
    <v>       0.01851852 </v>
    <v>       0.01851852 </v>
    <v>       0.01851852 </v>
    <v>       0.00925926 </v>
    <v>       0.00925926 </v>
    <v>       0.01851852 </v>
    <v>       0.01851852 </v>
    <v>       0.01851852 </v>
    <v>       0.00925926 </v>
    <v>       0.00925926 </v>
    <v>       0.01851852 </v>
    <v>       0.01851852 </v>
    <v>       0.01851852 </v>
    <v>       0.00925926 </v>
    <v>       0.00925926 </v>
    <v>       0.01851852 </v>
    <v>       0.01851852 </v>
    <v>       0.01851852 </v>
    <v>       0.00925926 </v>
    <v>       0.00925926 </v>
    <v>       0.01851852 </v>
    <v>       0.01851852 </v>
    <v>       0.01851852 </v>
    <v>       0.00925926 </v>
    <v>       0.01851852 </v>
    <v>       0.03703704 </v>
    <v>       0.03703704 </v>
    <v>       0.03703704 </v>
    <v>       0.01851852 </v>
    <v>       0.01851852 </v>
    <v>       0.03703704 </v>
    <v>       0.03703704 </v>
    <v>       0.03703704 </v>
    <v>       0.01851852 </v>
    <v>       0.01851852 </v>
    <v>       0.03703704 </v>
    <v>       0.03703704 </v>
    <v>       0.03703704 </v>
    <v>       0.01851852 </v>
    <v>       0.01851852 </v>
    <v>       0.03703704 </v>
    <v>       0.03703704 </v>
    <v>       0.03703704 </v>
    <v>       0.01851852 </v>
   </varray>
  </kpoints>
  <array name="born_charges" >
   <dimension dim="1">ion</dimension>
   <set>
    <v>       4.04073771       0.00000000      -0.58586789 </v>
    <v>       0.00000000       4.59362583       0.00000000 </v>
    <v>       0.08401185       0.00000000       4.25367989 </v>
   </set>
   <set>
    <v>       4.04073771       0.00000000       0.58586789 </v>
    <v>       0.00000000       4.59362583       0.00000000 </v>
    <v>      -0.08401185       0.00000000       4.25367989 </v>
   </set>
   <set>
    <v>       4.04073771       0.00000000       0.58586789 </v>
    <v>       0.00000000       4.59362583       0.00000000 </v>
    <v>      -0.08401185       0.00000000       4.25367989 </v>
   </set>
   <set>
    <v>       4.04073771       0.00000000      -0.58586789 </v>
    <v>       0.00000000       4.59362583       0.00000000 </v>
    <v>       0.08401185       0.00000000       4.25367989 </v>
   </set>
   <set>
    <v>      -4.04073771       0.00000000       0.57531912 </v>
    <v>       0.00000000      -4.59362583       0.00000000 </v>
    <v>       0.68006727       0.00000000      -4.25367989 </v>
   </set>
   <set>
    <v>      -4.04073771       0.00000000      -0.57531912 </v>
    <v>       0.00000000      -4.59362583       0.00000000 </v>
    <v>      -0.68006727       0.00000000      -4.25367989 </v>
   </set>
   <set>
    <v>      -4.04073771       0.00000000      -0.57531912 </v>
    <v>       0.00000000      -4.59362583       0.00000000 </v>
    <v>      -0.68006727       0.00000000      -4.25367989 </v>
   </set>
   <set>
    <v>      -4.04073771       0.00000000       0.57531912 </v>
    <v>       0.00000000      -4.59362583       0.00000000 </v>
    <v>       0.68006727       0.00000000      -4.25367989 </v>
   </set>
  </array>
  <time name="totalsc">  433.09  272.57</time>
  <eigenvalues>
   <array>
    <dimension dim="1">band</dimension>
    <dimension dim="2">kpoint</dimension>
    <dimension dim="3">spin</dimension>
    <field>eigene</field>
    <field>occ</field>
    <set>
     <set comment="spin 1">
      <set comment="kpoint 1">
       <r>  -15.4206    1.0000 </r>
       <r>  -15.4019    1.0000 </r>
       <r>  -15.4010    1.0000 </r>
       <r>  -15.3953    1.0000 </r>
       <r>  -15.3948    1.0000 </r>
       <r>  -15.3925    1.0000 </r>
       <r>  -15.3891    1.0000 </r>
       <r>  -15.3860    1.0000 </r>
       <r>  -15.3838    1.0000 </r>
       <r>  -15.3824    1.0000 </r>
       <r>  -15.3788    1.0000 </r>
       <r>  -15.3784    1.0000 </r>
       <r>  -15.3679    1.0000 </r>
       <r>  -15.3625    1.0000 </r>
       <r>  -15.3476    1.0000 </r>
       <r>  -15.3380    1.0000 </r>
       <r>  -15.3375    1.0000 </r>
       <r>  -15.3296    1.0000 </r>
       <r>  -15.3166    1.0000 </r>
       <r>  -15.3074    1.0000 </r>
       <r>   -8.1713    1.0000 </r>
       <r>   -7.7569    1.0000 </r>
       <r>   -7.0991    1.0000 </r>
       <r>   -6.4927    1.0000 </r>
       <r>   -1.4606    1.0000 </r>
       <r>   -0.2021    1.0000 </r>
       <r>    0.0201    1.0000 </r>
       <r>    0.8489    1.0000 </r>
       <r>    0.9797    1.0000 </r>
       <r>    2.2974    1.0000 </r>
       <r>    2.3341    1.0000 </r>
       <r>    2.4370    1.0000 </r>
       <r>    2.9088    1.0000 </r>
       <r>    2.9186    1.0000 </r>
       <r>    3.4242    1.0000 </r>
       <r>    3.9125    1.0000 </r>
       <r>    4.2340    1.0000 </r>
       <r>    4.5788    1.0000 </r>
       <r>    5.1383    1.0000 </r>
       <r>    5.2870    1.0000 </r>
       <r>    6.3199    0.0000 </r>
       <r>    8.7936    0.0000 </r>
       <r>    8.9060    0.0000 </r>
       <r>    8.9486    0.0000 </r>
       <r>    9.1855    0.0000 </r>
       <r>    9.3527    0.0000 </r>
       <r>   10.1061    0.0000 </r>
       <r>   10.3938    0.0000 </r>
       <r>   10.5014    0.0000 </r>
       <r>   10.7474    0.0000 </r>
       <r>   11.3397    0.0000 </r>
       <r>   11.7808    0.0000 </r>
       <r>   12.0154    0.0000 </r>
       <r>   12.0747    0.0000 </r>
       <r>   12.1481    0.0000 </r>
       <r>   12.6031    0.0000 </r>
       <r>   12.6777    0.0000 </r>
       <r>   13.5774    0.0000 </r>
       <r>   14.3848    0.0000 </r>
       <r>   14.3955    0.0000 </r>
       <r>   14.5524    0.0000 </r>
       <r>   14.7000    0.0000 </r>
       <r>   15.0279    0.0000 </r>
       <r>   15.0522    0.0000 </r>
      </set>
      <set comment="kpoint 2">
       <r>  -15.4194    1.0000 </r>
       <r>  -15.4021    1.0000 </r>
       <r>  -15.3997    1.0000 </r>
       <r>  -15.3950    1.0000 </r>
       <r>  -15.3944    1.0000 </r>
       <r>  -15.3939    1.0000 </r>
       <r>  -15.3897    1.0000 </r>
       <r>  -15.3862    1.0000 </r>
       <r>  -15.3828    1.0000 </r>
       <r>  -15.3826    1.0000 </r>
       <r>  -15.3797    1.0000 </r>
       <r>  -15.3763    1.0000 </r>
       <r>  -15.3668    1.0000 </r>
       <r>  -15.3628    1.0000 </r>
       <r>  -15.3477    1.0000 </r>
       <r>  -15.3382    1.0000 </r>
       <r>  -15.3375    1.0000 </r>
       <r>  -15.3301    1.0000 </r>
       <r>  -15.3163    1.0000 </r>
       <r>  -15.3077    1.0000 </r>
       <r>   -8.0969    1.0000 </r>
       <r>   -7.6895    1.0000 </r>
       <r>   -7.0762    1.0000 </r>
       <r>   -6.5016    1.0000 </r>
       <r>   -1.7472    1.0000 </r>
       <r>   -0.3998    1.0000 </r>
       <r>   -0.2463    1.0000 </r>
       <r>    0.4733    1.0000 </r>
       <r>    0.8608    1.0000 </r>
       <r>    2.3491    1.0000 </r>
       <r>    2.4459    1.0000 </r>
       <r>    2.8536    1.0000 </r>
       <r>    3.0195    1.0000 </r>
       <r>    3.4476    1.0000 </r>
       <r>    3.5087    1.0000 </r>
       <r>    3.9845    1.0000 </r>
       <r>    4.2843    1.0000 </r>
       <r>    4.9135    1.0000 </r>
       <r>    4.9641    1.0000 </r>
       <r>    5.3437    1.0000 </r>
       <r>    6.3352    0.0000 </r>
       <r>    8.2066    0.0000 </r>
       <r>    8.8420    0.0000 </r>
       <r>    9.0142    0.0000 </r>
       <r>    9.0817    0.0000 </r>
       <r>    9.1778    0.0000 </r>
       <r>    9.9479    0.0000 </r>
       <r>   10.2605    0.0000 </r>
       <r>   10.2854    0.0000 </r>
       <r>   10.3812    0.0000 </r>
       <r>   11.2569    0.0000 </r>
       <r>   11.2735    0.0000 </r>
       <r>   11.5537    0.0000 </r>
       <r>   12.0116    0.0000 </r>
       <r>   12.0791    0.0000 </r>
       <r>   12.6140    0.0000 </r>
       <r>   13.0518    0.0000 </r>
       <r>   13.6435    0.0000 </r>
       <r>   13.9843    0.0000 </r>
       <r>   14.5750    0.0000 </r>
       <r>   14.8822    0.0000 </r>
       <r>   15.3493    0.0000 </r>
       <r>   15.4094    0.0000 </r>
       <r>   15.6506    0.0000 </r>
      </set>
      <set comment="kpoint 3">
       <r>  -15.4162    1.0000 </r>
       <r>  -15.4028    1.0000 </r>
       <r>  -15.3970    1.0000 </r>
       <r>  -15.3968    1.0000 </r>
       <r>  -15.3965    1.0000 </r>
       <r>  -15.3927    1.0000 </r>
       <r>  -15.3902    1.0000 </r>
       <r>  -15.3873    1.0000 </r>
       <r>  -15.3831    1.0000 </r>
       <r>  -15.3818    1.0000 </r>
       <r>  -15.3792    1.0000 </r>
       <r>  -15.3714    1.0000 </r>
       <r>  -15.3655    1.0000 </r>
       <r>  -15.3628    1.0000 </r>
       <r>  -15.3475    1.0000 </r>
       <r>  -15.3398    1.0000 </r>
       <r>  -15.3363    1.0000 </r>
       <r>  -15.3311    1.0000 </r>
       <r>  -15.3152    1.0000 </r>
       <r>  -15.3087    1.0000 </r>
       <r>   -7.8868    1.0000 </r>
       <r>   -7.4989    1.0000 </r>
       <r>   -7.0413    1.0000 </r>
       <r>   -6.5500    1.0000 </r>
       <r>   -2.2744    1.0000 </r>
       <r>   -1.1228    1.0000 </r>
       <r>   -0.8029    1.0000 </r>
       <r>    0.0288    1.0000 </r>
       <r>    0.8762    1.0000 </r>
       <r>    2.6440    1.0000 </r>
       <r>    2.7666    1.0000 </r>
       <r>    3.3055    1.0000 </r>
       <r>    3.4795    1.0000 </r>
       <r>    3.7184    1.0000 </r>
       <r>    3.8958    1.0000 </r>
       <r>    4.3837    1.0000 </r>
       <r>    4.6248    1.0000 </r>
       <r>    4.7579    1.0000 </r>
       <r>    5.2829    1.0000 </r>
       <r>    5.5778    1.0000 </r>
       <r>    6.6641    0.0000 </r>
       <r>    7.1833    0.0000 </r>
       <r>    7.9056    0.0000 </r>
       <r>    8.1076    0.0000 </r>
       <r>    8.8781    0.0000 </r>
       <r>    8.9312    0.0000 </r>
       <r>    9.3464    0.0000 </r>
       <r>    9.4356    0.0000 </r>
       <r>   10.3196    0.0000 </r>
       <r>   10.5764    0.0000 </r>
       <r>   10.6028    0.0000 </r>
       <r>   11.1451    0.0000 </r>
       <r>   11.2186    0.0000 </r>
       <r>   12.2678    0.0000 </r>
       <r>   12.6754    0.0000 </r>
       <r>   12.6812    0.0000 </r>
       <r>   13.3177    0.0000 </r>
       <r>   13.5349    0.0000 </r>
       <r>   14.1264    0.0000 </r>
       <r>   14.7134    0.0000 </r>
       <r>   15.1939    0.0000 </r>
       <r>   15.5393    0.0000 </r>
       <r>   15.9339    0.0000 </r>
       <r>   16.2936    0.0000 </r>
      </set>
      <set comment="kpoint 4">
       <r>  -15.4119    1.0000 </r>
       <r>  -15.4046    1.0000 </r>
       <r>  -15.3994    1.0000 </r>
       <r>  -15.3990    1.0000 </r>
       <r>  -15.3944    1.0000 </r>
       <r>  -15.3918    1.0000 </r>
       <r>  -15.3896    1.0000 </r>
       <r>  -15.3886    1.0000 </r>
       <r>  -15.3839    1.0000 </r>
       <r>  -15.3838    1.0000 </r>
       <r>  -15.3741    1.0000 </r>
       <r>  -15.3668    1.0000 </r>
       <r>  -15.3665    1.0000 </r>
       <r>  -15.3620    1.0000 </r>
       <r>  -15.3461    1.0000 </r>
       <r>  -15.3416    1.0000 </r>
       <r>  -15.3348    1.0000 </r>
       <r>  -15.3323    1.0000 </r>
       <r>  -15.3137    1.0000 </r>
       <r>  -15.3102    1.0000 </r>
       <r>   -7.5855    1.0000 </r>
       <r>   -7.2220    1.0000 </r>
       <r>   -7.0850    1.0000 </r>
       <r>   -6.6847    1.0000 </r>
       <r>   -2.6019    1.0000 </r>
       <r>   -1.9653    1.0000 </r>
       <r>   -1.0562    1.0000 </r>
       <r>   -0.5690    1.0000 </r>
       <r>    1.3263    1.0000 </r>
       <r>    2.5382    1.0000 </r>
       <r>    3.2386    1.0000 </r>
       <r>    3.7179    1.0000 </r>
       <r>    3.8797    1.0000 </r>
       <r>    4.0826    1.0000 </r>
       <r>    4.1851    1.0000 </r>
       <r>    4.3777    1.0000 </r>
       <r>    4.7002    1.0000 </r>
       <r>    5.1648    1.0000 </r>
       <r>    5.6709    1.0000 </r>
       <r>    5.8749    1.0000 </r>
       <r>    6.6653    0.0000 </r>
       <r>    7.0734    0.0000 </r>
       <r>    7.2267    0.0000 </r>
       <r>    7.3179    0.0000 </r>
       <r>    7.9057    0.0000 </r>
       <r>    8.0224    0.0000 </r>
       <r>    8.6691    0.0000 </r>
       <r>    8.8865    0.0000 </r>
       <r>    9.3181    0.0000 </r>
       <r>    9.5991    0.0000 </r>
       <r>   11.4756    0.0000 </r>
       <r>   11.7568    0.0000 </r>
       <r>   12.3973    0.0000 </r>
       <r>   12.6879    0.0000 </r>
       <r>   13.1041    0.0000 </r>
       <r>   13.6000    0.0000 </r>
       <r>   13.6360    0.0000 </r>
       <r>   14.1604    0.0000 </r>
       <r>   14.2930    0.0000 </r>
       <r>   14.6482    0.0000 </r>
       <r>   14.7422    0.0000 </r>
       <r>   15.7150    0.0000 </r>
       <r>   16.5497    0.0000 </r>
       <r>   16.6306    0.0000 </r>
      </set>
      <set comment="kpoint 5">
       <r>  -15.4077    1.0000 </r>
       <r>  -15.4077    1.0000 </r>
       <r>  -15.4002    1.0000 </r>
       <r>  -15.4002    1.0000 </r>
       <r>  -15.3925    1.0000 </r>
       <r>  -15.3925    1.0000 </r>
       <r>  -15.3892    1.0000 </r>
       <r>  -15.3892    1.0000 </r>
       <r>  -15.3845    1.0000 </r>
       <r>  -15.3845    1.0000 </r>
       <r>  -15.3696    1.0000 </r>
       <r>  -15.3696    1.0000 </r>
       <r>  -15.3632    1.0000 </r>
       <r>  -15.3632    1.0000 </r>
       <r>  -15.3437    1.0000 </r>
       <r>  -15.3437    1.0000 </r>
       <r>  -15.3334    1.0000 </r>
       <r>  -15.3334    1.0000 </r>
       <r>  -15.3120    1.0000 </r>
       <r>  -15.3120    1.0000 </r>
       <r>   -7.2807    1.0000 </r>
       <r>   -7.2807    1.0000 </r>
       <r>   -6.9242    1.0000 </r>
       <r>   -6.9242    1.0000 </r>
       <r>   -2.5019    1.0000 </r>
       <r>   -2.5019    1.0000 </r>
       <r>   -0.9768    1.0000 </r>
       <r>   -0.9768    1.0000 </r>
       <r>    1.9481    1.0000 </r>
       <r>    1.9481    1.0000 </r>
       <r>    3.7065    1.0000 </r>
       <r>    3.7065    1.0000 </r>
       <r>    4.1318    1.0000 </r>
       <r>    4.1318    1.0000 </r>
       <r>    4.4430    1.0000 </r>
       <r>    4.4430    1.0000 </r>
       <r>    5.0278    1.0000 </r>
       <r>    5.0278    1.0000 </r>
       <r>    5.6369    1.0000 </r>
       <r>    5.6369    1.0000 </r>
       <r>    7.0733    0.0000 </r>
       <r>    7.0733    0.0000 </r>
       <r>    7.2312    0.0000 </r>
       <r>    7.2312    0.0000 </r>
       <r>    7.5464    0.0000 </r>
       <r>    7.5464    0.0000 </r>
       <r>    8.3586    0.0000 </r>
       <r>    8.3586    0.0000 </r>
       <r>    8.9547    0.0000 </r>
       <r>    8.9547    0.0000 </r>
       <r>   11.9164    0.0000 </r>
       <r>   11.9164    0.0000 </r>
       <r>   13.1122    0.0000 </r>
       <r>   13.1122    0.0000 </r>
       <r>   13.7879    0.0000 </r>
       <r>   13.7879    0.0000 </r>
       <r>   13.8911    0.0000 </r>
       <r>   13.8911    0.0000 </r>
       <r>   15.1011    0.0000 </r>
       <r>   15.1011    0.0000 </r>
       <r>   15.6096    0.0000 </r>
       <r>   15.6096    0.0000 </r>
       <r>   16.0018    0.0000 </r>
       <r>   16.0018    0.0000 </r>
      </set>
      <set comment="kpoint 6">
       <r>  -15.4169    1.0000 </r>
       <r>  -15.3994    1.0000 </r>
       <r>  -15.3991    1.0000 </r>
       <r>  -15.3952    1.0000 </r>
       <r>  -15.3942    1.0000 </r>
       <r>  -15.3937    1.0000 </r>
       <r>  -15.3931    1.0000 </r>
       <r>  -15.3880    1.0000 </r>
       <r>  -15.3843    1.0000 </r>
       <r>  -15.3815    1.0000 </r>
       <r>  -15.3809    1.0000 </r>
       <r>  -15.3758    1.0000 </r>
       <r>  -15.3658    1.0000 </r>
       <r>  -15.3627    1.0000 </r>
       <r>  -15.3461    1.0000 </r>
       <r>  -15.3386    1.0000 </r>
       <r>  -15.3363    1.0000 </r>
       <r>  -15.3311    1.0000 </r>
       <r>  -15.3171    1.0000 </r>
       <r>  -15.3090    1.0000 </r>
       <r>   -8.0995    1.0000 </r>
       <r>   -7.6963    1.0000 </r>
       <r>   -7.0607    1.0000 </r>
       <r>   -6.4911    1.0000 </r>
       <r>   -1.5741    1.0000 </r>
       <r>   -0.4540    1.0000 </r>
       <r>    0.0143    1.0000 </r>
       <r>    0.4219    1.0000 </r>
       <r>    0.8915    1.0000 </r>
       <r>    2.2242    1.0000 </r>
       <r>    2.5160    1.0000 </r>
       <r>    2.6278    1.0000 </r>
       <r>    2.9039    1.0000 </r>
       <r>    2.9882    1.0000 </r>
       <r>    3.6264    1.0000 </r>
       <r>    3.9486    1.0000 </r>
       <r>    4.2479    1.0000 </r>
       <r>    4.8227    1.0000 </r>
       <r>    5.1570    1.0000 </r>
       <r>    5.2256    1.0000 </r>
       <r>    6.4363    0.0000 </r>
       <r>    8.3099    0.0000 </r>
       <r>    8.8421    0.0000 </r>
       <r>    9.0821    0.0000 </r>
       <r>    9.2060    0.0000 </r>
       <r>    9.3087    0.0000 </r>
       <r>    9.7708    0.0000 </r>
       <r>   10.1645    0.0000 </r>
       <r>   10.2596    0.0000 </r>
       <r>   10.6504    0.0000 </r>
       <r>   11.0757    0.0000 </r>
       <r>   11.3762    0.0000 </r>
       <r>   11.7527    0.0000 </r>
       <r>   11.7717    0.0000 </r>
       <r>   12.2722    0.0000 </r>
       <r>   12.3635    0.0000 </r>
       <r>   12.6102    0.0000 </r>
       <r>   13.9179    0.0000 </r>
       <r>   14.1277    0.0000 </r>
       <r>   14.5034    0.0000 </r>
       <r>   15.1161    0.0000 </r>
       <r>   15.2069    0.0000 </r>
       <r>   15.2485    0.0000 </r>
       <r>   15.4124    0.0000 </r>
      </set>
      <set comment="kpoint 7">
       <r>  -15.4160    1.0000 </r>
       <r>  -15.3993    1.0000 </r>
       <r>  -15.3983    1.0000 </r>
       <r>  -15.3953    1.0000 </r>
       <r>  -15.3952    1.0000 </r>
       <r>  -15.3934    1.0000 </r>
       <r>  -15.3931    1.0000 </r>
       <r>  -15.3885    1.0000 </r>
       <r>  -15.3845    1.0000 </r>
       <r>  -15.3834    1.0000 </r>
       <r>  -15.3789    1.0000 </r>
       <r>  -15.3741    1.0000 </r>
       <r>  -15.3652    1.0000 </r>
       <r>  -15.3625    1.0000 </r>
       <r>  -15.3462    1.0000 </r>
       <r>  -15.3381    1.0000 </r>
       <r>  -15.3370    1.0000 </r>
       <r>  -15.3314    1.0000 </r>
       <r>  -15.3168    1.0000 </r>
       <r>  -15.3093    1.0000 </r>
       <r>   -8.0260    1.0000 </r>
       <r>   -7.6300    1.0000 </r>
       <r>   -7.0379    1.0000 </r>
       <r>   -6.4978    1.0000 </r>
       <r>   -1.7932    1.0000 </r>
       <r>   -0.5476    1.0000 </r>
       <r>   -0.2824    1.0000 </r>
       <r>    0.2844    1.0000 </r>
       <r>    0.8086    1.0000 </r>
       <r>    2.0089    1.0000 </r>
       <r>    2.1680    1.0000 </r>
       <r>    3.1839    1.0000 </r>
       <r>    3.2254    1.0000 </r>
       <r>    3.3500    1.0000 </r>
       <r>    3.4146    1.0000 </r>
       <r>    4.0473    1.0000 </r>
       <r>    4.5092    1.0000 </r>
       <r>    4.9946    1.0000 </r>
       <r>    5.2284    1.0000 </r>
       <r>    5.3108    1.0000 </r>
       <r>    6.4659    0.0000 </r>
       <r>    7.8000    0.0000 </r>
       <r>    8.4191    0.0000 </r>
       <r>    8.7372    0.0000 </r>
       <r>    8.9970    0.0000 </r>
       <r>    9.3145    0.0000 </r>
       <r>    9.6098    0.0000 </r>
       <r>    9.9664    0.0000 </r>
       <r>   10.2630    0.0000 </r>
       <r>   10.8763    0.0000 </r>
       <r>   10.9888    0.0000 </r>
       <r>   11.3299    0.0000 </r>
       <r>   11.5663    0.0000 </r>
       <r>   12.0900    0.0000 </r>
       <r>   12.3295    0.0000 </r>
       <r>   12.6970    0.0000 </r>
       <r>   12.9393    0.0000 </r>
       <r>   13.9547    0.0000 </r>
       <r>   14.1908    0.0000 </r>
       <r>   14.5216    0.0000 </r>
       <r>   14.8202    0.0000 </r>
       <r>   15.0242    0.0000 </r>
       <r>   15.2482    0.0000 </r>
       <r>   15.5521    0.0000 </r>
      </set>
      <set comment="kpoint 8">
       <r>  -15.4134    1.0000 </r>
       <r>  -15.4002    1.0000 </r>
       <r>  -15.3981    1.0000 </r>
       <r>  -15.3976    1.0000 </r>
       <r>  -15.3960    1.0000 </r>
       <r>  -15.3921    1.0000 </r>
       <r>  -15.3917    1.0000 </r>
       <r>  -15.3895    1.0000 </r>
       <r>  -15.3856    1.0000 </r>
       <r>  -15.3850    1.0000 </r>
       <r>  -15.3759    1.0000 </r>
       <r>  -15.3696    1.0000 </r>
       <r>  -15.3650    1.0000 </r>
       <r>  -15.3614    1.0000 </r>
       <r>  -15.3460    1.0000 </r>
       <r>  -15.3385    1.0000 </r>
       <r>  -15.3369    1.0000 </r>
       <r>  -15.3323    1.0000 </r>
       <r>  -15.3159    1.0000 </r>
       <r>  -15.3101    1.0000 </r>
       <r>   -7.8191    1.0000 </r>
       <r>   -7.4432    1.0000 </r>
       <r>   -7.0023    1.0000 </r>
       <r>   -6.5395    1.0000 </r>
       <r>   -2.2309    1.0000 </r>
       <r>   -1.0911    1.0000 </r>
       <r>   -0.7999    1.0000 </r>
       <r>   -0.0606    1.0000 </r>
       <r>    0.9551    1.0000 </r>
       <r>    2.0031    1.0000 </r>
       <r>    2.1630    1.0000 </r>
       <r>    3.2045    1.0000 </r>
       <r>    3.5826    1.0000 </r>
       <r>    3.6396    1.0000 </r>
       <r>    4.0195    1.0000 </r>
       <r>    4.0811    1.0000 </r>
       <r>    4.8362    1.0000 </r>
       <r>    5.1079    1.0000 </r>
       <r>    5.3405    1.0000 </r>
       <r>    5.5382    1.0000 </r>
       <r>    6.7804    0.0000 </r>
       <r>    7.2720    0.0000 </r>
       <r>    7.5181    0.0000 </r>
       <r>    7.6772    0.0000 </r>
       <r>    8.8663    0.0000 </r>
       <r>    8.9602    0.0000 </r>
       <r>    9.2927    0.0000 </r>
       <r>    9.8552    0.0000 </r>
       <r>   10.3708    0.0000 </r>
       <r>   10.5827    0.0000 </r>
       <r>   10.9582    0.0000 </r>
       <r>   11.4081    0.0000 </r>
       <r>   11.7671    0.0000 </r>
       <r>   11.9444    0.0000 </r>
       <r>   12.7590    0.0000 </r>
       <r>   13.0468    0.0000 </r>
       <r>   13.5341    0.0000 </r>
       <r>   13.9798    0.0000 </r>
       <r>   14.0237    0.0000 </r>
       <r>   14.4011    0.0000 </r>
       <r>   14.8039    0.0000 </r>
       <r>   15.5610    0.0000 </r>
       <r>   15.7473    0.0000 </r>
       <r>   16.2297    0.0000 </r>
      </set>
      <set comment="kpoint 9">
       <r>  -15.4100    1.0000 </r>
       <r>  -15.4031    1.0000 </r>
       <r>  -15.3999    1.0000 </r>
       <r>  -15.3996    1.0000 </r>
       <r>  -15.3951    1.0000 </r>
       <r>  -15.3929    1.0000 </r>
       <r>  -15.3904    1.0000 </r>
       <r>  -15.3892    1.0000 </r>
       <r>  -15.3867    1.0000 </r>
       <r>  -15.3857    1.0000 </r>
       <r>  -15.3721    1.0000 </r>
       <r>  -15.3661    1.0000 </r>
       <r>  -15.3648    1.0000 </r>
       <r>  -15.3605    1.0000 </r>
       <r>  -15.3445    1.0000 </r>
       <r>  -15.3402    1.0000 </r>
       <r>  -15.3355    1.0000 </r>
       <r>  -15.3332    1.0000 </r>
       <r>  -15.3145    1.0000 </r>
       <r>  -15.3114    1.0000 </r>
       <r>   -7.5241    1.0000 </r>
       <r>   -7.1739    1.0000 </r>
       <r>   -7.0419    1.0000 </r>
       <r>   -6.6625    1.0000 </r>
       <r>   -2.5147    1.0000 </r>
       <r>   -1.8889    1.0000 </r>
       <r>   -0.9910    1.0000 </r>
       <r>   -0.5518    1.0000 </r>
       <r>    1.3933    1.0000 </r>
       <r>    2.2278    1.0000 </r>
       <r>    2.4368    1.0000 </r>
       <r>    3.3062    1.0000 </r>
       <r>    3.3912    1.0000 </r>
       <r>    3.6589    1.0000 </r>
       <r>    4.1272    1.0000 </r>
       <r>    4.4512    1.0000 </r>
       <r>    5.0121    1.0000 </r>
       <r>    5.1189    1.0000 </r>
       <r>    5.4248    1.0000 </r>
       <r>    5.5047    1.0000 </r>
       <r>    6.9204    0.0000 </r>
       <r>    7.0908    0.0000 </r>
       <r>    7.1703    0.0000 </r>
       <r>    7.4879    0.0000 </r>
       <r>    8.3596    0.0000 </r>
       <r>    8.4717    0.0000 </r>
       <r>    8.7742    0.0000 </r>
       <r>    9.4838    0.0000 </r>
       <r>    9.9369    0.0000 </r>
       <r>   10.2564    0.0000 </r>
       <r>   11.3793    0.0000 </r>
       <r>   11.6295    0.0000 </r>
       <r>   11.9651    0.0000 </r>
       <r>   12.7251    0.0000 </r>
       <r>   12.8816    0.0000 </r>
       <r>   13.1996    0.0000 </r>
       <r>   14.0521    0.0000 </r>
       <r>   14.3520    0.0000 </r>
       <r>   14.3861    0.0000 </r>
       <r>   14.8375    0.0000 </r>
       <r>   15.3256    0.0000 </r>
       <r>   15.6910    0.0000 </r>
       <r>   16.7870    0.0000 </r>
       <r>   16.8838    0.0000 </r>
      </set>
      <set comment="kpoint 10">
       <r>  -15.4065    1.0000 </r>
       <r>  -15.4065    1.0000 </r>
       <r>  -15.4005    1.0000 </r>
       <r>  -15.4005    1.0000 </r>
       <r>  -15.3942    1.0000 </r>
       <r>  -15.3942    1.0000 </r>
       <r>  -15.3896    1.0000 </r>
       <r>  -15.3896    1.0000 </r>
       <r>  -15.3863    1.0000 </r>
       <r>  -15.3863    1.0000 </r>
       <r>  -15.3685    1.0000 </r>
       <r>  -15.3685    1.0000 </r>
       <r>  -15.3616    1.0000 </r>
       <r>  -15.3616    1.0000 </r>
       <r>  -15.3422    1.0000 </r>
       <r>  -15.3422    1.0000 </r>
       <r>  -15.3342    1.0000 </r>
       <r>  -15.3342    1.0000 </r>
       <r>  -15.3129    1.0000 </r>
       <r>  -15.3129    1.0000 </r>
       <r>   -7.2288    1.0000 </r>
       <r>   -7.2288    1.0000 </r>
       <r>   -6.8880    1.0000 </r>
       <r>   -6.8880    1.0000 </r>
       <r>   -2.4077    1.0000 </r>
       <r>   -2.4077    1.0000 </r>
       <r>   -0.9130    1.0000 </r>
       <r>   -0.9130    1.0000 </r>
       <r>    1.9439    1.0000 </r>
       <r>    1.9439    1.0000 </r>
       <r>    3.0008    1.0000 </r>
       <r>    3.0008    1.0000 </r>
       <r>    3.4268    1.0000 </r>
       <r>    3.4268    1.0000 </r>
       <r>    4.2898    1.0000 </r>
       <r>    4.2898    1.0000 </r>
       <r>    5.2286    1.0000 </r>
       <r>    5.2286    1.0000 </r>
       <r>    5.4024    1.0000 </r>
       <r>    5.4024    1.0000 </r>
       <r>    6.8707    0.0000 </r>
       <r>    6.8707    0.0000 </r>
       <r>    7.3081    0.0000 </r>
       <r>    7.3081    0.0000 </r>
       <r>    8.5211    0.0000 </r>
       <r>    8.5211    0.0000 </r>
       <r>    8.8516    0.0000 </r>
       <r>    8.8516    0.0000 </r>
       <r>    9.6771    0.0000 </r>
       <r>    9.6771    0.0000 </r>
       <r>   11.7617    0.0000 </r>
       <r>   11.7617    0.0000 </r>
       <r>   12.2196    0.0000 </r>
       <r>   12.2196    0.0000 </r>
       <r>   13.7413    0.0000 </r>
       <r>   13.7413    0.0000 </r>
       <r>   14.5077    0.0000 </r>
       <r>   14.5077    0.0000 </r>
       <r>   15.4162    0.0000 </r>
       <r>   15.4162    0.0000 </r>
       <r>   15.7067    0.0000 </r>
       <r>   15.7067    0.0000 </r>
       <r>   16.2053    0.0000 </r>
       <r>   16.2053    0.0000 </r>
      </set>
      <set comment="kpoint 11">
       <r>  -15.4072    1.0000 </r>
       <r>  -15.3993    1.0000 </r>
       <r>  -15.3971    1.0000 </r>
       <r>  -15.3958    1.0000 </r>
       <r>  -15.3957    1.0000 </r>
       <r>  -15.3957    1.0000 </r>
       <r>  -15.3910    1.0000 </r>
       <r>  -15.3899    1.0000 </r>
       <r>  -15.3868    1.0000 </r>
       <r>  -15.3863    1.0000 </r>
       <r>  -15.3775    1.0000 </r>
       <r>  -15.3710    1.0000 </r>
       <r>  -15.3637    1.0000 </r>
       <r>  -15.3617    1.0000 </r>
       <r>  -15.3419    1.0000 </r>
       <r>  -15.3407    1.0000 </r>
       <r>  -15.3356    1.0000 </r>
       <r>  -15.3333    1.0000 </r>
       <r>  -15.3181    1.0000 </r>
       <r>  -15.3128    1.0000 </r>
       <r>   -7.8921    1.0000 </r>
       <r>   -7.5259    1.0000 </r>
       <r>   -6.9661    1.0000 </r>
       <r>   -6.5109    1.0000 </r>
       <r>   -1.8586    1.0000 </r>
       <r>   -0.9666    1.0000 </r>
       <r>   -0.4360    1.0000 </r>
       <r>   -0.1997    1.0000 </r>
       <r>    0.8902    1.0000 </r>
       <r>    2.4072    1.0000 </r>
       <r>    2.7482    1.0000 </r>
       <r>    2.9170    1.0000 </r>
       <r>    2.9843    1.0000 </r>
       <r>    3.2130    1.0000 </r>
       <r>    3.9390    1.0000 </r>
       <r>    4.0788    1.0000 </r>
       <r>    4.3208    1.0000 </r>
       <r>    5.0361    1.0000 </r>
       <r>    5.1771    1.0000 </r>
       <r>    5.4376    1.0000 </r>
       <r>    6.7121    0.0000 </r>
       <r>    7.0553    0.0000 </r>
       <r>    8.3904    0.0000 </r>
       <r>    8.5063    0.0000 </r>
       <r>    8.6032    0.0000 </r>
       <r>    9.1739    0.0000 </r>
       <r>    9.2810    0.0000 </r>
       <r>    9.7652    0.0000 </r>
       <r>   10.4508    0.0000 </r>
       <r>   10.6098    0.0000 </r>
       <r>   10.6912    0.0000 </r>
       <r>   10.8720    0.0000 </r>
       <r>   11.4603    0.0000 </r>
       <r>   11.5092    0.0000 </r>
       <r>   12.1377    0.0000 </r>
       <r>   12.6684    0.0000 </r>
       <r>   13.1625    0.0000 </r>
       <r>   13.4810    0.0000 </r>
       <r>   14.7028    0.0000 </r>
       <r>   14.7825    0.0000 </r>
       <r>   15.3753    0.0000 </r>
       <r>   15.3879    0.0000 </r>
       <r>   15.5731    0.0000 </r>
       <r>   16.1376    0.0000 </r>
      </set>
      <set comment="kpoint 12">
       <r>  -15.4079    1.0000 </r>
       <r>  -15.3993    1.0000 </r>
       <r>  -15.3987    1.0000 </r>
       <r>  -15.3963    1.0000 </r>
       <r>  -15.3956    1.0000 </r>
       <r>  -15.3947    1.0000 </r>
       <r>  -15.3904    1.0000 </r>
       <r>  -15.3901    1.0000 </r>
       <r>  -15.3873    1.0000 </r>
       <r>  -15.3871    1.0000 </r>
       <r>  -15.3763    1.0000 </r>
       <r>  -15.3693    1.0000 </r>
       <r>  -15.3644    1.0000 </r>
       <r>  -15.3603    1.0000 </r>
       <r>  -15.3422    1.0000 </r>
       <r>  -15.3401    1.0000 </r>
       <r>  -15.3357    1.0000 </r>
       <r>  -15.3338    1.0000 </r>
       <r>  -15.3178    1.0000 </r>
       <r>  -15.3130    1.0000 </r>
       <r>   -7.8218    1.0000 </r>
       <r>   -7.4633    1.0000 </r>
       <r>   -6.9430    1.0000 </r>
       <r>   -6.5104    1.0000 </r>
       <r>   -1.9335    1.0000 </r>
       <r>   -0.9232    1.0000 </r>
       <r>   -0.5423    1.0000 </r>
       <r>   -0.2874    1.0000 </r>
       <r>    0.9544    1.0000 </r>
       <r>    1.7344    1.0000 </r>
       <r>    2.0552    1.0000 </r>
       <r>    2.9360    1.0000 </r>
       <r>    3.3698    1.0000 </r>
       <r>    3.6198    1.0000 </r>
       <r>    3.7026    1.0000 </r>
       <r>    4.0846    1.0000 </r>
       <r>    4.7776    1.0000 </r>
       <r>    5.0751    1.0000 </r>
       <r>    5.2277    1.0000 </r>
       <r>    5.4595    1.0000 </r>
       <r>    6.7524    0.0000 </r>
       <r>    7.1239    0.0000 </r>
       <r>    7.6600    0.0000 </r>
       <r>    7.8005    0.0000 </r>
       <r>    8.9334    0.0000 </r>
       <r>    9.0353    0.0000 </r>
       <r>    9.6395    0.0000 </r>
       <r>    9.9055    0.0000 </r>
       <r>   10.4915    0.0000 </r>
       <r>   10.5662    0.0000 </r>
       <r>   10.7454    0.0000 </r>
       <r>   11.3999    0.0000 </r>
       <r>   11.4329    0.0000 </r>
       <r>   12.4235    0.0000 </r>
       <r>   12.4454    0.0000 </r>
       <r>   12.9268    0.0000 </r>
       <r>   13.3530    0.0000 </r>
       <r>   13.8740    0.0000 </r>
       <r>   13.9783    0.0000 </r>
       <r>   14.3530    0.0000 </r>
       <r>   14.7735    0.0000 </r>
       <r>   15.5276    0.0000 </r>
       <r>   15.7032    0.0000 </r>
       <r>   15.9622    0.0000 </r>
      </set>
      <set comment="kpoint 13">
       <r>  -15.4098    1.0000 </r>
       <r>  -15.4030    1.0000 </r>
       <r>  -15.3989    1.0000 </r>
       <r>  -15.3980    1.0000 </r>
       <r>  -15.3958    1.0000 </r>
       <r>  -15.3938    1.0000 </r>
       <r>  -15.3913    1.0000 </r>
       <r>  -15.3889    1.0000 </r>
       <r>  -15.3873    1.0000 </r>
       <r>  -15.3871    1.0000 </r>
       <r>  -15.3736    1.0000 </r>
       <r>  -15.3651    1.0000 </r>
       <r>  -15.3649    1.0000 </r>
       <r>  -15.3583    1.0000 </r>
       <r>  -15.3420    1.0000 </r>
       <r>  -15.3389    1.0000 </r>
       <r>  -15.3359    1.0000 </r>
       <r>  -15.3351    1.0000 </r>
       <r>  -15.3171    1.0000 </r>
       <r>  -15.3134    1.0000 </r>
       <r>   -7.6258    1.0000 </r>
       <r>   -7.2891    1.0000 </r>
       <r>   -6.9042    1.0000 </r>
       <r>   -6.5295    1.0000 </r>
       <r>   -2.1241    1.0000 </r>
       <r>   -1.0436    1.0000 </r>
       <r>   -0.8538    1.0000 </r>
       <r>   -0.3792    1.0000 </r>
       <r>    1.1891    1.0000 </r>
       <r>    1.3044    1.0000 </r>
       <r>    1.5639    1.0000 </r>
       <r>    2.7061    1.0000 </r>
       <r>    2.8253    1.0000 </r>
       <r>    3.7926    1.0000 </r>
       <r>    3.9219    1.0000 </r>
       <r>    4.2975    1.0000 </r>
       <r>    4.6912    1.0000 </r>
       <r>    4.9390    1.0000 </r>
       <r>    5.0531    1.0000 </r>
       <r>    5.3103    1.0000 </r>
       <r>    6.7283    0.0000 </r>
       <r>    7.1805    0.0000 </r>
       <r>    7.8312    0.0000 </r>
       <r>    8.2768    0.0000 </r>
       <r>    8.5123    0.0000 </r>
       <r>    8.9610    0.0000 </r>
       <r>    9.3090    0.0000 </r>
       <r>   10.3389    0.0000 </r>
       <r>   10.8478    0.0000 </r>
       <r>   10.9577    0.0000 </r>
       <r>   11.0243    0.0000 </r>
       <r>   11.4367    0.0000 </r>
       <r>   11.6838    0.0000 </r>
       <r>   12.7324    0.0000 </r>
       <r>   12.9760    0.0000 </r>
       <r>   13.2336    0.0000 </r>
       <r>   13.8114    0.0000 </r>
       <r>   13.8968    0.0000 </r>
       <r>   14.1906    0.0000 </r>
       <r>   14.7124    0.0000 </r>
       <r>   15.1746    0.0000 </r>
       <r>   15.3654    0.0000 </r>
       <r>   16.0587    0.0000 </r>
       <r>   16.1559    0.0000 </r>
      </set>
      <set comment="kpoint 14">
       <r>  -15.4114    1.0000 </r>
       <r>  -15.4078    1.0000 </r>
       <r>  -15.4000    1.0000 </r>
       <r>  -15.3996    1.0000 </r>
       <r>  -15.3958    1.0000 </r>
       <r>  -15.3932    1.0000 </r>
       <r>  -15.3925    1.0000 </r>
       <r>  -15.3904    1.0000 </r>
       <r>  -15.3854    1.0000 </r>
       <r>  -15.3851    1.0000 </r>
       <r>  -15.3703    1.0000 </r>
       <r>  -15.3657    1.0000 </r>
       <r>  -15.3607    1.0000 </r>
       <r>  -15.3572    1.0000 </r>
       <r>  -15.3405    1.0000 </r>
       <r>  -15.3376    1.0000 </r>
       <r>  -15.3368    1.0000 </r>
       <r>  -15.3359    1.0000 </r>
       <r>  -15.3161    1.0000 </r>
       <r>  -15.3141    1.0000 </r>
       <r>   -7.3522    1.0000 </r>
       <r>   -7.0445    1.0000 </r>
       <r>   -6.9296    1.0000 </r>
       <r>   -6.6151    1.0000 </r>
       <r>   -2.2634    1.0000 </r>
       <r>   -1.6770    1.0000 </r>
       <r>   -0.8328    1.0000 </r>
       <r>   -0.5570    1.0000 </r>
       <r>    1.3745    1.0000 </r>
       <r>    1.5574    1.0000 </r>
       <r>    1.5915    1.0000 </r>
       <r>    2.5244    1.0000 </r>
       <r>    2.6451    1.0000 </r>
       <r>    3.3043    1.0000 </r>
       <r>    3.4316    1.0000 </r>
       <r>    4.0747    1.0000 </r>
       <r>    4.3373    1.0000 </r>
       <r>    4.8152    1.0000 </r>
       <r>    4.8275    1.0000 </r>
       <r>    5.3099    1.0000 </r>
       <r>    6.5200    0.0000 </r>
       <r>    7.7913    0.0000 </r>
       <r>    7.9284    0.0000 </r>
       <r>    8.8386    0.0000 </r>
       <r>    9.0015    0.0000 </r>
       <r>    9.3121    0.0000 </r>
       <r>    9.5291    0.0000 </r>
       <r>   10.4972    0.0000 </r>
       <r>   10.6306    0.0000 </r>
       <r>   11.0216    0.0000 </r>
       <r>   11.1082    0.0000 </r>
       <r>   11.5445    0.0000 </r>
       <r>   11.5960    0.0000 </r>
       <r>   11.8880    0.0000 </r>
       <r>   12.9316    0.0000 </r>
       <r>   13.7438    0.0000 </r>
       <r>   14.0104    0.0000 </r>
       <r>   14.5211    0.0000 </r>
       <r>   15.0398    0.0000 </r>
       <r>   15.6989    0.0000 </r>
       <r>   15.8494    0.0000 </r>
       <r>   16.2511    0.0000 </r>
       <r>   16.4101    0.0000 </r>
       <r>   16.8741    0.0000 </r>
      </set>
      <set comment="kpoint 15">
       <r>  -15.4109    1.0000 </r>
       <r>  -15.4109    1.0000 </r>
       <r>  -15.4008    1.0000 </r>
       <r>  -15.4008    1.0000 </r>
       <r>  -15.3941    1.0000 </r>
       <r>  -15.3941    1.0000 </r>
       <r>  -15.3921    1.0000 </r>
       <r>  -15.3921    1.0000 </r>
       <r>  -15.3844    1.0000 </r>
       <r>  -15.3844    1.0000 </r>
       <r>  -15.3675    1.0000 </r>
       <r>  -15.3675    1.0000 </r>
       <r>  -15.3579    1.0000 </r>
       <r>  -15.3579    1.0000 </r>
       <r>  -15.3385    1.0000 </r>
       <r>  -15.3385    1.0000 </r>
       <r>  -15.3365    1.0000 </r>
       <r>  -15.3365    1.0000 </r>
       <r>  -15.3150    1.0000 </r>
       <r>  -15.3150    1.0000 </r>
       <r>   -7.0877    1.0000 </r>
       <r>   -7.0877    1.0000 </r>
       <r>   -6.7964    1.0000 </r>
       <r>   -6.7964    1.0000 </r>
       <r>   -2.1320    1.0000 </r>
       <r>   -2.1320    1.0000 </r>
       <r>   -0.7537    1.0000 </r>
       <r>   -0.7537    1.0000 </r>
       <r>    1.7063    1.0000 </r>
       <r>    1.7063    1.0000 </r>
       <r>    1.9862    1.0000 </r>
       <r>    1.9862    1.0000 </r>
       <r>    2.7749    1.0000 </r>
       <r>    2.7749    1.0000 </r>
       <r>    3.4926    1.0000 </r>
       <r>    3.4926    1.0000 </r>
       <r>    4.5114    1.0000 </r>
       <r>    4.5114    1.0000 </r>
       <r>    5.0054    1.0000 </r>
       <r>    5.0054    1.0000 </r>
       <r>    7.0633    0.0000 </r>
       <r>    7.0633    0.0000 </r>
       <r>    8.6231    0.0000 </r>
       <r>    8.6231    0.0000 </r>
       <r>    9.6288    0.0000 </r>
       <r>    9.6288    0.0000 </r>
       <r>   10.1790    0.0000 </r>
       <r>   10.1790    0.0000 </r>
       <r>   10.5564    0.0000 </r>
       <r>   10.5564    0.0000 </r>
       <r>   11.2409    0.0000 </r>
       <r>   11.2409    0.0000 </r>
       <r>   11.6270    0.0000 </r>
       <r>   11.6270    0.0000 </r>
       <r>   13.2150    0.0000 </r>
       <r>   13.2150    0.0000 </r>
       <r>   15.2687    0.0000 </r>
       <r>   15.2687    0.0000 </r>
       <r>   15.7322    0.0000 </r>
       <r>   15.7322    0.0000 </r>
       <r>   16.0867    0.0000 </r>
       <r>   16.0867    0.0000 </r>
       <r>   17.0465    0.0000 </r>
       <r>   17.0465    0.0000 </r>
      </set>
      <set comment="kpoint 16">
       <r>  -15.4042    1.0000 </r>
       <r>  -15.4009    1.0000 </r>
       <r>  -15.4001    1.0000 </r>
       <r>  -15.3973    1.0000 </r>
       <r>  -15.3936    1.0000 </r>
       <r>  -15.3927    1.0000 </r>
       <r>  -15.3908    1.0000 </r>
       <r>  -15.3908    1.0000 </r>
       <r>  -15.3888    1.0000 </r>
       <r>  -15.3809    1.0000 </r>
       <r>  -15.3749    1.0000 </r>
       <r>  -15.3666    1.0000 </r>
       <r>  -15.3646    1.0000 </r>
       <r>  -15.3573    1.0000 </r>
       <r>  -15.3443    1.0000 </r>
       <r>  -15.3428    1.0000 </r>
       <r>  -15.3360    1.0000 </r>
       <r>  -15.3291    1.0000 </r>
       <r>  -15.3191    1.0000 </r>
       <r>  -15.3175    1.0000 </r>
       <r>   -7.5755    1.0000 </r>
       <r>   -7.2832    1.0000 </r>
       <r>   -6.8783    1.0000 </r>
       <r>   -6.6148    1.0000 </r>
       <r>   -2.1432    1.0000 </r>
       <r>   -1.3693    1.0000 </r>
       <r>   -1.2846    1.0000 </r>
       <r>   -0.7035    1.0000 </r>
       <r>    1.2292    1.0000 </r>
       <r>    2.7179    1.0000 </r>
       <r>    2.9569    1.0000 </r>
       <r>    3.1484    1.0000 </r>
       <r>    3.2534    1.0000 </r>
       <r>    3.5085    1.0000 </r>
       <r>    4.1120    1.0000 </r>
       <r>    4.2254    1.0000 </r>
       <r>    4.5888    1.0000 </r>
       <r>    4.9711    1.0000 </r>
       <r>    5.1171    1.0000 </r>
       <r>    5.7478    1.0000 </r>
       <r>    6.3060    0.0000 </r>
       <r>    7.0798    0.0000 </r>
       <r>    7.5167    0.0000 </r>
       <r>    7.6054    0.0000 </r>
       <r>    7.8258    0.0000 </r>
       <r>    8.3449    0.0000 </r>
       <r>    8.4098    0.0000 </r>
       <r>    9.2701    0.0000 </r>
       <r>    9.6760    0.0000 </r>
       <r>    9.8910    0.0000 </r>
       <r>   10.7564    0.0000 </r>
       <r>   11.1080    0.0000 </r>
       <r>   12.1128    0.0000 </r>
       <r>   12.6846    0.0000 </r>
       <r>   12.8336    0.0000 </r>
       <r>   13.1339    0.0000 </r>
       <r>   14.0070    0.0000 </r>
       <r>   14.1167    0.0000 </r>
       <r>   14.1510    0.0000 </r>
       <r>   14.6593    0.0000 </r>
       <r>   15.3660    0.0000 </r>
       <r>   15.4890    0.0000 </r>
       <r>   15.8750    0.0000 </r>
       <r>   16.4953    0.0000 </r>
      </set>
      <set comment="kpoint 17">
       <r>  -15.4074    1.0000 </r>
       <r>  -15.4036    1.0000 </r>
       <r>  -15.4005    1.0000 </r>
       <r>  -15.3985    1.0000 </r>
       <r>  -15.3938    1.0000 </r>
       <r>  -15.3914    1.0000 </r>
       <r>  -15.3910    1.0000 </r>
       <r>  -15.3889    1.0000 </r>
       <r>  -15.3879    1.0000 </r>
       <r>  -15.3811    1.0000 </r>
       <r>  -15.3743    1.0000 </r>
       <r>  -15.3667    1.0000 </r>
       <r>  -15.3632    1.0000 </r>
       <r>  -15.3565    1.0000 </r>
       <r>  -15.3438    1.0000 </r>
       <r>  -15.3423    1.0000 </r>
       <r>  -15.3361    1.0000 </r>
       <r>  -15.3296    1.0000 </r>
       <r>  -15.3189    1.0000 </r>
       <r>  -15.3175    1.0000 </r>
       <r>   -7.5121    1.0000 </r>
       <r>   -7.2280    1.0000 </r>
       <r>   -6.8531    1.0000 </r>
       <r>   -6.6005    1.0000 </r>
       <r>   -2.1005    1.0000 </r>
       <r>   -1.2761    1.0000 </r>
       <r>   -1.2240    1.0000 </r>
       <r>   -0.7403    1.0000 </r>
       <r>    1.3170    1.0000 </r>
       <r>    1.8253    1.0000 </r>
       <r>    2.2146    1.0000 </r>
       <r>    2.9709    1.0000 </r>
       <r>    3.4374    1.0000 </r>
       <r>    3.4983    1.0000 </r>
       <r>    4.0511    1.0000 </r>
       <r>    4.0712    1.0000 </r>
       <r>    4.6607    1.0000 </r>
       <r>    5.0353    1.0000 </r>
       <r>    5.1286    1.0000 </r>
       <r>    5.2260    1.0000 </r>
       <r>    6.8916    0.0000 </r>
       <r>    6.9879    0.0000 </r>
       <r>    7.0632    0.0000 </r>
       <r>    7.4144    0.0000 </r>
       <r>    8.4691    0.0000 </r>
       <r>    8.8315    0.0000 </r>
       <r>    9.0709    0.0000 </r>
       <r>    9.3998    0.0000 </r>
       <r>   10.1348    0.0000 </r>
       <r>   10.5959    0.0000 </r>
       <r>   10.8556    0.0000 </r>
       <r>   10.9927    0.0000 </r>
       <r>   11.7005    0.0000 </r>
       <r>   12.9055    0.0000 </r>
       <r>   13.0053    0.0000 </r>
       <r>   13.1831    0.0000 </r>
       <r>   13.8154    0.0000 </r>
       <r>   14.1580    0.0000 </r>
       <r>   14.2867    0.0000 </r>
       <r>   14.7212    0.0000 </r>
       <r>   15.3119    0.0000 </r>
       <r>   16.0248    0.0000 </r>
       <r>   16.4374    0.0000 </r>
       <r>   16.5766    0.0000 </r>
      </set>
      <set comment="kpoint 18">
       <r>  -15.4131    1.0000 </r>
       <r>  -15.4093    1.0000 </r>
       <r>  -15.4034    1.0000 </r>
       <r>  -15.4022    1.0000 </r>
       <r>  -15.3941    1.0000 </r>
       <r>  -15.3913    1.0000 </r>
       <r>  -15.3884    1.0000 </r>
       <r>  -15.3858    1.0000 </r>
       <r>  -15.3858    1.0000 </r>
       <r>  -15.3819    1.0000 </r>
       <r>  -15.3726    1.0000 </r>
       <r>  -15.3667    1.0000 </r>
       <r>  -15.3597    1.0000 </r>
       <r>  -15.3548    1.0000 </r>
       <r>  -15.3424    1.0000 </r>
       <r>  -15.3412    1.0000 </r>
       <r>  -15.3359    1.0000 </r>
       <r>  -15.3308    1.0000 </r>
       <r>  -15.3185    1.0000 </r>
       <r>  -15.3173    1.0000 </r>
       <r>   -7.3388    1.0000 </r>
       <r>   -7.0780    1.0000 </r>
       <r>   -6.8034    1.0000 </r>
       <r>   -6.5777    1.0000 </r>
       <r>   -2.0015    1.0000 </r>
       <r>   -1.1526    1.0000 </r>
       <r>   -1.0235    1.0000 </r>
       <r>   -0.8160    1.0000 </r>
       <r>    1.0349    1.0000 </r>
       <r>    1.4444    1.0000 </r>
       <r>    1.5463    1.0000 </r>
       <r>    2.2992    1.0000 </r>
       <r>    2.5700    1.0000 </r>
       <r>    3.4136    1.0000 </r>
       <r>    3.5020    1.0000 </r>
       <r>    3.9456    1.0000 </r>
       <r>    4.2820    1.0000 </r>
       <r>    4.3773    1.0000 </r>
       <r>    4.7310    1.0000 </r>
       <r>    5.2783    1.0000 </r>
       <r>    6.3938    0.0000 </r>
       <r>    7.8179    0.0000 </r>
       <r>    8.2059    0.0000 </r>
       <r>    8.5228    0.0000 </r>
       <r>    8.8311    0.0000 </r>
       <r>    9.2941    0.0000 </r>
       <r>    9.7915    0.0000 </r>
       <r>   10.2490    0.0000 </r>
       <r>   10.6248    0.0000 </r>
       <r>   10.7561    0.0000 </r>
       <r>   11.3933    0.0000 </r>
       <r>   11.5155    0.0000 </r>
       <r>   11.7536    0.0000 </r>
       <r>   11.8003    0.0000 </r>
       <r>   13.2746    0.0000 </r>
       <r>   14.0120    0.0000 </r>
       <r>   14.0888    0.0000 </r>
       <r>   14.1952    0.0000 </r>
       <r>   14.9201    0.0000 </r>
       <r>   15.2767    0.0000 </r>
       <r>   15.9039    0.0000 </r>
       <r>   15.9356    0.0000 </r>
       <r>   16.1483    0.0000 </r>
       <r>   16.7096    0.0000 </r>
      </set>
      <set comment="kpoint 19">
       <r>  -15.4174    1.0000 </r>
       <r>  -15.4151    1.0000 </r>
       <r>  -15.4067    1.0000 </r>
       <r>  -15.4062    1.0000 </r>
       <r>  -15.3937    1.0000 </r>
       <r>  -15.3918    1.0000 </r>
       <r>  -15.3862    1.0000 </r>
       <r>  -15.3842    1.0000 </r>
       <r>  -15.3832    1.0000 </r>
       <r>  -15.3826    1.0000 </r>
       <r>  -15.3704    1.0000 </r>
       <r>  -15.3670    1.0000 </r>
       <r>  -15.3559    1.0000 </r>
       <r>  -15.3536    1.0000 </r>
       <r>  -15.3408    1.0000 </r>
       <r>  -15.3400    1.0000 </r>
       <r>  -15.3349    1.0000 </r>
       <r>  -15.3320    1.0000 </r>
       <r>  -15.3179    1.0000 </r>
       <r>  -15.3172    1.0000 </r>
       <r>   -7.1073    1.0000 </r>
       <r>   -6.8791    1.0000 </r>
       <r>   -6.7977    1.0000 </r>
       <r>   -6.5961    1.0000 </r>
       <r>   -1.8876    1.0000 </r>
       <r>   -1.3939    1.0000 </r>
       <r>   -0.7348    1.0000 </r>
       <r>   -0.7085    1.0000 </r>
       <r>    0.7368    1.0000 </r>
       <r>    1.1350    1.0000 </r>
       <r>    1.5609    1.0000 </r>
       <r>    1.8521    1.0000 </r>
       <r>    2.1887    1.0000 </r>
       <r>    2.6761    1.0000 </r>
       <r>    2.9381    1.0000 </r>
       <r>    3.4719    1.0000 </r>
       <r>    3.5972    1.0000 </r>
       <r>    4.1122    1.0000 </r>
       <r>    4.6506    1.0000 </r>
       <r>    4.7938    1.0000 </r>
       <r>    6.8322    0.0000 </r>
       <r>    8.4285    0.0000 </r>
       <r>    8.9434    0.0000 </r>
       <r>    9.1863    0.0000 </r>
       <r>    9.9144    0.0000 </r>
       <r>    9.9156    0.0000 </r>
       <r>   10.3610    0.0000 </r>
       <r>   10.6840    0.0000 </r>
       <r>   10.7298    0.0000 </r>
       <r>   10.9639    0.0000 </r>
       <r>   11.5006    0.0000 </r>
       <r>   11.6334    0.0000 </r>
       <r>   11.8407    0.0000 </r>
       <r>   12.1846    0.0000 </r>
       <r>   12.7292    0.0000 </r>
       <r>   13.4344    0.0000 </r>
       <r>   15.1697    0.0000 </r>
       <r>   15.3235    0.0000 </r>
       <r>   15.7600    0.0000 </r>
       <r>   15.8322    0.0000 </r>
       <r>   16.0736    0.0000 </r>
       <r>   16.5659    0.0000 </r>
       <r>   16.8514    0.0000 </r>
       <r>   17.1904    0.0000 </r>
      </set>
      <set comment="kpoint 20">
       <r>  -15.4183    1.0000 </r>
       <r>  -15.4183    1.0000 </r>
       <r>  -15.4080    1.0000 </r>
       <r>  -15.4080    1.0000 </r>
       <r>  -15.3928    1.0000 </r>
       <r>  -15.3928    1.0000 </r>
       <r>  -15.3848    1.0000 </r>
       <r>  -15.3848    1.0000 </r>
       <r>  -15.3823    1.0000 </r>
       <r>  -15.3823    1.0000 </r>
       <r>  -15.3683    1.0000 </r>
       <r>  -15.3683    1.0000 </r>
       <r>  -15.3537    1.0000 </r>
       <r>  -15.3537    1.0000 </r>
       <r>  -15.3398    1.0000 </r>
       <r>  -15.3398    1.0000 </r>
       <r>  -15.3333    1.0000 </r>
       <r>  -15.3333    1.0000 </r>
       <r>  -15.3174    1.0000 </r>
       <r>  -15.3174    1.0000 </r>
       <r>   -6.9012    1.0000 </r>
       <r>   -6.9012    1.0000 </r>
       <r>   -6.6990    1.0000 </r>
       <r>   -6.6990    1.0000 </r>
       <r>   -1.7025    1.0000 </r>
       <r>   -1.7025    1.0000 </r>
       <r>   -0.6278    1.0000 </r>
       <r>   -0.6278    1.0000 </r>
       <r>    1.0016    1.0000 </r>
       <r>    1.0016    1.0000 </r>
       <r>    1.4214    1.0000 </r>
       <r>    1.4214    1.0000 </r>
       <r>    2.2844    1.0000 </r>
       <r>    2.2844    1.0000 </r>
       <r>    2.9888    1.0000 </r>
       <r>    2.9888    1.0000 </r>
       <r>    3.6470    1.0000 </r>
       <r>    3.6470    1.0000 </r>
       <r>    4.6323    1.0000 </r>
       <r>    4.6323    1.0000 </r>
       <r>    7.5999    0.0000 </r>
       <r>    7.5999    0.0000 </r>
       <r>    9.5120    0.0000 </r>
       <r>    9.5120    0.0000 </r>
       <r>   10.3828    0.0000 </r>
       <r>   10.3828    0.0000 </r>
       <r>   10.7628    0.0000 </r>
       <r>   10.7628    0.0000 </r>
       <r>   10.8836    0.0000 </r>
       <r>   10.8836    0.0000 </r>
       <r>   11.6916    0.0000 </r>
       <r>   11.6916    0.0000 </r>
       <r>   11.9845    0.0000 </r>
       <r>   11.9845    0.0000 </r>
       <r>   12.7742    0.0000 </r>
       <r>   12.7742    0.0000 </r>
       <r>   15.8761    0.0000 </r>
       <r>   15.8761    0.0000 </r>
       <r>   16.4538    0.0000 </r>
       <r>   16.4538    0.0000 </r>
       <r>   16.6436    0.0000 </r>
       <r>   16.6436    0.0000 </r>
       <r>   17.3050    0.0000 </r>
       <r>   17.3050    0.0000 </r>
      </set>
      <set comment="kpoint 21">
       <r>  -15.4065    1.0000 </r>
       <r>  -15.4053    1.0000 </r>
       <r>  -15.4011    1.0000 </r>
       <r>  -15.3995    1.0000 </r>
       <r>  -15.3917    1.0000 </r>
       <r>  -15.3917    1.0000 </r>
       <r>  -15.3907    1.0000 </r>
       <r>  -15.3889    1.0000 </r>
       <r>  -15.3819    1.0000 </r>
       <r>  -15.3753    1.0000 </r>
       <r>  -15.3736    1.0000 </r>
       <r>  -15.3725    1.0000 </r>
       <r>  -15.3577    1.0000 </r>
       <r>  -15.3529    1.0000 </r>
       <r>  -15.3506    1.0000 </r>
       <r>  -15.3486    1.0000 </r>
       <r>  -15.3294    1.0000 </r>
       <r>  -15.3246    1.0000 </r>
       <r>  -15.3230    1.0000 </r>
       <r>  -15.3211    1.0000 </r>
       <r>   -7.2020    1.0000 </r>
       <r>   -7.0394    1.0000 </r>
       <r>   -6.8874    1.0000 </r>
       <r>   -6.8534    1.0000 </r>
       <r>   -2.2078    1.0000 </r>
       <r>   -1.9158    1.0000 </r>
       <r>   -1.4534    1.0000 </r>
       <r>   -1.1937    1.0000 </r>
       <r>    1.7716    1.0000 </r>
       <r>    2.3740    1.0000 </r>
       <r>    3.3458    1.0000 </r>
       <r>    3.5686    1.0000 </r>
       <r>    3.6931    1.0000 </r>
       <r>    3.7557    1.0000 </r>
       <r>    3.8284    1.0000 </r>
       <r>    4.3493    1.0000 </r>
       <r>    4.9166    1.0000 </r>
       <r>    4.9424    1.0000 </r>
       <r>    5.0339    1.0000 </r>
       <r>    5.1731    1.0000 </r>
       <r>    6.7902    0.0000 </r>
       <r>    6.8857    0.0000 </r>
       <r>    7.0071    0.0000 </r>
       <r>    7.3705    0.0000 </r>
       <r>    7.4164    0.0000 </r>
       <r>    7.6282    0.0000 </r>
       <r>    8.1720    0.0000 </r>
       <r>    8.5652    0.0000 </r>
       <r>    8.9419    0.0000 </r>
       <r>    9.1275    0.0000 </r>
       <r>   10.9692    0.0000 </r>
       <r>   11.1323    0.0000 </r>
       <r>   12.7535    0.0000 </r>
       <r>   12.9496    0.0000 </r>
       <r>   13.3655    0.0000 </r>
       <r>   13.5740    0.0000 </r>
       <r>   14.4845    0.0000 </r>
       <r>   14.9156    0.0000 </r>
       <r>   15.1533    0.0000 </r>
       <r>   15.6614    0.0000 </r>
       <r>   15.7424    0.0000 </r>
       <r>   16.2667    0.0000 </r>
       <r>   16.5642    0.0000 </r>
       <r>   16.7145    0.0000 </r>
      </set>
      <set comment="kpoint 22">
       <r>  -15.4095    1.0000 </r>
       <r>  -15.4081    1.0000 </r>
       <r>  -15.4025    1.0000 </r>
       <r>  -15.4013    1.0000 </r>
       <r>  -15.3922    1.0000 </r>
       <r>  -15.3915    1.0000 </r>
       <r>  -15.3890    1.0000 </r>
       <r>  -15.3881    1.0000 </r>
       <r>  -15.3808    1.0000 </r>
       <r>  -15.3753    1.0000 </r>
       <r>  -15.3733    1.0000 </r>
       <r>  -15.3720    1.0000 </r>
       <r>  -15.3569    1.0000 </r>
       <r>  -15.3531    1.0000 </r>
       <r>  -15.3488    1.0000 </r>
       <r>  -15.3477    1.0000 </r>
       <r>  -15.3296    1.0000 </r>
       <r>  -15.3257    1.0000 </r>
       <r>  -15.3222    1.0000 </r>
       <r>  -15.3209    1.0000 </r>
       <r>   -7.1510    1.0000 </r>
       <r>   -6.9953    1.0000 </r>
       <r>   -6.8551    1.0000 </r>
       <r>   -6.8201    1.0000 </r>
       <r>   -2.1116    1.0000 </r>
       <r>   -1.8164    1.0000 </r>
       <r>   -1.3677    1.0000 </r>
       <r>   -1.1497    1.0000 </r>
       <r>    1.8111    1.0000 </r>
       <r>    2.1449    1.0000 </r>
       <r>    2.3867    1.0000 </r>
       <r>    2.9450    1.0000 </r>
       <r>    3.2204    1.0000 </r>
       <r>    3.2578    1.0000 </r>
       <r>    4.2426    1.0000 </r>
       <r>    4.3312    1.0000 </r>
       <r>    4.3348    1.0000 </r>
       <r>    4.5750    1.0000 </r>
       <r>    5.1673    1.0000 </r>
       <r>    5.2199    1.0000 </r>
       <r>    6.6193    0.0000 </r>
       <r>    6.6216    0.0000 </r>
       <r>    7.2843    0.0000 </r>
       <r>    7.5709    0.0000 </r>
       <r>    8.3894    0.0000 </r>
       <r>    8.5148    0.0000 </r>
       <r>    8.8304    0.0000 </r>
       <r>    9.2770    0.0000 </r>
       <r>    9.4029    0.0000 </r>
       <r>   10.0401    0.0000 </r>
       <r>   10.7956    0.0000 </r>
       <r>   10.9044    0.0000 </r>
       <r>   11.8315    0.0000 </r>
       <r>   12.1850    0.0000 </r>
       <r>   14.0416    0.0000 </r>
       <r>   14.4251    0.0000 </r>
       <r>   14.6941    0.0000 </r>
       <r>   14.9300    0.0000 </r>
       <r>   15.1842    0.0000 </r>
       <r>   15.3424    0.0000 </r>
       <r>   15.7968    0.0000 </r>
       <r>   16.2212    0.0000 </r>
       <r>   16.4904    0.0000 </r>
       <r>   16.5398    0.0000 </r>
      </set>
      <set comment="kpoint 23">
       <r>  -15.4157    1.0000 </r>
       <r>  -15.4144    1.0000 </r>
       <r>  -15.4066    1.0000 </r>
       <r>  -15.4061    1.0000 </r>
       <r>  -15.3919    1.0000 </r>
       <r>  -15.3910    1.0000 </r>
       <r>  -15.3865    1.0000 </r>
       <r>  -15.3864    1.0000 </r>
       <r>  -15.3788    1.0000 </r>
       <r>  -15.3755    1.0000 </r>
       <r>  -15.3725    1.0000 </r>
       <r>  -15.3711    1.0000 </r>
       <r>  -15.3546    1.0000 </r>
       <r>  -15.3524    1.0000 </r>
       <r>  -15.3457    1.0000 </r>
       <r>  -15.3455    1.0000 </r>
       <r>  -15.3297    1.0000 </r>
       <r>  -15.3270    1.0000 </r>
       <r>  -15.3211    1.0000 </r>
       <r>  -15.3205    1.0000 </r>
       <r>   -7.0168    1.0000 </r>
       <r>   -6.8812    1.0000 </r>
       <r>   -6.7797    1.0000 </r>
       <r>   -6.7402    1.0000 </r>
       <r>   -1.8410    1.0000 </r>
       <r>   -1.5379    1.0000 </r>
       <r>   -1.1338    1.0000 </r>
       <r>   -1.0522    1.0000 </r>
       <r>    1.2367    1.0000 </r>
       <r>    1.7343    1.0000 </r>
       <r>    1.7386    1.0000 </r>
       <r>    1.9850    1.0000 </r>
       <r>    2.4663    1.0000 </r>
       <r>    2.9369    1.0000 </r>
       <r>    3.3355    1.0000 </r>
       <r>    3.5526    1.0000 </r>
       <r>    3.6058    1.0000 </r>
       <r>    4.0796    1.0000 </r>
       <r>    4.8220    1.0000 </r>
       <r>    4.9970    1.0000 </r>
       <r>    6.7419    0.0000 </r>
       <r>    7.4574    0.0000 </r>
       <r>    8.5683    0.0000 </r>
       <r>    8.9060    0.0000 </r>
       <r>    9.4874    0.0000 </r>
       <r>    9.5940    0.0000 </r>
       <r>   10.0053    0.0000 </r>
       <r>   10.2277    0.0000 </r>
       <r>   10.3487    0.0000 </r>
       <r>   10.6126    0.0000 </r>
       <r>   10.7776    0.0000 </r>
       <r>   11.4182    0.0000 </r>
       <r>   11.4750    0.0000 </r>
       <r>   11.5458    0.0000 </r>
       <r>   13.3688    0.0000 </r>
       <r>   13.6457    0.0000 </r>
       <r>   15.2141    0.0000 </r>
       <r>   15.4439    0.0000 </r>
       <r>   15.6501    0.0000 </r>
       <r>   16.2945    0.0000 </r>
       <r>   16.4083    0.0000 </r>
       <r>   16.6781    0.0000 </r>
       <r>   16.9618    0.0000 </r>
       <r>   17.1753    0.0000 </r>
      </set>
      <set comment="kpoint 24">
       <r>  -15.4213    1.0000 </r>
       <r>  -15.4205    1.0000 </r>
       <r>  -15.4110    1.0000 </r>
       <r>  -15.4108    1.0000 </r>
       <r>  -15.3917    1.0000 </r>
       <r>  -15.3909    1.0000 </r>
       <r>  -15.3847    1.0000 </r>
       <r>  -15.3844    1.0000 </r>
       <r>  -15.3772    1.0000 </r>
       <r>  -15.3759    1.0000 </r>
       <r>  -15.3716    1.0000 </r>
       <r>  -15.3706    1.0000 </r>
       <r>  -15.3518    1.0000 </r>
       <r>  -15.3509    1.0000 </r>
       <r>  -15.3432    1.0000 </r>
       <r>  -15.3432    1.0000 </r>
       <r>  -15.3293    1.0000 </r>
       <r>  -15.3279    1.0000 </r>
       <r>  -15.3204    1.0000 </r>
       <r>  -15.3201    1.0000 </r>
       <r>   -6.8542    1.0000 </r>
       <r>   -6.7485    1.0000 </r>
       <r>   -6.7193    1.0000 </r>
       <r>   -6.6679    1.0000 </r>
       <r>   -1.4753    1.0000 </r>
       <r>   -1.2054    1.0000 </r>
       <r>   -0.9448    1.0000 </r>
       <r>   -0.8477    1.0000 </r>
       <r>    0.6161    1.0000 </r>
       <r>    1.0055    1.0000 </r>
       <r>    1.2536    1.0000 </r>
       <r>    1.5511    1.0000 </r>
       <r>    2.0446    1.0000 </r>
       <r>    2.2181    1.0000 </r>
       <r>    2.7174    1.0000 </r>
       <r>    3.1458    1.0000 </r>
       <r>    3.3051    1.0000 </r>
       <r>    3.4285    1.0000 </r>
       <r>    4.5108    1.0000 </r>
       <r>    4.5594    1.0000 </r>
       <r>    7.5099    0.0000 </r>
       <r>    8.2695    0.0000 </r>
       <r>    9.0573    0.0000 </r>
       <r>    9.3820    0.0000 </r>
       <r>   10.2501    0.0000 </r>
       <r>   10.3157    0.0000 </r>
       <r>   10.4198    0.0000 </r>
       <r>   10.8139    0.0000 </r>
       <r>   10.8269    0.0000 </r>
       <r>   11.3211    0.0000 </r>
       <r>   11.7936    0.0000 </r>
       <r>   11.9183    0.0000 </r>
       <r>   12.0598    0.0000 </r>
       <r>   12.4218    0.0000 </r>
       <r>   12.7919    0.0000 </r>
       <r>   13.0732    0.0000 </r>
       <r>   15.5935    0.0000 </r>
       <r>   15.7630    0.0000 </r>
       <r>   16.6867    0.0000 </r>
       <r>   16.7686    0.0000 </r>
       <r>   16.9957    0.0000 </r>
       <r>   17.1450    0.0000 </r>
       <r>   17.5981    0.0000 </r>
       <r>   17.6403    0.0000 </r>
      </set>
      <set comment="kpoint 25">
       <r>  -15.4232    1.0000 </r>
       <r>  -15.4232    1.0000 </r>
       <r>  -15.4127    1.0000 </r>
       <r>  -15.4127    1.0000 </r>
       <r>  -15.3913    1.0000 </r>
       <r>  -15.3913    1.0000 </r>
       <r>  -15.3839    1.0000 </r>
       <r>  -15.3839    1.0000 </r>
       <r>  -15.3763    1.0000 </r>
       <r>  -15.3763    1.0000 </r>
       <r>  -15.3709    1.0000 </r>
       <r>  -15.3709    1.0000 </r>
       <r>  -15.3503    1.0000 </r>
       <r>  -15.3503    1.0000 </r>
       <r>  -15.3423    1.0000 </r>
       <r>  -15.3423    1.0000 </r>
       <r>  -15.3285    1.0000 </r>
       <r>  -15.3285    1.0000 </r>
       <r>  -15.3201    1.0000 </r>
       <r>  -15.3201    1.0000 </r>
       <r>   -6.7383    1.0000 </r>
       <r>   -6.7383    1.0000 </r>
       <r>   -6.6639    1.0000 </r>
       <r>   -6.6639    1.0000 </r>
       <r>   -1.2017    1.0000 </r>
       <r>   -1.2017    1.0000 </r>
       <r>   -0.7487    1.0000 </r>
       <r>   -0.7487    1.0000 </r>
       <r>    0.5436    1.0000 </r>
       <r>    0.5436    1.0000 </r>
       <r>    1.1542    1.0000 </r>
       <r>    1.1542    1.0000 </r>
       <r>    1.9157    1.0000 </r>
       <r>    1.9157    1.0000 </r>
       <r>    2.6495    1.0000 </r>
       <r>    2.6495    1.0000 </r>
       <r>    3.3437    1.0000 </r>
       <r>    3.3437    1.0000 </r>
       <r>    4.3842    1.0000 </r>
       <r>    4.3842    1.0000 </r>
       <r>    8.2164    0.0000 </r>
       <r>    8.2164    0.0000 </r>
       <r>    9.0859    0.0000 </r>
       <r>    9.0859    0.0000 </r>
       <r>   10.3517    0.0000 </r>
       <r>   10.3517    0.0000 </r>
       <r>   10.8045    0.0000 </r>
       <r>   10.8045    0.0000 </r>
       <r>   11.6997    0.0000 </r>
       <r>   11.6997    0.0000 </r>
       <r>   12.3476    0.0000 </r>
       <r>   12.3476    0.0000 </r>
       <r>   12.6655    0.0000 </r>
       <r>   12.6655    0.0000 </r>
       <r>   12.8490    0.0000 </r>
       <r>   12.8490    0.0000 </r>
       <r>   15.9995    0.0000 </r>
       <r>   15.9995    0.0000 </r>
       <r>   16.7026    0.0000 </r>
       <r>   16.7026    0.0000 </r>
       <r>   16.9513    0.0000 </r>
       <r>   16.9513    0.0000 </r>
       <r>   17.8028    0.0000 </r>
       <r>   17.8033    0.0000 </r>
      </set>
      <set comment="kpoint 26">
       <r>  -15.4171    1.0000 </r>
       <r>  -15.4084    1.0000 </r>
       <r>  -15.3995    1.0000 </r>
       <r>  -15.3968    1.0000 </r>
       <r>  -15.3934    1.0000 </r>
       <r>  -15.3911    1.0000 </r>
       <r>  -15.3909    1.0000 </r>
       <r>  -15.3875    1.0000 </r>
       <r>  -15.3815    1.0000 </r>
       <r>  -15.3802    1.0000 </r>
       <r>  -15.3796    1.0000 </r>
       <r>  -15.3783    1.0000 </r>
       <r>  -15.3672    1.0000 </r>
       <r>  -15.3643    1.0000 </r>
       <r>  -15.3457    1.0000 </r>
       <r>  -15.3418    1.0000 </r>
       <r>  -15.3340    1.0000 </r>
       <r>  -15.3309    1.0000 </r>
       <r>  -15.3141    1.0000 </r>
       <r>  -15.3095    1.0000 </r>
       <r>   -8.0988    1.0000 </r>
       <r>   -7.9074    1.0000 </r>
       <r>   -6.9014    1.0000 </r>
       <r>   -6.6141    1.0000 </r>
       <r>   -1.3186    1.0000 </r>
       <r>   -0.8727    1.0000 </r>
       <r>    0.7138    1.0000 </r>
       <r>    0.8307    1.0000 </r>
       <r>    1.2238    1.0000 </r>
       <r>    2.0565    1.0000 </r>
       <r>    2.4274    1.0000 </r>
       <r>    2.5284    1.0000 </r>
       <r>    2.6831    1.0000 </r>
       <r>    3.0364    1.0000 </r>
       <r>    3.6728    1.0000 </r>
       <r>    3.7138    1.0000 </r>
       <r>    3.7142    1.0000 </r>
       <r>    4.0822    1.0000 </r>
       <r>    5.2388    1.0000 </r>
       <r>    5.3073    1.0000 </r>
       <r>    7.6350    0.0000 </r>
       <r>    8.4796    0.0000 </r>
       <r>    8.5694    0.0000 </r>
       <r>    9.0681    0.0000 </r>
       <r>    9.4885    0.0000 </r>
       <r>    9.6574    0.0000 </r>
       <r>    9.8918    0.0000 </r>
       <r>   10.1279    0.0000 </r>
       <r>   10.6347    0.0000 </r>
       <r>   10.8185    0.0000 </r>
       <r>   11.3335    0.0000 </r>
       <r>   11.3683    0.0000 </r>
       <r>   11.6126    0.0000 </r>
       <r>   11.8715    0.0000 </r>
       <r>   12.1828    0.0000 </r>
       <r>   12.4427    0.0000 </r>
       <r>   13.0236    0.0000 </r>
       <r>   13.4065    0.0000 </r>
       <r>   13.9377    0.0000 </r>
       <r>   14.3340    0.0000 </r>
       <r>   14.5128    0.0000 </r>
       <r>   14.5397    0.0000 </r>
       <r>   14.8559    0.0000 </r>
       <r>   14.8598    0.0000 </r>
      </set>
      <set comment="kpoint 27">
       <r>  -15.4161    1.0000 </r>
       <r>  -15.4080    1.0000 </r>
       <r>  -15.3983    1.0000 </r>
       <r>  -15.3958    1.0000 </r>
       <r>  -15.3941    1.0000 </r>
       <r>  -15.3920    1.0000 </r>
       <r>  -15.3916    1.0000 </r>
       <r>  -15.3878    1.0000 </r>
       <r>  -15.3819    1.0000 </r>
       <r>  -15.3801    1.0000 </r>
       <r>  -15.3792    1.0000 </r>
       <r>  -15.3765    1.0000 </r>
       <r>  -15.3664    1.0000 </r>
       <r>  -15.3644    1.0000 </r>
       <r>  -15.3458    1.0000 </r>
       <r>  -15.3418    1.0000 </r>
       <r>  -15.3342    1.0000 </r>
       <r>  -15.3312    1.0000 </r>
       <r>  -15.3140    1.0000 </r>
       <r>  -15.3097    1.0000 </r>
       <r>   -8.0259    1.0000 </r>
       <r>   -7.8382    1.0000 </r>
       <r>   -6.8861    1.0000 </r>
       <r>   -6.6149    1.0000 </r>
       <r>   -1.5869    1.0000 </r>
       <r>   -1.0994    1.0000 </r>
       <r>    0.2671    1.0000 </r>
       <r>    0.4972    1.0000 </r>
       <r>    1.2699    1.0000 </r>
       <r>    2.2090    1.0000 </r>
       <r>    2.5377    1.0000 </r>
       <r>    2.7887    1.0000 </r>
       <r>    2.8253    1.0000 </r>
       <r>    3.2190    1.0000 </r>
       <r>    3.7885    1.0000 </r>
       <r>    3.8764    1.0000 </r>
       <r>    4.1405    1.0000 </r>
       <r>    4.2389    1.0000 </r>
       <r>    5.1283    1.0000 </r>
       <r>    5.3098    1.0000 </r>
       <r>    7.5940    0.0000 </r>
       <r>    8.3121    0.0000 </r>
       <r>    8.7650    0.0000 </r>
       <r>    8.9909    0.0000 </r>
       <r>    9.0241    0.0000 </r>
       <r>    9.3347    0.0000 </r>
       <r>    9.4246    0.0000 </r>
       <r>    9.9431    0.0000 </r>
       <r>   10.4644    0.0000 </r>
       <r>   10.8511    0.0000 </r>
       <r>   10.9970    0.0000 </r>
       <r>   11.2618    0.0000 </r>
       <r>   11.3690    0.0000 </r>
       <r>   11.5098    0.0000 </r>
       <r>   12.1182    0.0000 </r>
       <r>   12.6521    0.0000 </r>
       <r>   12.9749    0.0000 </r>
       <r>   13.4771    0.0000 </r>
       <r>   13.9421    0.0000 </r>
       <r>   14.1492    0.0000 </r>
       <r>   15.0383    0.0000 </r>
       <r>   15.2479    0.0000 </r>
       <r>   15.4252    0.0000 </r>
       <r>   15.5205    0.0000 </r>
      </set>
      <set comment="kpoint 28">
       <r>  -15.4134    1.0000 </r>
       <r>  -15.4070    1.0000 </r>
       <r>  -15.3962    1.0000 </r>
       <r>  -15.3958    1.0000 </r>
       <r>  -15.3946    1.0000 </r>
       <r>  -15.3939    1.0000 </r>
       <r>  -15.3923    1.0000 </r>
       <r>  -15.3890    1.0000 </r>
       <r>  -15.3826    1.0000 </r>
       <r>  -15.3812    1.0000 </r>
       <r>  -15.3761    1.0000 </r>
       <r>  -15.3723    1.0000 </r>
       <r>  -15.3653    1.0000 </r>
       <r>  -15.3640    1.0000 </r>
       <r>  -15.3456    1.0000 </r>
       <r>  -15.3420    1.0000 </r>
       <r>  -15.3345    1.0000 </r>
       <r>  -15.3321    1.0000 </r>
       <r>  -15.3135    1.0000 </r>
       <r>  -15.3103    1.0000 </r>
       <r>   -7.8207    1.0000 </r>
       <r>   -7.6446    1.0000 </r>
       <r>   -6.8697    1.0000 </r>
       <r>   -6.6420    1.0000 </r>
       <r>   -2.0998    1.0000 </r>
       <r>   -1.6136    1.0000 </r>
       <r>   -0.4967    1.0000 </r>
       <r>   -0.1454    1.0000 </r>
       <r>    1.4562    1.0000 </r>
       <r>    2.4996    1.0000 </r>
       <r>    2.8528    1.0000 </r>
       <r>    3.0878    1.0000 </r>
       <r>    3.3217    1.0000 </r>
       <r>    3.6272    1.0000 </r>
       <r>    3.9672    1.0000 </r>
       <r>    4.2654    1.0000 </r>
       <r>    4.5005    1.0000 </r>
       <r>    4.7479    1.0000 </r>
       <r>    5.0953    1.0000 </r>
       <r>    5.3942    1.0000 </r>
       <r>    7.4749    0.0000 </r>
       <r>    7.7957    0.0000 </r>
       <r>    8.0664    0.0000 </r>
       <r>    8.3029    0.0000 </r>
       <r>    8.5051    0.0000 </r>
       <r>    8.6523    0.0000 </r>
       <r>    9.1315    0.0000 </r>
       <r>    9.8466    0.0000 </r>
       <r>    9.8617    0.0000 </r>
       <r>   10.3591    0.0000 </r>
       <r>   10.6863    0.0000 </r>
       <r>   10.8276    0.0000 </r>
       <r>   11.3955    0.0000 </r>
       <r>   11.6760    0.0000 </r>
       <r>   12.5939    0.0000 </r>
       <r>   13.1181    0.0000 </r>
       <r>   13.2887    0.0000 </r>
       <r>   13.8907    0.0000 </r>
       <r>   14.2029    0.0000 </r>
       <r>   14.2214    0.0000 </r>
       <r>   15.2481    0.0000 </r>
       <r>   15.6500    0.0000 </r>
       <r>   16.4133    0.0000 </r>
       <r>   16.5499    0.0000 </r>
      </set>
      <set comment="kpoint 29">
       <r>  -15.4102    1.0000 </r>
       <r>  -15.4065    1.0000 </r>
       <r>  -15.3983    1.0000 </r>
       <r>  -15.3975    1.0000 </r>
       <r>  -15.3939    1.0000 </r>
       <r>  -15.3928    1.0000 </r>
       <r>  -15.3927    1.0000 </r>
       <r>  -15.3909    1.0000 </r>
       <r>  -15.3829    1.0000 </r>
       <r>  -15.3820    1.0000 </r>
       <r>  -15.3720    1.0000 </r>
       <r>  -15.3687    1.0000 </r>
       <r>  -15.3651    1.0000 </r>
       <r>  -15.3632    1.0000 </r>
       <r>  -15.3446    1.0000 </r>
       <r>  -15.3424    1.0000 </r>
       <r>  -15.3343    1.0000 </r>
       <r>  -15.3330    1.0000 </r>
       <r>  -15.3128    1.0000 </r>
       <r>  -15.3111    1.0000 </r>
       <r>   -7.5309    1.0000 </r>
       <r>   -7.3810    1.0000 </r>
       <r>   -6.9174    1.0000 </r>
       <r>   -6.7492    1.0000 </r>
       <r>   -2.4508    1.0000 </r>
       <r>   -2.1210    1.0000 </r>
       <r>   -1.0342    1.0000 </r>
       <r>   -0.7695    1.0000 </r>
       <r>    1.8766    1.0000 </r>
       <r>    2.8125    1.0000 </r>
       <r>    3.2811    1.0000 </r>
       <r>    3.3115    1.0000 </r>
       <r>    3.5093    1.0000 </r>
       <r>    3.9502    1.0000 </r>
       <r>    4.0905    1.0000 </r>
       <r>    4.2977    1.0000 </r>
       <r>    4.8174    1.0000 </r>
       <r>    4.9808    1.0000 </r>
       <r>    5.6225    1.0000 </r>
       <r>    5.8255    1.0000 </r>
       <r>    6.8946    0.0000 </r>
       <r>    7.3019    0.0000 </r>
       <r>    7.3762    0.0000 </r>
       <r>    7.7110    0.0000 </r>
       <r>    7.7684    0.0000 </r>
       <r>    8.1493    0.0000 </r>
       <r>    8.6054    0.0000 </r>
       <r>    9.0543    0.0000 </r>
       <r>    9.4060    0.0000 </r>
       <r>    9.4522    0.0000 </r>
       <r>   10.9371    0.0000 </r>
       <r>   11.1935    0.0000 </r>
       <r>   12.5475    0.0000 </r>
       <r>   12.7960    0.0000 </r>
       <r>   13.1903    0.0000 </r>
       <r>   13.5640    0.0000 </r>
       <r>   13.8530    0.0000 </r>
       <r>   14.3215    0.0000 </r>
       <r>   14.5799    0.0000 </r>
       <r>   14.5956    0.0000 </r>
       <r>   15.3798    0.0000 </r>
       <r>   15.5661    0.0000 </r>
       <r>   15.5832    0.0000 </r>
       <r>   16.3805    0.0000 </r>
      </set>
      <set comment="kpoint 30">
       <r>  -15.4075    1.0000 </r>
       <r>  -15.4075    1.0000 </r>
       <r>  -15.3989    1.0000 </r>
       <r>  -15.3989    1.0000 </r>
       <r>  -15.3929    1.0000 </r>
       <r>  -15.3929    1.0000 </r>
       <r>  -15.3924    1.0000 </r>
       <r>  -15.3924    1.0000 </r>
       <r>  -15.3826    1.0000 </r>
       <r>  -15.3826    1.0000 </r>
       <r>  -15.3689    1.0000 </r>
       <r>  -15.3689    1.0000 </r>
       <r>  -15.3638    1.0000 </r>
       <r>  -15.3638    1.0000 </r>
       <r>  -15.3432    1.0000 </r>
       <r>  -15.3432    1.0000 </r>
       <r>  -15.3337    1.0000 </r>
       <r>  -15.3337    1.0000 </r>
       <r>  -15.3120    1.0000 </r>
       <r>  -15.3120    1.0000 </r>
       <r>   -7.2783    1.0000 </r>
       <r>   -7.2783    1.0000 </r>
       <r>   -6.9280    1.0000 </r>
       <r>   -6.9280    1.0000 </r>
       <r>   -2.4464    1.0000 </r>
       <r>   -2.4464    1.0000 </r>
       <r>   -1.1211    1.0000 </r>
       <r>   -1.1211    1.0000 </r>
       <r>    2.4448    1.0000 </r>
       <r>    2.4448    1.0000 </r>
       <r>    3.5859    1.0000 </r>
       <r>    3.5859    1.0000 </r>
       <r>    3.7167    1.0000 </r>
       <r>    3.7167    1.0000 </r>
       <r>    4.1157    1.0000 </r>
       <r>    4.1157    1.0000 </r>
       <r>    5.3441    1.0000 </r>
       <r>    5.3441    1.0000 </r>
       <r>    5.7123    1.0000 </r>
       <r>    5.7123    1.0000 </r>
       <r>    6.9247    0.0000 </r>
       <r>    6.9247    0.0000 </r>
       <r>    7.2769    0.0000 </r>
       <r>    7.2769    0.0000 </r>
       <r>    7.5978    0.0000 </r>
       <r>    7.5978    0.0000 </r>
       <r>    8.8626    0.0000 </r>
       <r>    8.8626    0.0000 </r>
       <r>    8.8756    0.0000 </r>
       <r>    8.8756    0.0000 </r>
       <r>   11.2128    0.0000 </r>
       <r>   11.2128    0.0000 </r>
       <r>   13.4924    0.0000 </r>
       <r>   13.4924    0.0000 </r>
       <r>   14.1142    0.0000 </r>
       <r>   14.1142    0.0000 </r>
       <r>   14.2106    0.0000 </r>
       <r>   14.2106    0.0000 </r>
       <r>   14.5200    0.0000 </r>
       <r>   14.5200    0.0000 </r>
       <r>   15.7739    0.0000 </r>
       <r>   15.7739    0.0000 </r>
       <r>   15.7931    0.0000 </r>
       <r>   15.7931    0.0000 </r>
      </set>
      <set comment="kpoint 31">
       <r>  -15.4137    1.0000 </r>
       <r>  -15.4057    1.0000 </r>
       <r>  -15.3981    1.0000 </r>
       <r>  -15.3957    1.0000 </r>
       <r>  -15.3941    1.0000 </r>
       <r>  -15.3926    1.0000 </r>
       <r>  -15.3923    1.0000 </r>
       <r>  -15.3892    1.0000 </r>
       <r>  -15.3839    1.0000 </r>
       <r>  -15.3821    1.0000 </r>
       <r>  -15.3782    1.0000 </r>
       <r>  -15.3762    1.0000 </r>
       <r>  -15.3656    1.0000 </r>
       <r>  -15.3639    1.0000 </r>
       <r>  -15.3443    1.0000 </r>
       <r>  -15.3408    1.0000 </r>
       <r>  -15.3344    1.0000 </r>
       <r>  -15.3321    1.0000 </r>
       <r>  -15.3150    1.0000 </r>
       <r>  -15.3109    1.0000 </r>
       <r>   -8.0287    1.0000 </r>
       <r>   -7.8423    1.0000 </r>
       <r>   -6.8734    1.0000 </r>
       <r>   -6.6037    1.0000 </r>
       <r>   -1.4350    1.0000 </r>
       <r>   -1.0026    1.0000 </r>
       <r>    0.4369    1.0000 </r>
       <r>    0.4485    1.0000 </r>
       <r>    1.2403    1.0000 </r>
       <r>    2.1197    1.0000 </r>
       <r>    2.3366    1.0000 </r>
       <r>    2.6632    1.0000 </r>
       <r>    2.8550    1.0000 </r>
       <r>    3.1489    1.0000 </r>
       <r>    3.6652    1.0000 </r>
       <r>    3.7614    1.0000 </r>
       <r>    4.0623    1.0000 </r>
       <r>    4.1197    1.0000 </r>
       <r>    5.2667    1.0000 </r>
       <r>    5.2999    1.0000 </r>
       <r>    7.7301    0.0000 </r>
       <r>    8.4403    0.0000 </r>
       <r>    8.6808    0.0000 </r>
       <r>    8.9429    0.0000 </r>
       <r>    9.1021    0.0000 </r>
       <r>    9.4229    0.0000 </r>
       <r>    9.4275    0.0000 </r>
       <r>    9.9620    0.0000 </r>
       <r>   10.5404    0.0000 </r>
       <r>   11.0237    0.0000 </r>
       <r>   11.0305    0.0000 </r>
       <r>   11.2910    0.0000 </r>
       <r>   11.4931    0.0000 </r>
       <r>   11.6058    0.0000 </r>
       <r>   11.8164    0.0000 </r>
       <r>   12.2261    0.0000 </r>
       <r>   12.5754    0.0000 </r>
       <r>   13.5821    0.0000 </r>
       <r>   13.8655    0.0000 </r>
       <r>   14.3830    0.0000 </r>
       <r>   15.2716    0.0000 </r>
       <r>   15.2898    0.0000 </r>
       <r>   15.3445    0.0000 </r>
       <r>   15.4505    0.0000 </r>
      </set>
      <set comment="kpoint 32">
       <r>  -15.4129    1.0000 </r>
       <r>  -15.4054    1.0000 </r>
       <r>  -15.3970    1.0000 </r>
       <r>  -15.3952    1.0000 </r>
       <r>  -15.3948    1.0000 </r>
       <r>  -15.3936    1.0000 </r>
       <r>  -15.3925    1.0000 </r>
       <r>  -15.3896    1.0000 </r>
       <r>  -15.3843    1.0000 </r>
       <r>  -15.3828    1.0000 </r>
       <r>  -15.3770    1.0000 </r>
       <r>  -15.3746    1.0000 </r>
       <r>  -15.3651    1.0000 </r>
       <r>  -15.3638    1.0000 </r>
       <r>  -15.3444    1.0000 </r>
       <r>  -15.3408    1.0000 </r>
       <r>  -15.3347    1.0000 </r>
       <r>  -15.3324    1.0000 </r>
       <r>  -15.3148    1.0000 </r>
       <r>  -15.3110    1.0000 </r>
       <r>   -7.9567    1.0000 </r>
       <r>   -7.7741    1.0000 </r>
       <r>   -6.8578    1.0000 </r>
       <r>   -6.6031    1.0000 </r>
       <r>   -1.6351    1.0000 </r>
       <r>   -1.1590    1.0000 </r>
       <r>    0.0967    1.0000 </r>
       <r>    0.2657    1.0000 </r>
       <r>    1.3039    1.0000 </r>
       <r>    2.0405    1.0000 </r>
       <r>    2.2500    1.0000 </r>
       <r>    2.5894    1.0000 </r>
       <r>    3.0829    1.0000 </r>
       <r>    3.4263    1.0000 </r>
       <r>    3.5926    1.0000 </r>
       <r>    3.7500    1.0000 </r>
       <r>    4.4938    1.0000 </r>
       <r>    4.7386    1.0000 </r>
       <r>    5.1643    1.0000 </r>
       <r>    5.3228    1.0000 </r>
       <r>    7.6587    0.0000 </r>
       <r>    7.9162    0.0000 </r>
       <r>    8.2981    0.0000 </r>
       <r>    8.7566    0.0000 </r>
       <r>    8.9231    0.0000 </r>
       <r>    9.2094    0.0000 </r>
       <r>    9.6504    0.0000 </r>
       <r>    9.9770    0.0000 </r>
       <r>   10.3079    0.0000 </r>
       <r>   10.4770    0.0000 </r>
       <r>   10.8833    0.0000 </r>
       <r>   10.9892    0.0000 </r>
       <r>   11.7449    0.0000 </r>
       <r>   12.0038    0.0000 </r>
       <r>   12.1228    0.0000 </r>
       <r>   12.5118    0.0000 </r>
       <r>   12.9676    0.0000 </r>
       <r>   13.7373    0.0000 </r>
       <r>   14.0836    0.0000 </r>
       <r>   14.6259    0.0000 </r>
       <r>   14.8142    0.0000 </r>
       <r>   15.2062    0.0000 </r>
       <r>   15.5462    0.0000 </r>
       <r>   15.7651    0.0000 </r>
      </set>
      <set comment="kpoint 33">
       <r>  -15.4109    1.0000 </r>
       <r>  -15.4048    1.0000 </r>
       <r>  -15.3982    1.0000 </r>
       <r>  -15.3971    1.0000 </r>
       <r>  -15.3939    1.0000 </r>
       <r>  -15.3930    1.0000 </r>
       <r>  -15.3927    1.0000 </r>
       <r>  -15.3902    1.0000 </r>
       <r>  -15.3850    1.0000 </r>
       <r>  -15.3838    1.0000 </r>
       <r>  -15.3742    1.0000 </r>
       <r>  -15.3709    1.0000 </r>
       <r>  -15.3645    1.0000 </r>
       <r>  -15.3627    1.0000 </r>
       <r>  -15.3441    1.0000 </r>
       <r>  -15.3407    1.0000 </r>
       <r>  -15.3353    1.0000 </r>
       <r>  -15.3333    1.0000 </r>
       <r>  -15.3142    1.0000 </r>
       <r>  -15.3114    1.0000 </r>
       <r>   -7.7547    1.0000 </r>
       <r>   -7.5839    1.0000 </r>
       <r>   -6.8397    1.0000 </r>
       <r>   -6.6254    1.0000 </r>
       <r>   -2.0569    1.0000 </r>
       <r>   -1.5748    1.0000 </r>
       <r>   -0.5151    1.0000 </r>
       <r>   -0.2104    1.0000 </r>
       <r>    1.5050    1.0000 </r>
       <r>    2.0566    1.0000 </r>
       <r>    2.2739    1.0000 </r>
       <r>    2.9208    1.0000 </r>
       <r>    3.0896    1.0000 </r>
       <r>    3.4524    1.0000 </r>
       <r>    4.0553    1.0000 </r>
       <r>    4.2155    1.0000 </r>
       <r>    4.9391    1.0000 </r>
       <r>    5.0694    1.0000 </r>
       <r>    5.1749    1.0000 </r>
       <r>    5.3783    1.0000 </r>
       <r>    7.2624    0.0000 </r>
       <r>    7.4254    0.0000 </r>
       <r>    7.8580    0.0000 </r>
       <r>    8.0301    0.0000 </r>
       <r>    8.6688    0.0000 </r>
       <r>    9.0090    0.0000 </r>
       <r>    9.3455    0.0000 </r>
       <r>    9.5179    0.0000 </r>
       <r>   10.1629    0.0000 </r>
       <r>   10.3101    0.0000 </r>
       <r>   10.8547    0.0000 </r>
       <r>   10.9409    0.0000 </r>
       <r>   11.9958    0.0000 </r>
       <r>   12.0802    0.0000 </r>
       <r>   12.8921    0.0000 </r>
       <r>   12.9875    0.0000 </r>
       <r>   13.4030    0.0000 </r>
       <r>   13.8806    0.0000 </r>
       <r>   14.1767    0.0000 </r>
       <r>   14.7448    0.0000 </r>
       <r>   14.9039    0.0000 </r>
       <r>   15.5176    0.0000 </r>
       <r>   15.8899    0.0000 </r>
       <r>   16.2285    0.0000 </r>
      </set>
      <set comment="kpoint 34">
       <r>  -15.4083    1.0000 </r>
       <r>  -15.4044    1.0000 </r>
       <r>  -15.4012    1.0000 </r>
       <r>  -15.3999    1.0000 </r>
       <r>  -15.3939    1.0000 </r>
       <r>  -15.3936    1.0000 </r>
       <r>  -15.3911    1.0000 </r>
       <r>  -15.3897    1.0000 </r>
       <r>  -15.3854    1.0000 </r>
       <r>  -15.3847    1.0000 </r>
       <r>  -15.3709    1.0000 </r>
       <r>  -15.3681    1.0000 </r>
       <r>  -15.3635    1.0000 </r>
       <r>  -15.3617    1.0000 </r>
       <r>  -15.3431    1.0000 </r>
       <r>  -15.3409    1.0000 </r>
       <r>  -15.3353    1.0000 </r>
       <r>  -15.3342    1.0000 </r>
       <r>  -15.3135    1.0000 </r>
       <r>  -15.3120    1.0000 </r>
       <r>   -7.4713    1.0000 </r>
       <r>   -7.3266    1.0000 </r>
       <r>   -6.8825    1.0000 </r>
       <r>   -6.7232    1.0000 </r>
       <r>   -2.3657    1.0000 </r>
       <r>   -2.0416    1.0000 </r>
       <r>   -0.9756    1.0000 </r>
       <r>   -0.7351    1.0000 </r>
       <r>    1.8754    1.0000 </r>
       <r>    2.3493    1.0000 </r>
       <r>    2.6259    1.0000 </r>
       <r>    3.0325    1.0000 </r>
       <r>    3.3423    1.0000 </r>
       <r>    3.4547    1.0000 </r>
       <r>    3.8674    1.0000 </r>
       <r>    4.3389    1.0000 </r>
       <r>    4.9435    1.0000 </r>
       <r>    5.1365    1.0000 </r>
       <r>    5.2913    1.0000 </r>
       <r>    5.3856    1.0000 </r>
       <r>    7.0824    0.0000 </r>
       <r>    7.3426    0.0000 </r>
       <r>    7.5843    0.0000 </r>
       <r>    7.9304    0.0000 </r>
       <r>    8.2279    0.0000 </r>
       <r>    8.6444    0.0000 </r>
       <r>    8.7306    0.0000 </r>
       <r>    9.0313    0.0000 </r>
       <r>   10.0377    0.0000 </r>
       <r>   10.1971    0.0000 </r>
       <r>   10.8247    0.0000 </r>
       <r>   11.0853    0.0000 </r>
       <r>   12.5952    0.0000 </r>
       <r>   12.8768    0.0000 </r>
       <r>   13.1216    0.0000 </r>
       <r>   13.3901    0.0000 </r>
       <r>   13.9263    0.0000 </r>
       <r>   14.2767    0.0000 </r>
       <r>   14.4515    0.0000 </r>
       <r>   14.6424    0.0000 </r>
       <r>   15.3077    0.0000 </r>
       <r>   15.6864    0.0000 </r>
       <r>   15.9402    0.0000 </r>
       <r>   16.6485    0.0000 </r>
      </set>
      <set comment="kpoint 35">
       <r>  -15.4058    1.0000 </r>
       <r>  -15.4058    1.0000 </r>
       <r>  -15.4018    1.0000 </r>
       <r>  -15.4018    1.0000 </r>
       <r>  -15.3941    1.0000 </r>
       <r>  -15.3941    1.0000 </r>
       <r>  -15.3899    1.0000 </r>
       <r>  -15.3899    1.0000 </r>
       <r>  -15.3852    1.0000 </r>
       <r>  -15.3852    1.0000 </r>
       <r>  -15.3684    1.0000 </r>
       <r>  -15.3684    1.0000 </r>
       <r>  -15.3620    1.0000 </r>
       <r>  -15.3620    1.0000 </r>
       <r>  -15.3417    1.0000 </r>
       <r>  -15.3417    1.0000 </r>
       <r>  -15.3348    1.0000 </r>
       <r>  -15.3348    1.0000 </r>
       <r>  -15.3127    1.0000 </r>
       <r>  -15.3127    1.0000 </r>
       <r>   -7.2265    1.0000 </r>
       <r>   -7.2265    1.0000 </r>
       <r>   -6.8915    1.0000 </r>
       <r>   -6.8915    1.0000 </r>
       <r>   -2.3549    1.0000 </r>
       <r>   -2.3549    1.0000 </r>
       <r>   -1.0491    1.0000 </r>
       <r>   -1.0491    1.0000 </r>
       <r>    2.3462    1.0000 </r>
       <r>    2.3462    1.0000 </r>
       <r>    2.9863    1.0000 </r>
       <r>    2.9863    1.0000 </r>
       <r>    3.3288    1.0000 </r>
       <r>    3.3288    1.0000 </r>
       <r>    3.9713    1.0000 </r>
       <r>    3.9713    1.0000 </r>
       <r>    5.0137    1.0000 </r>
       <r>    5.0137    1.0000 </r>
       <r>    5.3769    1.0000 </r>
       <r>    5.3769    1.0000 </r>
       <r>    7.2398    0.0000 </r>
       <r>    7.2398    0.0000 </r>
       <r>    7.6532    0.0000 </r>
       <r>    7.6532    0.0000 </r>
       <r>    8.2346    0.0000 </r>
       <r>    8.2346    0.0000 </r>
       <r>    8.8994    0.0000 </r>
       <r>    8.8994    0.0000 </r>
       <r>    9.7809    0.0000 </r>
       <r>    9.7809    0.0000 </r>
       <r>   11.0645    0.0000 </r>
       <r>   11.0645    0.0000 </r>
       <r>   12.8150    0.0000 </r>
       <r>   12.8150    0.0000 </r>
       <r>   13.9224    0.0000 </r>
       <r>   13.9224    0.0000 </r>
       <r>   14.3123    0.0000 </r>
       <r>   14.3123    0.0000 </r>
       <r>   15.2138    0.0000 </r>
       <r>   15.2138    0.0000 </r>
       <r>   15.7437    0.0000 </r>
       <r>   15.7437    0.0000 </r>
       <r>   15.9324    0.0000 </r>
       <r>   15.9324    0.0000 </r>
      </set>
      <set comment="kpoint 36">
       <r>  -15.4056    1.0000 </r>
       <r>  -15.4021    1.0000 </r>
       <r>  -15.3964    1.0000 </r>
       <r>  -15.3954    1.0000 </r>
       <r>  -15.3946    1.0000 </r>
       <r>  -15.3931    1.0000 </r>
       <r>  -15.3923    1.0000 </r>
       <r>  -15.3919    1.0000 </r>
       <r>  -15.3881    1.0000 </r>
       <r>  -15.3871    1.0000 </r>
       <r>  -15.3749    1.0000 </r>
       <r>  -15.3722    1.0000 </r>
       <r>  -15.3632    1.0000 </r>
       <r>  -15.3623    1.0000 </r>
       <r>  -15.3410    1.0000 </r>
       <r>  -15.3404    1.0000 </r>
       <r>  -15.3354    1.0000 </r>
       <r>  -15.3342    1.0000 </r>
       <r>  -15.3167    1.0000 </r>
       <r>  -15.3141    1.0000 </r>
       <r>   -7.8269    1.0000 </r>
       <r>   -7.6570    1.0000 </r>
       <r>   -6.8117    1.0000 </r>
       <r>   -6.5972    1.0000 </r>
       <r>   -1.7259    1.0000 </r>
       <r>   -1.3342    1.0000 </r>
       <r>   -0.3435    1.0000 </r>
       <r>   -0.1759    1.0000 </r>
       <r>    1.3791    1.0000 </r>
       <r>    2.3162    1.0000 </r>
       <r>    2.5051    1.0000 </r>
       <r>    2.7838    1.0000 </r>
       <r>    3.1956    1.0000 </r>
       <r>    3.3881    1.0000 </r>
       <r>    3.8069    1.0000 </r>
       <r>    3.9022    1.0000 </r>
       <r>    4.2118    1.0000 </r>
       <r>    4.5014    1.0000 </r>
       <r>    5.2557    1.0000 </r>
       <r>    5.3997    1.0000 </r>
       <r>    7.3127    0.0000 </r>
       <r>    8.0002    0.0000 </r>
       <r>    8.0421    0.0000 </r>
       <r>    8.4815    0.0000 </r>
       <r>    8.6392    0.0000 </r>
       <r>    9.1862    0.0000 </r>
       <r>    9.2829    0.0000 </r>
       <r>    9.8856    0.0000 </r>
       <r>   10.0590    0.0000 </r>
       <r>   10.4536    0.0000 </r>
       <r>   10.6071    0.0000 </r>
       <r>   10.6448    0.0000 </r>
       <r>   11.2761    0.0000 </r>
       <r>   11.4515    0.0000 </r>
       <r>   12.3651    0.0000 </r>
       <r>   12.3834    0.0000 </r>
       <r>   12.9156    0.0000 </r>
       <r>   13.4704    0.0000 </r>
       <r>   14.5338    0.0000 </r>
       <r>   14.7490    0.0000 </r>
       <r>   15.8108    0.0000 </r>
       <r>   15.9395    0.0000 </r>
       <r>   16.0140    0.0000 </r>
       <r>   16.4116    0.0000 </r>
      </set>
      <set comment="kpoint 37">
       <r>  -15.4063    1.0000 </r>
       <r>  -15.4026    1.0000 </r>
       <r>  -15.3978    1.0000 </r>
       <r>  -15.3956    1.0000 </r>
       <r>  -15.3946    1.0000 </r>
       <r>  -15.3929    1.0000 </r>
       <r>  -15.3923    1.0000 </r>
       <r>  -15.3908    1.0000 </r>
       <r>  -15.3885    1.0000 </r>
       <r>  -15.3870    1.0000 </r>
       <r>  -15.3741    1.0000 </r>
       <r>  -15.3709    1.0000 </r>
       <r>  -15.3633    1.0000 </r>
       <r>  -15.3614    1.0000 </r>
       <r>  -15.3410    1.0000 </r>
       <r>  -15.3400    1.0000 </r>
       <r>  -15.3357    1.0000 </r>
       <r>  -15.3347    1.0000 </r>
       <r>  -15.3165    1.0000 </r>
       <r>  -15.3141    1.0000 </r>
       <r>   -7.7582    1.0000 </r>
       <r>   -7.5923    1.0000 </r>
       <r>   -6.7946    1.0000 </r>
       <r>   -6.5916    1.0000 </r>
       <r>   -1.7829    1.0000 </r>
       <r>   -1.3495    1.0000 </r>
       <r>   -0.4083    1.0000 </r>
       <r>   -0.2834    1.0000 </r>
       <r>    1.4389    1.0000 </r>
       <r>    1.8217    1.0000 </r>
       <r>    2.1414    1.0000 </r>
       <r>    2.6569    1.0000 </r>
       <r>    3.0021    1.0000 </r>
       <r>    3.3777    1.0000 </r>
       <r>    3.9278    1.0000 </r>
       <r>    4.0216    1.0000 </r>
       <r>    4.7269    1.0000 </r>
       <r>    4.8862    1.0000 </r>
       <r>    5.2703    1.0000 </r>
       <r>    5.3745    1.0000 </r>
       <r>    7.1158    0.0000 </r>
       <r>    7.3711    0.0000 </r>
       <r>    8.0473    0.0000 </r>
       <r>    8.2520    0.0000 </r>
       <r>    8.7433    0.0000 </r>
       <r>    9.0418    0.0000 </r>
       <r>    9.4572    0.0000 </r>
       <r>    9.6350    0.0000 </r>
       <r>   10.0712    0.0000 </r>
       <r>   10.4250    0.0000 </r>
       <r>   10.7034    0.0000 </r>
       <r>   10.9885    0.0000 </r>
       <r>   11.8386    0.0000 </r>
       <r>   12.2641    0.0000 </r>
       <r>   12.7006    0.0000 </r>
       <r>   12.7204    0.0000 </r>
       <r>   13.1241    0.0000 </r>
       <r>   13.7725    0.0000 </r>
       <r>   14.3569    0.0000 </r>
       <r>   14.6463    0.0000 </r>
       <r>   15.1738    0.0000 </r>
       <r>   15.5740    0.0000 </r>
       <r>   15.7725    0.0000 </r>
       <r>   16.0031    0.0000 </r>
      </set>
      <set comment="kpoint 38">
       <r>  -15.4082    1.0000 </r>
       <r>  -15.4043    1.0000 </r>
       <r>  -15.4015    1.0000 </r>
       <r>  -15.3987    1.0000 </r>
       <r>  -15.3932    1.0000 </r>
       <r>  -15.3925    1.0000 </r>
       <r>  -15.3913    1.0000 </r>
       <r>  -15.3892    1.0000 </r>
       <r>  -15.3879    1.0000 </r>
       <r>  -15.3868    1.0000 </r>
       <r>  -15.3722    1.0000 </r>
       <r>  -15.3687    1.0000 </r>
       <r>  -15.3621    1.0000 </r>
       <r>  -15.3596    1.0000 </r>
       <r>  -15.3407    1.0000 </r>
       <r>  -15.3392    1.0000 </r>
       <r>  -15.3363    1.0000 </r>
       <r>  -15.3359    1.0000 </r>
       <r>  -15.3160    1.0000 </r>
       <r>  -15.3141    1.0000 </r>
       <r>   -7.5673    1.0000 </r>
       <r>   -7.4137    1.0000 </r>
       <r>   -6.7697    1.0000 </r>
       <r>   -6.5970    1.0000 </r>
       <r>   -1.9540    1.0000 </r>
       <r>   -1.4929    1.0000 </r>
       <r>   -0.6413    1.0000 </r>
       <r>   -0.4631    1.0000 </r>
       <r>    1.3838    1.0000 </r>
       <r>    1.5076    1.0000 </r>
       <r>    1.9149    1.0000 </r>
       <r>    2.5360    1.0000 </r>
       <r>    2.5843    1.0000 </r>
       <r>    3.2051    1.0000 </r>
       <r>    4.1368    1.0000 </r>
       <r>    4.3947    1.0000 </r>
       <r>    4.4615    1.0000 </r>
       <r>    4.6179    1.0000 </r>
       <r>    5.2656    1.0000 </r>
       <r>    5.4122    1.0000 </r>
       <r>    7.2577    0.0000 </r>
       <r>    7.6469    0.0000 </r>
       <r>    7.7502    0.0000 </r>
       <r>    8.1840    0.0000 </r>
       <r>    8.4654    0.0000 </r>
       <r>    8.8966    0.0000 </r>
       <r>    9.3338    0.0000 </r>
       <r>    9.9121    0.0000 </r>
       <r>   10.4283    0.0000 </r>
       <r>   10.7838    0.0000 </r>
       <r>   11.0513    0.0000 </r>
       <r>   11.1795    0.0000 </r>
       <r>   12.2123    0.0000 </r>
       <r>   12.9964    0.0000 </r>
       <r>   13.3204    0.0000 </r>
       <r>   13.3998    0.0000 </r>
       <r>   13.6540    0.0000 </r>
       <r>   13.9312    0.0000 </r>
       <r>   14.2103    0.0000 </r>
       <r>   14.6598    0.0000 </r>
       <r>   14.8647    0.0000 </r>
       <r>   15.2736    0.0000 </r>
       <r>   15.9736    0.0000 </r>
       <r>   16.1109    0.0000 </r>
      </set>
      <set comment="kpoint 39">
       <r>  -15.4100    1.0000 </r>
       <r>  -15.4075    1.0000 </r>
       <r>  -15.4040    1.0000 </r>
       <r>  -15.4022    1.0000 </r>
       <r>  -15.3927    1.0000 </r>
       <r>  -15.3917    1.0000 </r>
       <r>  -15.3912    1.0000 </r>
       <r>  -15.3887    1.0000 </r>
       <r>  -15.3864    1.0000 </r>
       <r>  -15.3857    1.0000 </r>
       <r>  -15.3701    1.0000 </r>
       <r>  -15.3678    1.0000 </r>
       <r>  -15.3594    1.0000 </r>
       <r>  -15.3579    1.0000 </r>
       <r>  -15.3396    1.0000 </r>
       <r>  -15.3382    1.0000 </r>
       <r>  -15.3371    1.0000 </r>
       <r>  -15.3368    1.0000 </r>
       <r>  -15.3152    1.0000 </r>
       <r>  -15.3143    1.0000 </r>
       <r>   -7.3050    1.0000 </r>
       <r>   -7.1771    1.0000 </r>
       <r>   -6.7956    1.0000 </r>
       <r>   -6.6643    1.0000 </r>
       <r>   -2.1219    1.0000 </r>
       <r>   -1.8188    1.0000 </r>
       <r>   -0.8407    1.0000 </r>
       <r>   -0.6844    1.0000 </r>
       <r>    1.4216    1.0000 </r>
       <r>    1.5636    1.0000 </r>
       <r>    2.1665    1.0000 </r>
       <r>    2.3207    1.0000 </r>
       <r>    2.5648    1.0000 </r>
       <r>    3.2738    1.0000 </r>
       <r>    3.7074    1.0000 </r>
       <r>    3.8722    1.0000 </r>
       <r>    4.1280    1.0000 </r>
       <r>    4.2170    1.0000 </r>
       <r>    4.9640    1.0000 </r>
       <r>    5.2029    1.0000 </r>
       <r>    7.4336    0.0000 </r>
       <r>    7.9997    0.0000 </r>
       <r>    8.2025    0.0000 </r>
       <r>    8.3722    0.0000 </r>
       <r>    8.9810    0.0000 </r>
       <r>    9.2136    0.0000 </r>
       <r>    9.4239    0.0000 </r>
       <r>    9.9279    0.0000 </r>
       <r>   10.4588    0.0000 </r>
       <r>   10.7863    0.0000 </r>
       <r>   11.1550    0.0000 </r>
       <r>   11.2950    0.0000 </r>
       <r>   12.1972    0.0000 </r>
       <r>   12.6461    0.0000 </r>
       <r>   13.2250    0.0000 </r>
       <r>   13.8071    0.0000 </r>
       <r>   14.0000    0.0000 </r>
       <r>   14.3746    0.0000 </r>
       <r>   14.9395    0.0000 </r>
       <r>   15.1241    0.0000 </r>
       <r>   15.4598    0.0000 </r>
       <r>   15.6084    0.0000 </r>
       <r>   16.5824    0.0000 </r>
       <r>   16.9997    0.0000 </r>
      </set>
      <set comment="kpoint 40">
       <r>  -15.4099    1.0000 </r>
       <r>  -15.4099    1.0000 </r>
       <r>  -15.4042    1.0000 </r>
       <r>  -15.4042    1.0000 </r>
       <r>  -15.3922    1.0000 </r>
       <r>  -15.3922    1.0000 </r>
       <r>  -15.3898    1.0000 </r>
       <r>  -15.3898    1.0000 </r>
       <r>  -15.3854    1.0000 </r>
       <r>  -15.3854    1.0000 </r>
       <r>  -15.3684    1.0000 </r>
       <r>  -15.3684    1.0000 </r>
       <r>  -15.3576    1.0000 </r>
       <r>  -15.3576    1.0000 </r>
       <r>  -15.3382    1.0000 </r>
       <r>  -15.3382    1.0000 </r>
       <r>  -15.3373    1.0000 </r>
       <r>  -15.3373    1.0000 </r>
       <r>  -15.3146    1.0000 </r>
       <r>  -15.3146    1.0000 </r>
       <r>   -7.0856    1.0000 </r>
       <r>   -7.0856    1.0000 </r>
       <r>   -6.7992    1.0000 </r>
       <r>   -6.7992    1.0000 </r>
       <r>   -2.0883    1.0000 </r>
       <r>   -2.0883    1.0000 </r>
       <r>   -0.8607    1.0000 </r>
       <r>   -0.8607    1.0000 </r>
       <r>    1.7851    1.0000 </r>
       <r>    1.7851    1.0000 </r>
       <r>    2.0162    1.0000 </r>
       <r>    2.0162    1.0000 </r>
       <r>    2.9437    1.0000 </r>
       <r>    2.9437    1.0000 </r>
       <r>    3.6583    1.0000 </r>
       <r>    3.6583    1.0000 </r>
       <r>    4.0198    1.0000 </r>
       <r>    4.0198    1.0000 </r>
       <r>    4.8144    1.0000 </r>
       <r>    4.8144    1.0000 </r>
       <r>    7.7722    0.0000 </r>
       <r>    7.7722    0.0000 </r>
       <r>    8.7683    0.0000 </r>
       <r>    8.7683    0.0000 </r>
       <r>    9.0259    0.0000 </r>
       <r>    9.0259    0.0000 </r>
       <r>    9.8995    0.0000 </r>
       <r>    9.8995    0.0000 </r>
       <r>   10.6458    0.0000 </r>
       <r>   10.6458    0.0000 </r>
       <r>   10.9749    0.0000 </r>
       <r>   10.9749    0.0000 </r>
       <r>   12.2859    0.0000 </r>
       <r>   12.2859    0.0000 </r>
       <r>   13.4917    0.0000 </r>
       <r>   13.4917    0.0000 </r>
       <r>   14.6899    0.0000 </r>
       <r>   14.6899    0.0000 </r>
       <r>   15.8811    0.0000 </r>
       <r>   15.8811    0.0000 </r>
       <r>   16.0189    0.0000 </r>
       <r>   16.0189    0.0000 </r>
       <r>   16.6267    0.0000 </r>
       <r>   16.6267    0.0000 </r>
      </set>
      <set comment="kpoint 41">
       <r>  -15.4043    1.0000 </r>
       <r>  -15.4026    1.0000 </r>
       <r>  -15.3994    1.0000 </r>
       <r>  -15.3974    1.0000 </r>
       <r>  -15.3917    1.0000 </r>
       <r>  -15.3914    1.0000 </r>
       <r>  -15.3910    1.0000 </r>
       <r>  -15.3907    1.0000 </r>
       <r>  -15.3886    1.0000 </r>
       <r>  -15.3843    1.0000 </r>
       <r>  -15.3726    1.0000 </r>
       <r>  -15.3696    1.0000 </r>
       <r>  -15.3614    1.0000 </r>
       <r>  -15.3585    1.0000 </r>
       <r>  -15.3441    1.0000 </r>
       <r>  -15.3435    1.0000 </r>
       <r>  -15.3339    1.0000 </r>
       <r>  -15.3306    1.0000 </r>
       <r>  -15.3187    1.0000 </r>
       <r>  -15.3179    1.0000 </r>
       <r>   -7.5218    1.0000 </r>
       <r>   -7.3851    1.0000 </r>
       <r>   -6.7825    1.0000 </r>
       <r>   -6.6601    1.0000 </r>
       <r>   -2.0084    1.0000 </r>
       <r>   -1.6438    1.0000 </r>
       <r>   -1.1456    1.0000 </r>
       <r>   -0.8496    1.0000 </r>
       <r>    1.7249    1.0000 </r>
       <r>    2.6744    1.0000 </r>
       <r>    2.8543    1.0000 </r>
       <r>    3.0907    1.0000 </r>
       <r>    3.2900    1.0000 </r>
       <r>    3.7229    1.0000 </r>
       <r>    3.9713    1.0000 </r>
       <r>    4.0299    1.0000 </r>
       <r>    4.3185    1.0000 </r>
       <r>    4.5064    1.0000 </r>
       <r>    5.3058    1.0000 </r>
       <r>    5.6069    1.0000 </r>
       <r>    6.5927    0.0000 </r>
       <r>    7.1140    0.0000 </r>
       <r>    7.8241    0.0000 </r>
       <r>    7.8526    0.0000 </r>
       <r>    8.3330    0.0000 </r>
       <r>    8.5378    0.0000 </r>
       <r>    8.5520    0.0000 </r>
       <r>    9.0920    0.0000 </r>
       <r>    9.3255    0.0000 </r>
       <r>    9.9491    0.0000 </r>
       <r>   10.0716    0.0000 </r>
       <r>   10.4921    0.0000 </r>
       <r>   12.4185    0.0000 </r>
       <r>   12.7528    0.0000 </r>
       <r>   12.7639    0.0000 </r>
       <r>   13.4059    0.0000 </r>
       <r>   13.7963    0.0000 </r>
       <r>   14.1279    0.0000 </r>
       <r>   14.4960    0.0000 </r>
       <r>   15.0939    0.0000 </r>
       <r>   15.1868    0.0000 </r>
       <r>   15.4171    0.0000 </r>
       <r>   16.3672    0.0000 </r>
       <r>   16.4786    0.0000 </r>
      </set>
      <set comment="kpoint 42">
       <r>  -15.4067    1.0000 </r>
       <r>  -15.4040    1.0000 </r>
       <r>  -15.4017    1.0000 </r>
       <r>  -15.3990    1.0000 </r>
       <r>  -15.3926    1.0000 </r>
       <r>  -15.3912    1.0000 </r>
       <r>  -15.3894    1.0000 </r>
       <r>  -15.3891    1.0000 </r>
       <r>  -15.3877    1.0000 </r>
       <r>  -15.3837    1.0000 </r>
       <r>  -15.3723    1.0000 </r>
       <r>  -15.3693    1.0000 </r>
       <r>  -15.3605    1.0000 </r>
       <r>  -15.3577    1.0000 </r>
       <r>  -15.3438    1.0000 </r>
       <r>  -15.3431    1.0000 </r>
       <r>  -15.3340    1.0000 </r>
       <r>  -15.3309    1.0000 </r>
       <r>  -15.3186    1.0000 </r>
       <r>  -15.3178    1.0000 </r>
       <r>   -7.4601    1.0000 </r>
       <r>   -7.3275    1.0000 </r>
       <r>   -6.7606    1.0000 </r>
       <r>   -6.6437    1.0000 </r>
       <r>   -1.9557    1.0000 </r>
       <r>   -1.5727    1.0000 </r>
       <r>   -1.0978    1.0000 </r>
       <r>   -0.8533    1.0000 </r>
       <r>    1.7156    1.0000 </r>
       <r>    1.9100    1.0000 </r>
       <r>    2.3660    1.0000 </r>
       <r>    2.8295    1.0000 </r>
       <r>    3.1531    1.0000 </r>
       <r>    3.4092    1.0000 </r>
       <r>    3.8775    1.0000 </r>
       <r>    4.2355    1.0000 </r>
       <r>    4.6058    1.0000 </r>
       <r>    4.6566    1.0000 </r>
       <r>    5.0633    1.0000 </r>
       <r>    5.1861    1.0000 </r>
       <r>    7.1282    0.0000 </r>
       <r>    7.1966    0.0000 </r>
       <r>    7.5495    0.0000 </r>
       <r>    7.7677    0.0000 </r>
       <r>    8.5132    0.0000 </r>
       <r>    8.7985    0.0000 </r>
       <r>    8.9287    0.0000 </r>
       <r>    9.3630    0.0000 </r>
       <r>    9.7562    0.0000 </r>
       <r>   10.2047    0.0000 </r>
       <r>   10.5435    0.0000 </r>
       <r>   10.7560    0.0000 </r>
       <r>   12.2645    0.0000 </r>
       <r>   12.8908    0.0000 </r>
       <r>   13.1919    0.0000 </r>
       <r>   13.5421    0.0000 </r>
       <r>   13.8596    0.0000 </r>
       <r>   13.9006    0.0000 </r>
       <r>   14.3012    0.0000 </r>
       <r>   14.9392    0.0000 </r>
       <r>   15.3040    0.0000 </r>
       <r>   15.4536    0.0000 </r>
       <r>   16.5011    0.0000 </r>
       <r>   16.6878    0.0000 </r>
      </set>
      <set comment="kpoint 43">
       <r>  -15.4116    1.0000 </r>
       <r>  -15.4086    1.0000 </r>
       <r>  -15.4058    1.0000 </r>
       <r>  -15.4033    1.0000 </r>
       <r>  -15.3930    1.0000 </r>
       <r>  -15.3916    1.0000 </r>
       <r>  -15.3867    1.0000 </r>
       <r>  -15.3866    1.0000 </r>
       <r>  -15.3853    1.0000 </r>
       <r>  -15.3825    1.0000 </r>
       <r>  -15.3715    1.0000 </r>
       <r>  -15.3687    1.0000 </r>
       <r>  -15.3578    1.0000 </r>
       <r>  -15.3556    1.0000 </r>
       <r>  -15.3428    1.0000 </r>
       <r>  -15.3422    1.0000 </r>
       <r>  -15.3340    1.0000 </r>
       <r>  -15.3316    1.0000 </r>
       <r>  -15.3182    1.0000 </r>
       <r>  -15.3176    1.0000 </r>
       <r>   -7.2920    1.0000 </r>
       <r>   -7.1718    1.0000 </r>
       <r>   -6.7180    1.0000 </r>
       <r>   -6.6154    1.0000 </r>
       <r>   -1.8433    1.0000 </r>
       <r>   -1.4423    1.0000 </r>
       <r>   -0.9736    1.0000 </r>
       <r>   -0.8556    1.0000 </r>
       <r>    1.1586    1.0000 </r>
       <r>    1.3690    1.0000 </r>
       <r>    2.1167    1.0000 </r>
       <r>    2.2417    1.0000 </r>
       <r>    2.4259    1.0000 </r>
       <r>    3.1076    1.0000 </r>
       <r>    3.6065    1.0000 </r>
       <r>    3.8432    1.0000 </r>
       <r>    3.9759    1.0000 </r>
       <r>    4.3025    1.0000 </r>
       <r>    4.7917    1.0000 </r>
       <r>    5.2150    1.0000 </r>
       <r>    7.2967    0.0000 </r>
       <r>    7.8734    0.0000 </r>
       <r>    8.2241    0.0000 </r>
       <r>    8.4161    0.0000 </r>
       <r>    8.7680    0.0000 </r>
       <r>    8.9483    0.0000 </r>
       <r>    9.7367    0.0000 </r>
       <r>   10.0075    0.0000 </r>
       <r>   10.1959    0.0000 </r>
       <r>   10.4769    0.0000 </r>
       <r>   11.4412    0.0000 </r>
       <r>   11.6697    0.0000 </r>
       <r>   12.1636    0.0000 </r>
       <r>   12.6515    0.0000 </r>
       <r>   13.3286    0.0000 </r>
       <r>   13.9426    0.0000 </r>
       <r>   14.1907    0.0000 </r>
       <r>   14.3007    0.0000 </r>
       <r>   14.6537    0.0000 </r>
       <r>   14.8996    0.0000 </r>
       <r>   15.4108    0.0000 </r>
       <r>   16.0099    0.0000 </r>
       <r>   16.1430    0.0000 </r>
       <r>   16.5225    0.0000 </r>
      </set>
      <set comment="kpoint 44">
       <r>  -15.4157    1.0000 </r>
       <r>  -15.4139    1.0000 </r>
       <r>  -15.4093    1.0000 </r>
       <r>  -15.4078    1.0000 </r>
       <r>  -15.3931    1.0000 </r>
       <r>  -15.3922    1.0000 </r>
       <r>  -15.3849    1.0000 </r>
       <r>  -15.3846    1.0000 </r>
       <r>  -15.3832    1.0000 </r>
       <r>  -15.3819    1.0000 </r>
       <r>  -15.3704    1.0000 </r>
       <r>  -15.3687    1.0000 </r>
       <r>  -15.3545    1.0000 </r>
       <r>  -15.3534    1.0000 </r>
       <r>  -15.3416    1.0000 </r>
       <r>  -15.3412    1.0000 </r>
       <r>  -15.3336    1.0000 </r>
       <r>  -15.3322    1.0000 </r>
       <r>  -15.3176    1.0000 </r>
       <r>  -15.3173    1.0000 </r>
       <r>   -7.0711    1.0000 </r>
       <r>   -6.9749    1.0000 </r>
       <r>   -6.7088    1.0000 </r>
       <r>   -6.6259    1.0000 </r>
       <r>   -1.7636    1.0000 </r>
       <r>   -1.5086    1.0000 </r>
       <r>   -0.7856    1.0000 </r>
       <r>   -0.7593    1.0000 </r>
       <r>    0.8629    1.0000 </r>
       <r>    1.0926    1.0000 </r>
       <r>    1.6703    1.0000 </r>
       <r>    1.8986    1.0000 </r>
       <r>    2.1940    1.0000 </r>
       <r>    2.6206    1.0000 </r>
       <r>    2.8385    1.0000 </r>
       <r>    3.4511    1.0000 </r>
       <r>    3.7118    1.0000 </r>
       <r>    4.0682    1.0000 </r>
       <r>    4.4406    1.0000 </r>
       <r>    4.7793    1.0000 </r>
       <r>    7.6024    0.0000 </r>
       <r>    8.2443    0.0000 </r>
       <r>    8.8550    0.0000 </r>
       <r>    9.0606    0.0000 </r>
       <r>    9.1475    0.0000 </r>
       <r>    9.5611    0.0000 </r>
       <r>   10.5406    0.0000 </r>
       <r>   10.6325    0.0000 </r>
       <r>   10.7438    0.0000 </r>
       <r>   10.9178    0.0000 </r>
       <r>   11.9253    0.0000 </r>
       <r>   11.9946    0.0000 </r>
       <r>   12.1366    0.0000 </r>
       <r>   12.3475    0.0000 </r>
       <r>   13.1450    0.0000 </r>
       <r>   13.4768    0.0000 </r>
       <r>   14.9874    0.0000 </r>
       <r>   15.3625    0.0000 </r>
       <r>   15.5183    0.0000 </r>
       <r>   15.5431    0.0000 </r>
       <r>   16.0180    0.0000 </r>
       <r>   16.1824    0.0000 </r>
       <r>   16.4216    0.0000 </r>
       <r>   16.7529    0.0000 </r>
      </set>
      <set comment="kpoint 45">
       <r>  -15.4167    1.0000 </r>
       <r>  -15.4167    1.0000 </r>
       <r>  -15.4102    1.0000 </r>
       <r>  -15.4102    1.0000 </r>
       <r>  -15.3928    1.0000 </r>
       <r>  -15.3928    1.0000 </r>
       <r>  -15.3840    1.0000 </r>
       <r>  -15.3840    1.0000 </r>
       <r>  -15.3820    1.0000 </r>
       <r>  -15.3820    1.0000 </r>
       <r>  -15.3693    1.0000 </r>
       <r>  -15.3693    1.0000 </r>
       <r>  -15.3527    1.0000 </r>
       <r>  -15.3527    1.0000 </r>
       <r>  -15.3409    1.0000 </r>
       <r>  -15.3409    1.0000 </r>
       <r>  -15.3329    1.0000 </r>
       <r>  -15.3329    1.0000 </r>
       <r>  -15.3173    1.0000 </r>
       <r>  -15.3173    1.0000 </r>
       <r>   -6.8997    1.0000 </r>
       <r>   -6.8997    1.0000 </r>
       <r>   -6.7009    1.0000 </r>
       <r>   -6.7009    1.0000 </r>
       <r>   -1.6768    1.0000 </r>
       <r>   -1.6768    1.0000 </r>
       <r>   -0.6828    1.0000 </r>
       <r>   -0.6828    1.0000 </r>
       <r>    1.0791    1.0000 </r>
       <r>    1.0791    1.0000 </r>
       <r>    1.3577    1.0000 </r>
       <r>    1.3577    1.0000 </r>
       <r>    2.3244    1.0000 </r>
       <r>    2.3244    1.0000 </r>
       <r>    2.9348    1.0000 </r>
       <r>    2.9348    1.0000 </r>
       <r>    3.7714    1.0000 </r>
       <r>    3.7714    1.0000 </r>
       <r>    4.5059    1.0000 </r>
       <r>    4.5059    1.0000 </r>
       <r>    7.8590    0.0000 </r>
       <r>    7.8590    0.0000 </r>
       <r>    9.1486    0.0000 </r>
       <r>    9.1486    0.0000 </r>
       <r>   10.0992    0.0000 </r>
       <r>   10.0992    0.0000 </r>
       <r>   10.3193    0.0000 </r>
       <r>   10.3193    0.0000 </r>
       <r>   11.4709    0.0000 </r>
       <r>   11.4709    0.0000 </r>
       <r>   11.8566    0.0000 </r>
       <r>   11.8566    0.0000 </r>
       <r>   12.2729    0.0000 </r>
       <r>   12.2729    0.0000 </r>
       <r>   13.1996    0.0000 </r>
       <r>   13.1996    0.0000 </r>
       <r>   15.1183    0.0000 </r>
       <r>   15.1183    0.0000 </r>
       <r>   16.3789    0.0000 </r>
       <r>   16.3789    0.0000 </r>
       <r>   16.6387    0.0000 </r>
       <r>   16.6387    0.0000 </r>
       <r>   17.1905    0.0000 </r>
       <r>   17.1905    0.0000 </r>
      </set>
      <set comment="kpoint 46">
       <r>  -15.4057    1.0000 </r>
       <r>  -15.4039    1.0000 </r>
       <r>  -15.4030    1.0000 </r>
       <r>  -15.4011    1.0000 </r>
       <r>  -15.3915    1.0000 </r>
       <r>  -15.3910    1.0000 </r>
       <r>  -15.3909    1.0000 </r>
       <r>  -15.3897    1.0000 </r>
       <r>  -15.3797    1.0000 </r>
       <r>  -15.3767    1.0000 </r>
       <r>  -15.3728    1.0000 </r>
       <r>  -15.3724    1.0000 </r>
       <r>  -15.3565    1.0000 </r>
       <r>  -15.3541    1.0000 </r>
       <r>  -15.3503    1.0000 </r>
       <r>  -15.3493    1.0000 </r>
       <r>  -15.3281    1.0000 </r>
       <r>  -15.3258    1.0000 </r>
       <r>  -15.3225    1.0000 </r>
       <r>  -15.3215    1.0000 </r>
       <r>   -7.1693    1.0000 </r>
       <r>   -7.0915    1.0000 </r>
       <r>   -6.8682    1.0000 </r>
       <r>   -6.8547    1.0000 </r>
       <r>   -2.0581    1.0000 </r>
       <r>   -1.7583    1.0000 </r>
       <r>   -1.6920    1.0000 </r>
       <r>   -1.4025    1.0000 </r>
       <r>    2.2404    1.0000 </r>
       <r>    2.7995    1.0000 </r>
       <r>    3.1759    1.0000 </r>
       <r>    3.4253    1.0000 </r>
       <r>    3.4313    1.0000 </r>
       <r>    3.8456    1.0000 </r>
       <r>    3.8567    1.0000 </r>
       <r>    3.8886    1.0000 </r>
       <r>    4.5583    1.0000 </r>
       <r>    4.7375    1.0000 </r>
       <r>    5.1113    1.0000 </r>
       <r>    5.2368    1.0000 </r>
       <r>    6.8171    0.0000 </r>
       <r>    7.0297    0.0000 </r>
       <r>    7.3178    0.0000 </r>
       <r>    7.5205    0.0000 </r>
       <r>    7.8157    0.0000 </r>
       <r>    8.0147    0.0000 </r>
       <r>    8.0203    0.0000 </r>
       <r>    8.3422    0.0000 </r>
       <r>    8.9610    0.0000 </r>
       <r>    9.3833    0.0000 </r>
       <r>   10.2159    0.0000 </r>
       <r>   10.3825    0.0000 </r>
       <r>   13.2118    0.0000 </r>
       <r>   13.5533    0.0000 </r>
       <r>   13.9468    0.0000 </r>
       <r>   13.9994    0.0000 </r>
       <r>   14.4544    0.0000 </r>
       <r>   14.5297    0.0000 </r>
       <r>   14.7331    0.0000 </r>
       <r>   15.1552    0.0000 </r>
       <r>   15.7878    0.0000 </r>
       <r>   15.8022    0.0000 </r>
       <r>   16.0442    0.0000 </r>
       <r>   16.3412    0.0000 </r>
      </set>
      <set comment="kpoint 47">
       <r>  -15.4082    1.0000 </r>
       <r>  -15.4065    1.0000 </r>
       <r>  -15.4047    1.0000 </r>
       <r>  -15.4031    1.0000 </r>
       <r>  -15.3915    1.0000 </r>
       <r>  -15.3912    1.0000 </r>
       <r>  -15.3894    1.0000 </r>
       <r>  -15.3890    1.0000 </r>
       <r>  -15.3789    1.0000 </r>
       <r>  -15.3764    1.0000 </r>
       <r>  -15.3726    1.0000 </r>
       <r>  -15.3721    1.0000 </r>
       <r>  -15.3556    1.0000 </r>
       <r>  -15.3535    1.0000 </r>
       <r>  -15.3494    1.0000 </r>
       <r>  -15.3485    1.0000 </r>
       <r>  -15.3282    1.0000 </r>
       <r>  -15.3261    1.0000 </r>
       <r>  -15.3223    1.0000 </r>
       <r>  -15.3215    1.0000 </r>
       <r>   -7.1197    1.0000 </r>
       <r>   -7.0454    1.0000 </r>
       <r>   -6.8359    1.0000 </r>
       <r>   -6.8218    1.0000 </r>
       <r>   -1.9629    1.0000 </r>
       <r>   -1.6742    1.0000 </r>
       <r>   -1.5976    1.0000 </r>
       <r>   -1.3405    1.0000 </r>
       <r>    2.1556    1.0000 </r>
       <r>    2.2988    1.0000 </r>
       <r>    2.6100    1.0000 </r>
       <r>    2.8760    1.0000 </r>
       <r>    3.0499    1.0000 </r>
       <r>    3.4605    1.0000 </r>
       <r>    3.6440    1.0000 </r>
       <r>    4.0261    1.0000 </r>
       <r>    4.4368    1.0000 </r>
       <r>    4.7308    1.0000 </r>
       <r>    4.7634    1.0000 </r>
       <r>    5.0305    1.0000 </r>
       <r>    7.0956    0.0000 </r>
       <r>    7.1649    0.0000 </r>
       <r>    7.3300    0.0000 </r>
       <r>    7.5936    0.0000 </r>
       <r>    8.4139    0.0000 </r>
       <r>    8.6871    0.0000 </r>
       <r>    8.8530    0.0000 </r>
       <r>    9.2409    0.0000 </r>
       <r>    9.3157    0.0000 </r>
       <r>    9.9241    0.0000 </r>
       <r>   10.2159    0.0000 </r>
       <r>   10.3055    0.0000 </r>
       <r>   12.4509    0.0000 </r>
       <r>   12.8308    0.0000 </r>
       <r>   13.8570    0.0000 </r>
       <r>   14.2551    0.0000 </r>
       <r>   14.6548    0.0000 </r>
       <r>   14.8521    0.0000 </r>
       <r>   14.9647    0.0000 </r>
       <r>   15.5199    0.0000 </r>
       <r>   15.8982    0.0000 </r>
       <r>   16.0116    0.0000 </r>
       <r>   16.5113    0.0000 </r>
       <r>   16.8077    0.0000 </r>
      </set>
      <set comment="kpoint 48">
       <r>  -15.4138    1.0000 </r>
       <r>  -15.4124    1.0000 </r>
       <r>  -15.4092    1.0000 </r>
       <r>  -15.4080    1.0000 </r>
       <r>  -15.3915    1.0000 </r>
       <r>  -15.3907    1.0000 </r>
       <r>  -15.3878    1.0000 </r>
       <r>  -15.3874    1.0000 </r>
       <r>  -15.3771    1.0000 </r>
       <r>  -15.3755    1.0000 </r>
       <r>  -15.3720    1.0000 </r>
       <r>  -15.3713    1.0000 </r>
       <r>  -15.3530    1.0000 </r>
       <r>  -15.3518    1.0000 </r>
       <r>  -15.3472    1.0000 </r>
       <r>  -15.3466    1.0000 </r>
       <r>  -15.3282    1.0000 </r>
       <r>  -15.3266    1.0000 </r>
       <r>  -15.3218    1.0000 </r>
       <r>  -15.3212    1.0000 </r>
       <r>   -6.9900    1.0000 </r>
       <r>   -6.9260    1.0000 </r>
       <r>   -6.7594    1.0000 </r>
       <r>   -6.7434    1.0000 </r>
       <r>   -1.7011    1.0000 </r>
       <r>   -1.4479    1.0000 </r>
       <r>   -1.3364    1.0000 </r>
       <r>   -1.1785    1.0000 </r>
       <r>    1.3634    1.0000 </r>
       <r>    1.6191    1.0000 </r>
       <r>    1.9188    1.0000 </r>
       <r>    2.1087    1.0000 </r>
       <r>    2.4709    1.0000 </r>
       <r>    2.9430    1.0000 </r>
       <r>    3.1326    1.0000 </r>
       <r>    3.5716    1.0000 </r>
       <r>    3.7566    1.0000 </r>
       <r>    4.1290    1.0000 </r>
       <r>    4.3916    1.0000 </r>
       <r>    4.7851    1.0000 </r>
       <r>    7.5286    0.0000 </r>
       <r>    7.9051    0.0000 </r>
       <r>    8.4502    0.0000 </r>
       <r>    8.7357    0.0000 </r>
       <r>    9.0808    0.0000 </r>
       <r>    9.1859    0.0000 </r>
       <r>    9.6474    0.0000 </r>
       <r>    9.7752    0.0000 </r>
       <r>   10.4002    0.0000 </r>
       <r>   10.6445    0.0000 </r>
       <r>   11.0367    0.0000 </r>
       <r>   11.3943    0.0000 </r>
       <r>   12.0816    0.0000 </r>
       <r>   12.2462    0.0000 </r>
       <r>   13.5093    0.0000 </r>
       <r>   13.6104    0.0000 </r>
       <r>   14.9376    0.0000 </r>
       <r>   15.2763    0.0000 </r>
       <r>   15.4310    0.0000 </r>
       <r>   16.0075    0.0000 </r>
       <r>   16.3577    0.0000 </r>
       <r>   16.5270    0.0000 </r>
       <r>   16.9415    0.0000 </r>
       <r>   17.2161    0.0000 </r>
      </set>
      <set comment="kpoint 49">
       <r>  -15.4190    1.0000 </r>
       <r>  -15.4182    1.0000 </r>
       <r>  -15.4136    1.0000 </r>
       <r>  -15.4130    1.0000 </r>
       <r>  -15.3914    1.0000 </r>
       <r>  -15.3908    1.0000 </r>
       <r>  -15.3866    1.0000 </r>
       <r>  -15.3862    1.0000 </r>
       <r>  -15.3756    1.0000 </r>
       <r>  -15.3748    1.0000 </r>
       <r>  -15.3712    1.0000 </r>
       <r>  -15.3707    1.0000 </r>
       <r>  -15.3502    1.0000 </r>
       <r>  -15.3496    1.0000 </r>
       <r>  -15.3448    1.0000 </r>
       <r>  -15.3445    1.0000 </r>
       <r>  -15.3278    1.0000 </r>
       <r>  -15.3270    1.0000 </r>
       <r>  -15.3213    1.0000 </r>
       <r>  -15.3210    1.0000 </r>
       <r>   -6.8354    1.0000 </r>
       <r>   -6.7891    1.0000 </r>
       <r>   -6.6924    1.0000 </r>
       <r>   -6.6733    1.0000 </r>
       <r>   -1.3809    1.0000 </r>
       <r>   -1.2189    1.0000 </r>
       <r>   -1.0058    1.0000 </r>
       <r>   -0.9349    1.0000 </r>
       <r>    0.7842    1.0000 </r>
       <r>    1.1354    1.0000 </r>
       <r>    1.1899    1.0000 </r>
       <r>    1.6152    1.0000 </r>
       <r>    1.8411    1.0000 </r>
       <r>    2.2163    1.0000 </r>
       <r>    2.3665    1.0000 </r>
       <r>    2.8496    1.0000 </r>
       <r>    3.6659    1.0000 </r>
       <r>    3.9755    1.0000 </r>
       <r>    4.3647    1.0000 </r>
       <r>    4.5314    1.0000 </r>
       <r>    7.8479    0.0000 </r>
       <r>    8.1753    0.0000 </r>
       <r>    8.5932    0.0000 </r>
       <r>    8.8903    0.0000 </r>
       <r>    9.9686    0.0000 </r>
       <r>   10.0270    0.0000 </r>
       <r>   10.4443    0.0000 </r>
       <r>   10.5716    0.0000 </r>
       <r>   11.5529    0.0000 </r>
       <r>   11.8171    0.0000 </r>
       <r>   12.1273    0.0000 </r>
       <r>   12.1522    0.0000 </r>
       <r>   12.2476    0.0000 </r>
       <r>   12.4947    0.0000 </r>
       <r>   13.1534    0.0000 </r>
       <r>   13.2813    0.0000 </r>
       <r>   15.1662    0.0000 </r>
       <r>   15.3717    0.0000 </r>
       <r>   16.1723    0.0000 </r>
       <r>   16.3722    0.0000 </r>
       <r>   16.8215    0.0000 </r>
       <r>   16.9352    0.0000 </r>
       <r>   17.1186    0.0000 </r>
       <r>   17.1643    0.0000 </r>
      </set>
      <set comment="kpoint 50">
       <r>  -15.4208    1.0000 </r>
       <r>  -15.4208    1.0000 </r>
       <r>  -15.4152    1.0000 </r>
       <r>  -15.4152    1.0000 </r>
       <r>  -15.3912    1.0000 </r>
       <r>  -15.3912    1.0000 </r>
       <r>  -15.3861    1.0000 </r>
       <r>  -15.3861    1.0000 </r>
       <r>  -15.3747    1.0000 </r>
       <r>  -15.3747    1.0000 </r>
       <r>  -15.3706    1.0000 </r>
       <r>  -15.3706    1.0000 </r>
       <r>  -15.3488    1.0000 </r>
       <r>  -15.3488    1.0000 </r>
       <r>  -15.3437    1.0000 </r>
       <r>  -15.3437    1.0000 </r>
       <r>  -15.3273    1.0000 </r>
       <r>  -15.3273    1.0000 </r>
       <r>  -15.3210    1.0000 </r>
       <r>  -15.3210    1.0000 </r>
       <r>   -6.7373    1.0000 </r>
       <r>   -6.7373    1.0000 </r>
       <r>   -6.6649    1.0000 </r>
       <r>   -6.6649    1.0000 </r>
       <r>   -1.1972    1.0000 </r>
       <r>   -1.1972    1.0000 </r>
       <r>   -0.7845    1.0000 </r>
       <r>   -0.7845    1.0000 </r>
       <r>    0.7384    1.0000 </r>
       <r>    0.7384    1.0000 </r>
       <r>    1.1582    1.0000 </r>
       <r>    1.1582    1.0000 </r>
       <r>    1.7367    1.0000 </r>
       <r>    1.7367    1.0000 </r>
       <r>    2.2732    1.0000 </r>
       <r>    2.2732    1.0000 </r>
       <r>    3.8677    1.0000 </r>
       <r>    3.8677    1.0000 </r>
       <r>    4.4091    1.0000 </r>
       <r>    4.4091    1.0000 </r>
       <r>    8.0365    0.0000 </r>
       <r>    8.0365    0.0000 </r>
       <r>    8.5856    0.0000 </r>
       <r>    8.5856    0.0000 </r>
       <r>   10.6189    0.0000 </r>
       <r>   10.6189    0.0000 </r>
       <r>   10.8003    0.0000 </r>
       <r>   10.8003    0.0000 </r>
       <r>   12.2063    0.0000 </r>
       <r>   12.2063    0.0000 </r>
       <r>   12.4881    0.0000 </r>
       <r>   12.4881    0.0000 </r>
       <r>   12.6042    0.0000 </r>
       <r>   12.6042    0.0000 </r>
       <r>   13.1706    0.0000 </r>
       <r>   13.1706    0.0000 </r>
       <r>   15.4362    0.0000 </r>
       <r>   15.4362    0.0000 </r>
       <r>   16.3735    0.0000 </r>
       <r>   16.3735    0.0000 </r>
       <r>   16.9479    0.0000 </r>
       <r>   16.9479    0.0000 </r>
       <r>   17.1642    0.0000 </r>
       <r>   17.1642    0.0000 </r>
      </set>
     </set>
    </set>
   </array>
  </eigenvalues>
  <separator name="orbital magnetization" >
   <v name="MAGDIPOLOUT">      0.00000000      0.00000000      0.00000000</v>
  </separator>
  <dos>
   <i name="efermi">      5.97191094 </i>
   <total>
    <array>
     <dimension dim="1">gridpoints</dimension>
     <dimension dim="2">spin</dimension>
     <field>energy</field>
     <field>total</field>
     <field>integrated</field>
     <set>
      <set comment="spin 1">
       <r>   -17.0846     0.0000     0.0000 </r>
       <r>   -16.9627     0.0000     0.0000 </r>
       <r>   -16.8409     0.0000     0.0000 </r>
       <r>   -16.7191     0.0000     0.0000 </r>
       <r>   -16.5972     0.0000     0.0000 </r>
       <r>   -16.4754     0.0000     0.0000 </r>
       <r>   -16.3536     0.0000     0.0000 </r>
       <r>   -16.2318     0.0000     0.0000 </r>
       <r>   -16.1099     0.0000     0.0000 </r>
       <r>   -15.9881     0.0000     0.0000 </r>
       <r>   -15.8663     0.0000     0.0000 </r>
       <r>   -15.7444     0.0000     0.0000 </r>
       <r>   -15.6226     0.0000     0.0000 </r>
       <r>   -15.5008     0.0000     0.0000 </r>
       <r>   -15.3789   156.1023    19.0181 </r>
       <r>   -15.2571    64.2208    40.0000 </r>
       <r>   -15.1353     0.0000    40.0000 </r>
       <r>   -15.0134     0.0000    40.0000 </r>
       <r>   -14.8916     0.0000    40.0000 </r>
       <r>   -14.7698     0.0000    40.0000 </r>
       <r>   -14.6480     0.0000    40.0000 </r>
       <r>   -14.5261     0.0000    40.0000 </r>
       <r>   -14.4043     0.0000    40.0000 </r>
       <r>   -14.2825     0.0000    40.0000 </r>
       <r>   -14.1606     0.0000    40.0000 </r>
       <r>   -14.0388     0.0000    40.0000 </r>
       <r>   -13.9170     0.0000    40.0000 </r>
       <r>   -13.7951     0.0000    40.0000 </r>
       <r>   -13.6733     0.0000    40.0000 </r>
       <r>   -13.5515     0.0000    40.0000 </r>
       <r>   -13.4296     0.0000    40.0000 </r>
       <r>   -13.3078     0.0000    40.0000 </r>
       <r>   -13.1860     0.0000    40.0000 </r>
       <r>   -13.0642     0.0000    40.0000 </r>
       <r>   -12.9423     0.0000    40.0000 </r>
       <r>   -12.8205     0.0000    40.0000 </r>
       <r>   -12.6987     0.0000    40.0000 </r>
       <r>   -12.5768     0.0000    40.0000 </r>
       <r>   -12.4550     0.0000    40.0000 </r>
       <r>   -12.3332     0.0000    40.0000 </r>
       <r>   -12.2113     0.0000    40.0000 </r>
       <r>   -12.0895     0.0000    40.0000 </r>
       <r>   -11.9677     0.0000    40.0000 </r>
       <r>   -11.8458     0.0000    40.0000 </r>
       <r>   -11.7240     0.0000    40.0000 </r>
       <r>   -11.6022     0.0000    40.0000 </r>
       <r>   -11.4803     0.0000    40.0000 </r>
       <r>   -11.3585     0.0000    40.0000 </r>
       <r>   -11.2367     0.0000    40.0000 </r>
       <r>   -11.1149     0.0000    40.0000 </r>
       <r>   -10.9930     0.0000    40.0000 </r>
       <r>   -10.8712     0.0000    40.0000 </r>
       <r>   -10.7494     0.0000    40.0000 </r>
       <r>   -10.6275     0.0000    40.0000 </r>
       <r>   -10.5057     0.0000    40.0000 </r>
       <r>   -10.3839     0.0000    40.0000 </r>
       <r>   -10.2620     0.0000    40.0000 </r>
       <r>   -10.1402     0.0000    40.0000 </r>
       <r>   -10.0184     0.0000    40.0000 </r>
       <r>    -9.8965     0.0000    40.0000 </r>
       <r>    -9.7747     0.0000    40.0000 </r>
       <r>    -9.6529     0.0000    40.0000 </r>
       <r>    -9.5311     0.0000    40.0000 </r>
       <r>    -9.4092     0.0000    40.0000 </r>
       <r>    -9.2874     0.0000    40.0000 </r>
       <r>    -9.1656     0.0000    40.0000 </r>
       <r>    -9.0437     0.0000    40.0000 </r>
       <r>    -8.9219     0.0000    40.0000 </r>
       <r>    -8.8001     0.0000    40.0000 </r>
       <r>    -8.6782     0.0000    40.0000 </r>
       <r>    -8.5564     0.0000    40.0000 </r>
       <r>    -8.4346     0.0000    40.0000 </r>
       <r>    -8.3127     0.0000    40.0000 </r>
       <r>    -8.1909     0.0002    40.0000 </r>
       <r>    -8.0691     0.4560    40.0648 </r>
       <r>    -7.9473     1.1611    40.2433 </r>
       <r>    -7.8254     1.3008    40.4270 </r>
       <r>    -7.7036     1.9267    40.7625 </r>
       <r>    -7.5818     2.3068    41.0773 </r>
       <r>    -7.4599     2.6164    41.5225 </r>
       <r>    -7.3381     1.7484    41.8241 </r>
       <r>    -7.2163     2.7879    42.3952 </r>
       <r>    -7.0944     2.7155    42.8308 </r>
       <r>    -6.9726     3.7473    43.5769 </r>
       <r>    -6.8508     8.1848    44.6546 </r>
       <r>    -6.7289     8.2692    46.0908 </r>
       <r>    -6.6071     7.0538    47.3872 </r>
       <r>    -6.4853     1.8441    47.9932 </r>
       <r>    -6.3635     0.0000    48.0000 </r>
       <r>    -6.2416     0.0000    48.0000 </r>
       <r>    -6.1198     0.0000    48.0000 </r>
       <r>    -5.9980     0.0000    48.0000 </r>
       <r>    -5.8761     0.0000    48.0000 </r>
       <r>    -5.7543     0.0000    48.0000 </r>
       <r>    -5.6325     0.0000    48.0000 </r>
       <r>    -5.5106     0.0000    48.0000 </r>
       <r>    -5.3888     0.0000    48.0000 </r>
       <r>    -5.2670     0.0000    48.0000 </r>
       <r>    -5.1451     0.0000    48.0000 </r>
       <r>    -5.0233     0.0000    48.0000 </r>
       <r>    -4.9015     0.0000    48.0000 </r>
       <r>    -4.7797     0.0000    48.0000 </r>
       <r>    -4.6578     0.0000    48.0000 </r>
       <r>    -4.5360     0.0000    48.0000 </r>
       <r>    -4.4142     0.0000    48.0000 </r>
       <r>    -4.2923     0.0000    48.0000 </r>
       <r>    -4.1705     0.0000    48.0000 </r>
       <r>    -4.0487     0.0000    48.0000 </r>
       <r>    -3.9268     0.0000    48.0000 </r>
       <r>    -3.8050     0.0000    48.0000 </r>
       <r>    -3.6832     0.0000    48.0000 </r>
       <r>    -3.5613     0.0000    48.0000 </r>
       <r>    -3.4395     0.0000    48.0000 </r>
       <r>    -3.3177     0.0000    48.0000 </r>
       <r>    -3.1959     0.0000    48.0000 </r>
       <r>    -3.0740     0.0000    48.0000 </r>
       <r>    -2.9522     0.0000    48.0000 </r>
       <r>    -2.8304     0.0000    48.0000 </r>
       <r>    -2.7085     0.0000    48.0000 </r>
       <r>    -2.5867     0.1496    48.0182 </r>
       <r>    -2.4649     0.4645    48.0751 </r>
       <r>    -2.3430     1.4914    48.3298 </r>
       <r>    -2.2212     0.7385    48.4233 </r>
       <r>    -2.0994     2.3294    48.7282 </r>
       <r>    -1.9775     1.8430    49.0949 </r>
       <r>    -1.8557     1.1938    49.4788 </r>
       <r>    -1.7339     2.0104    49.9486 </r>
       <r>    -1.6121     2.9263    50.4491 </r>
       <r>    -1.4902     1.3088    50.9002 </r>
       <r>    -1.3684     2.9383    51.3487 </r>
       <r>    -1.2466     0.6082    51.7130 </r>
       <r>    -1.1247     3.6163    52.3017 </r>
       <r>    -1.0029     2.5376    52.7999 </r>
       <r>    -0.8811     1.5392    53.2523 </r>
       <r>    -0.7592     2.9564    54.0361 </r>
       <r>    -0.6374     2.1287    54.5464 </r>
       <r>    -0.5156     1.6556    54.8036 </r>
       <r>    -0.3937     1.6361    55.0790 </r>
       <r>    -0.2719     1.4633    55.2986 </r>
       <r>    -0.1501     1.2169    55.4723 </r>
       <r>    -0.0283     0.3040    55.5370 </r>
       <r>     0.0936     0.5797    55.6077 </r>
       <r>     0.2154     0.0000    55.6574 </r>
       <r>     0.3372     1.2160    55.8056 </r>
       <r>     0.4591     0.7425    55.8960 </r>
       <r>     0.5809     0.3040    55.9907 </r>
       <r>     0.7027     0.0089    56.0289 </r>
       <r>     0.8246     0.9379    56.2717 </r>
       <r>     0.9464     0.5283    56.4533 </r>
       <r>     1.0682     0.9495    56.6435 </r>
       <r>     1.1901     2.9094    57.1415 </r>
       <r>     1.3119     2.0799    57.4849 </r>
       <r>     1.4337     4.3783    58.0797 </r>
       <r>     1.5555     2.0163    58.4586 </r>
       <r>     1.6774     1.7282    58.8680 </r>
       <r>     1.7992     2.5845    59.3056 </r>
       <r>     1.9210     4.1101    59.9544 </r>
       <r>     2.0429     2.3620    60.3526 </r>
       <r>     2.1647     3.5000    60.9542 </r>
       <r>     2.2865     4.9010    61.7545 </r>
       <r>     2.4084     3.5103    62.5017 </r>
       <r>     2.5302     2.1897    62.9705 </r>
       <r>     2.6520     3.9397    63.6837 </r>
       <r>     2.7739     1.2054    64.0357 </r>
       <r>     2.8957     4.1238    64.7061 </r>
       <r>     3.0175     4.4669    65.5257 </r>
       <r>     3.1393     3.0490    66.0752 </r>
       <r>     3.2612     3.0993    66.6554 </r>
       <r>     3.3830     4.8260    67.4028 </r>
       <r>     3.5048     6.3839    68.4166 </r>
       <r>     3.6267     3.9844    68.9762 </r>
       <r>     3.7485     3.5568    69.8130 </r>
       <r>     3.8703     3.1726    70.4698 </r>
       <r>     3.9922     4.4495    71.3106 </r>
       <r>     4.1140     4.9067    72.2089 </r>
       <r>     4.2358     2.3287    72.8763 </r>
       <r>     4.3577     4.1814    73.5372 </r>
       <r>     4.4795     2.8985    74.2142 </r>
       <r>     4.6013     1.9088    74.8159 </r>
       <r>     4.7231     1.9946    75.2430 </r>
       <r>     4.8450     4.6769    76.1994 </r>
       <r>     4.9668     2.5213    76.5849 </r>
       <r>     5.0886     4.1470    77.2830 </r>
       <r>     5.2105     4.1414    78.0231 </r>
       <r>     5.3323     5.5526    79.0191 </r>
       <r>     5.4541     4.4749    79.6563 </r>
       <r>     5.5760     0.6684    79.7666 </r>
       <r>     5.6978     0.6142    79.8896 </r>
       <r>     5.8196     0.2140    79.9520 </r>
       <r>     5.9415     0.1520    80.0000 </r>
       <r>     6.0633     0.0000    80.0000 </r>
       <r>     6.1851     0.0000    80.0000 </r>
       <r>     6.3069     0.0868    80.0106 </r>
       <r>     6.4288     0.3259    80.0860 </r>
       <r>     6.5506     0.3040    80.1759 </r>
       <r>     6.6724     1.1745    80.3190 </r>
       <r>     6.7943     1.3174    80.5031 </r>
       <r>     6.9161     1.1797    80.7271 </r>
       <r>     7.0379     0.7236    80.8752 </r>
       <r>     7.1598     3.6594    81.4551 </r>
       <r>     7.2816     2.7483    82.0108 </r>
       <r>     7.4034     2.3040    82.5677 </r>
       <r>     7.5253     2.0250    83.0152 </r>
       <r>     7.6471     3.9585    83.6582 </r>
       <r>     7.7689     1.9152    84.1315 </r>
       <r>     7.8907     4.1180    84.8813 </r>
       <r>     8.0126     1.0542    85.3044 </r>
       <r>     8.1344     0.4613    85.6951 </r>
       <r>     8.2562     4.8296    86.4125 </r>
       <r>     8.3781     3.0893    86.8856 </r>
       <r>     8.4999     3.0201    87.5254 </r>
       <r>     8.6217     2.7107    88.1543 </r>
       <r>     8.7436     3.3693    88.7346 </r>
       <r>     8.8654     4.0139    89.5723 </r>
       <r>     8.9872     4.7981    90.5383 </r>
       <r>     9.1091     4.9644    91.4567 </r>
       <r>     9.2309     3.0071    92.0330 </r>
       <r>     9.3527     5.1249    92.7447 </r>
       <r>     9.4745     3.5343    93.3380 </r>
       <r>     9.5964     1.7734    93.6790 </r>
       <r>     9.7182     2.1308    94.1114 </r>
       <r>     9.8400     1.8826    94.4886 </r>
       <r>     9.9619     5.3436    95.2436 </r>
       <r>    10.0837     3.6200    95.8669 </r>
       <r>    10.2055     3.0109    96.3205 </r>
       <r>    10.3274     4.4566    97.0522 </r>
       <r>    10.4492     3.9276    97.7285 </r>
       <r>    10.5710     3.3686    98.4474 </r>
       <r>    10.6929     4.3019    99.2185 </r>
       <r>    10.8147     5.3376    99.9929 </r>
       <r>    10.9365     2.5829   100.6665 </r>
       <r>    11.0583     4.5810   101.5026 </r>
       <r>    11.1802     1.7034   101.8742 </r>
       <r>    11.3020     2.0125   102.2452 </r>
       <r>    11.4238     3.0160   102.7286 </r>
       <r>    11.5457     2.8675   103.2845 </r>
       <r>    11.6675     1.9384   103.6713 </r>
       <r>    11.7893     2.1429   104.1592 </r>
       <r>    11.9112     2.3765   104.6229 </r>
       <r>    12.0330     2.6594   105.1018 </r>
       <r>    12.1548     4.6193   105.7109 </r>
       <r>    12.2767     5.5491   106.5742 </r>
       <r>    12.3985     2.0584   106.9267 </r>
       <r>    12.5203     2.8181   107.3896 </r>
       <r>    12.6421     2.4609   107.7350 </r>
       <r>    12.7640     3.5715   108.4259 </r>
       <r>    12.8858     2.6969   108.8934 </r>
       <r>    13.0076     3.3491   109.5469 </r>
       <r>    13.1295     2.0935   109.8754 </r>
       <r>    13.2513     3.6463   110.6016 </r>
       <r>    13.3731     2.0291   110.9972 </r>
       <r>    13.4950     2.2820   111.5651 </r>
       <r>    13.6168     2.3969   112.0235 </r>
       <r>    13.7386     0.5279   112.2495 </r>
       <r>    13.8605     2.7674   112.7446 </r>
       <r>    13.9823     4.1237   113.6135 </r>
       <r>    14.1041     1.5438   114.0770 </r>
       <r>    14.2259     4.4682   114.7481 </r>
       <r>    14.3478     3.5533   115.2662 </r>
       <r>    14.4696     1.5907   115.7401 </r>
       <r>    14.5914     2.4235   116.1471 </r>
       <r>    14.7133     4.7525   116.8290 </r>
       <r>    14.8351     1.7825   117.2727 </r>
       <r>    14.9569     4.0246   117.9718 </r>
       <r>    15.0788     1.0691   118.2414 </r>
       <r>    15.2006     3.7970   118.8515 </r>
       <r>    15.3224     5.2140   119.6723 </r>
       <r>    15.4443     4.8962   120.4854 </r>
       <r>    15.5661     4.7369   121.2623 </r>
       <r>    15.6879     2.1542   121.7069 </r>
       <r>    15.8097     4.7899   122.4725 </r>
       <r>    15.9316     3.1119   122.9532 </r>
       <r>    16.0534     5.6640   123.8567 </r>
       <r>    16.1752     2.4712   124.2640 </r>
       <r>    16.2971     1.9725   124.6292 </r>
       <r>    16.4189     4.6115   125.2100 </r>
       <r>    16.5407     3.3872   125.7645 </r>
       <r>    16.6626     2.2687   126.2764 </r>
       <r>    16.7844     1.4724   126.6424 </r>
       <r>    16.9062     0.9118   126.9259 </r>
       <r>    17.0281     1.5214   127.3335 </r>
       <r>    17.1499     0.8633   127.4755 </r>
       <r>    17.2717     0.6080   127.8519 </r>
       <r>    17.3935     0.0000   127.8889 </r>
       <r>    17.5154     0.0000   127.8889 </r>
       <r>    17.6372     0.4053   127.9383 </r>
       <r>    17.7590     0.0000   127.9630 </r>
       <r>    17.8809     0.3040   128.0000 </r>
       <r>    18.0027     0.0000   128.0000 </r>
       <r>    18.1245     0.0000   128.0000 </r>
       <r>    18.2464     0.0000   128.0000 </r>
       <r>    18.3682     0.0000   128.0000 </r>
       <r>    18.4900     0.0000   128.0000 </r>
       <r>    18.6119     0.0000   128.0000 </r>
       <r>    18.7337     0.0000   128.0000 </r>
       <r>    18.8555     0.0000   128.0000 </r>
       <r>    18.9773     0.0000   128.0000 </r>
       <r>    19.0992     0.0000   128.0000 </r>
       <r>    19.2210     0.0000   128.0000 </r>
       <r>    19.3428     0.0000   128.0000 </r>
       <r>    19.4647     0.0000   128.0000 </r>
      </set>
     </set>
    </array>
   </total>
  </dos>
 </calculation>
 <structure name="finalpos" >
  <crystal>
   <varray name="basis" >
    <v>       4.34539863       0.00000000       0.00000000 </v>
    <v>       0.00000000       4.11936655       0.00000000 </v>
    <v>       0.00000000       0.00000000      11.35478920 </v>
   </varray>
   <i name="volume">    203.25401695 </i>
   <varray name="rec_basis" >
    <v>       0.23012848       0.00000000       0.00000000 </v>
    <v>       0.00000000       0.24275577       0.00000000 </v>
    <v>       0.00000000       0.00000000       0.08806857 </v>
   </varray>
  </crystal>
  <varray name="positions" >
   <v>       0.09848548       0.25000000       0.11528682 </v>
   <v>       0.40151452       0.25000000       0.61528682 </v>
   <v>       0.59848548       0.75000000       0.38471318 </v>
   <v>       0.90151452       0.75000000       0.88471318 </v>
   <v>       0.02704790       0.25000000       0.35663305 </v>
   <v>       0.47295210       0.25000000       0.85663305 </v>
   <v>       0.52704790       0.75000000       0.14336695 </v>
   <v>       0.97295210       0.75000000       0.64336695 </v>
  </varray>
 </structure>
</modeling>
