<?xml version="1.0" encoding="ISO-8859-1"?>
<modeling>
 <generator>
  <i name="program" type="string">vasp </i>
  <i name="version" type="string">6.2.0  </i>
  <i name="subversion" type="string">18Jan21 (build Mar  1 2021 20:13:55) complex                          parallel </i>
  <i name="platform" type="string">HPECrayEX_GCC </i>
  <i name="date" type="string">2026 03 07 </i>
  <i name="time" type="string">19:47:04 </i>
 </generator>
 <incar>
  <i type="string" name="SYSTEM">Pnma SnSe</i>
  <i type="string" name="PREC">Accurate</i>
  <i type="string" name="ALGO">Normal</i>
  <i type="logical" name="ADDGRID"> T  </i>
  <i type="int" name="NELM">   250</i>
  <i type="int" name="NELMIN">     5</i>
  <i name="EDIFF">      0.00000001</i>
  <i type="int" name="NSW">     0</i>
  <i type="int" name="ISIF">     2</i>
  <i name="ENCUT">    700.00000000</i>
  <i type="logical" name="LREAL"> F  </i>
  <i type="int" name="ISMEAR">     0</i>
  <i name="SIGMA">      0.01000000</i>
  <i type="logical" name="LWAVE"> F  </i>
  <i type="logical" name="LCHARG"> F  </i>
  <i type="logical" name="LASPH"> T  </i>
  <i type="string" name="GGA">PS</i>
  <i type="logical" name="LEPSILON"> T  </i>
  <i type="int" name="IVDW">    11</i>
 </incar>
 <primitive_cell>
  <structure name="primitive_cell" >
   <crystal>
    <varray name="basis" >
     <v>       4.34539863       0.00000000       0.00000000 </v>
     <v>       0.00000000       4.11936655       0.00000000 </v>
     <v>       0.00000000       0.00000000      11.35478920 </v>
    </varray>
    <i name="volume">    203.25401695 </i>
    <varray name="rec_basis" >
     <v>       0.23012848       0.00000000       0.00000000 </v>
     <v>       0.00000000       0.24275577       0.00000000 </v>
     <v>       0.00000000       0.00000000       0.08806857 </v>
    </varray>
   </crystal>
   <varray name="positions" >
    <v>       0.09950946       0.25000000       0.11536932 </v>
    <v>       0.40143685       0.25000000       0.61542490 </v>
    <v>       0.59856315       0.75000000       0.38457510 </v>
    <v>       0.90049054       0.75000000       0.88463068 </v>
    <v>       0.02716720       0.25000000       0.35686642 </v>
    <v>       0.47506616       0.25000000       0.85664290 </v>
    <v>       0.52493384       0.75000000       0.14335710 </v>
    <v>       0.97283280       0.75000000       0.64313358 </v>
   </varray>
  </structure>
  <varray name="primitive_index" >
   <v type="int" >        1 </v>
   <v type="int" >        2 </v>
   <v type="int" >        3 </v>
   <v type="int" >        4 </v>
   <v type="int" >        5 </v>
   <v type="int" >        6 </v>
   <v type="int" >        7 </v>
   <v type="int" >        8 </v>
  </varray>
 </primitive_cell>
 <kpoints>
  <generation param="Gamma">
   <v type="int" name="divisions">       8        9        3 </v>
   <v name="usershift">      0.00000000       0.00000000       0.00000000 </v>
   <v name="genvec1">      0.12500000       0.00000000       0.00000000 </v>
   <v name="genvec2">      0.00000000       0.11111111       0.00000000 </v>
   <v name="genvec3">      0.00000000       0.00000000       0.33333333 </v>
   <v name="shift">      0.00000000       0.00000000       0.00000000 </v>
  </generation>
  <varray name="kpointlist" >
   <v>       0.00000000       0.00000000       0.00000000 </v>
   <v>       0.12500000       0.00000000       0.00000000 </v>
   <v>       0.25000000       0.00000000       0.00000000 </v>
   <v>       0.37500000       0.00000000       0.00000000 </v>
   <v>       0.50000000       0.00000000       0.00000000 </v>
   <v>       0.00000000       0.11111111       0.00000000 </v>
   <v>       0.12500000       0.11111111       0.00000000 </v>
   <v>       0.25000000       0.11111111       0.00000000 </v>
   <v>       0.37500000       0.11111111       0.00000000 </v>
   <v>       0.50000000       0.11111111       0.00000000 </v>
   <v>       0.00000000       0.22222222       0.00000000 </v>
   <v>       0.12500000       0.22222222       0.00000000 </v>
   <v>       0.25000000       0.22222222       0.00000000 </v>
   <v>       0.37500000       0.22222222       0.00000000 </v>
   <v>       0.50000000       0.22222222       0.00000000 </v>
   <v>       0.00000000       0.33333333       0.00000000 </v>
   <v>       0.12500000       0.33333333       0.00000000 </v>
   <v>       0.25000000       0.33333333       0.00000000 </v>
   <v>       0.37500000       0.33333333       0.00000000 </v>
   <v>       0.50000000       0.33333333       0.00000000 </v>
   <v>       0.00000000       0.44444444       0.00000000 </v>
   <v>       0.12500000       0.44444444       0.00000000 </v>
   <v>       0.25000000       0.44444444       0.00000000 </v>
   <v>       0.37500000       0.44444444       0.00000000 </v>
   <v>       0.50000000       0.44444444       0.00000000 </v>
   <v>       0.00000000       0.00000000       0.33333333 </v>
   <v>       0.12500000       0.00000000       0.33333333 </v>
   <v>       0.12500000       0.00000000      -0.33333333 </v>
   <v>       0.25000000       0.00000000       0.33333333 </v>
   <v>       0.25000000       0.00000000      -0.33333333 </v>
   <v>       0.37500000       0.00000000       0.33333333 </v>
   <v>       0.37500000       0.00000000      -0.33333333 </v>
   <v>       0.50000000       0.00000000       0.33333333 </v>
   <v>       0.00000000       0.11111111       0.33333333 </v>
   <v>       0.12500000       0.11111111       0.33333333 </v>
   <v>       0.12500000      -0.11111111      -0.33333333 </v>
   <v>       0.25000000       0.11111111       0.33333333 </v>
   <v>       0.25000000      -0.11111111      -0.33333333 </v>
   <v>       0.37500000       0.11111111       0.33333333 </v>
   <v>       0.37500000      -0.11111111      -0.33333333 </v>
   <v>       0.50000000       0.11111111       0.33333333 </v>
   <v>       0.00000000       0.22222222       0.33333333 </v>
   <v>       0.12500000       0.22222222       0.33333333 </v>
   <v>       0.12500000      -0.22222222      -0.33333333 </v>
   <v>       0.25000000       0.22222222       0.33333333 </v>
   <v>       0.25000000      -0.22222222      -0.33333333 </v>
   <v>       0.37500000       0.22222222       0.33333333 </v>
   <v>       0.37500000      -0.22222222      -0.33333333 </v>
   <v>       0.50000000       0.22222222       0.33333333 </v>
   <v>       0.00000000       0.33333333       0.33333333 </v>
   <v>       0.12500000       0.33333333       0.33333333 </v>
   <v>       0.12500000      -0.33333333      -0.33333333 </v>
   <v>       0.25000000       0.33333333       0.33333333 </v>
   <v>       0.25000000      -0.33333333      -0.33333333 </v>
   <v>       0.37500000       0.33333333       0.33333333 </v>
   <v>       0.37500000      -0.33333333      -0.33333333 </v>
   <v>       0.50000000       0.33333333       0.33333333 </v>
   <v>       0.00000000       0.44444444       0.33333333 </v>
   <v>       0.12500000       0.44444444       0.33333333 </v>
   <v>       0.12500000      -0.44444444      -0.33333333 </v>
   <v>       0.25000000       0.44444444       0.33333333 </v>
   <v>       0.25000000      -0.44444444      -0.33333333 </v>
   <v>       0.37500000       0.44444444       0.33333333 </v>
   <v>       0.37500000      -0.44444444      -0.33333333 </v>
   <v>       0.50000000       0.44444444       0.33333333 </v>
  </varray>
  <varray name="weights" >
   <v>       0.00462963 </v>
   <v>       0.00925926 </v>
   <v>       0.00925926 </v>
   <v>       0.00925926 </v>
   <v>       0.00462963 </v>
   <v>       0.00925926 </v>
   <v>       0.01851852 </v>
   <v>       0.01851852 </v>
   <v>       0.01851852 </v>
   <v>       0.00925926 </v>
   <v>       0.00925926 </v>
   <v>       0.01851852 </v>
   <v>       0.01851852 </v>
   <v>       0.01851852 </v>
   <v>       0.00925926 </v>
   <v>       0.00925926 </v>
   <v>       0.01851852 </v>
   <v>       0.01851852 </v>
   <v>       0.01851852 </v>
   <v>       0.00925926 </v>
   <v>       0.00925926 </v>
   <v>       0.01851852 </v>
   <v>       0.01851852 </v>
   <v>       0.01851852 </v>
   <v>       0.00925926 </v>
   <v>       0.00925926 </v>
   <v>       0.00925926 </v>
   <v>       0.00925926 </v>
   <v>       0.00925926 </v>
   <v>       0.00925926 </v>
   <v>       0.00925926 </v>
   <v>       0.00925926 </v>
   <v>       0.00925926 </v>
   <v>       0.01851852 </v>
   <v>       0.01851852 </v>
   <v>       0.01851852 </v>
   <v>       0.01851852 </v>
   <v>       0.01851852 </v>
   <v>       0.01851852 </v>
   <v>       0.01851852 </v>
   <v>       0.01851852 </v>
   <v>       0.01851852 </v>
   <v>       0.01851852 </v>
   <v>       0.01851852 </v>
   <v>       0.01851852 </v>
   <v>       0.01851852 </v>
   <v>       0.01851852 </v>
   <v>       0.01851852 </v>
   <v>       0.01851852 </v>
   <v>       0.01851852 </v>
   <v>       0.01851852 </v>
   <v>       0.01851852 </v>
   <v>       0.01851852 </v>
   <v>       0.01851852 </v>
   <v>       0.01851852 </v>
   <v>       0.01851852 </v>
   <v>       0.01851852 </v>
   <v>       0.01851852 </v>
   <v>       0.01851852 </v>
   <v>       0.01851852 </v>
   <v>       0.01851852 </v>
   <v>       0.01851852 </v>
   <v>       0.01851852 </v>
   <v>       0.01851852 </v>
   <v>       0.01851852 </v>
  </varray>
 </kpoints>
 <parameters>
  <separator name="general" >
   <i type="string" name="SYSTEM">Pnma SnSe</i>
   <i type="logical" name="LCOMPAT"> F  </i>
  </separator>
  <separator name="electronic" >
   <i type="string" name="PREC">accura</i>
   <i name="ENMAX">    700.00000000</i>
   <i name="ENAUG">    446.84200000</i>
   <i name="EDIFF">      0.00000001</i>
   <i type="int" name="IALGO">    38</i>
   <i type="int" name="IWAVPR">    10</i>
   <i type="int" name="NBANDS">    64</i>
   <i type="int" name="NBANDSLOW">    -1</i>
   <i type="int" name="NBANDSHIGH">    -1</i>
   <i name="NELECT">     80.00000000</i>
   <i type="int" name="TURBO">     0</i>
   <i type="int" name="IRESTART">     0</i>
   <i type="int" name="NREBOOT">     0</i>
   <i type="int" name="NMIN">     0</i>
   <i name="EREF">      0.00000000</i>
   <separator name="electronic smearing" >
    <i type="int" name="ISMEAR">     0</i>
    <i name="SIGMA">      0.01000000</i>
    <i name="KSPACING">      0.50000000</i>
    <i type="logical" name="KGAMMA"> T  </i>
    <i type="logical" name="KBLOWUP"> T  </i>
   </separator>
   <separator name="electronic projectors" >
    <i type="logical" name="LREAL"> F  </i>
    <v name="ROPT">      0.00000000      0.00000000</v>
    <i type="int" name="LMAXPAW">  -100</i>
    <i type="int" name="LMAXMIX">     2</i>
    <i type="logical" name="NLSPLINE"> F  </i>
   </separator>
   <separator name="electronic startup" >
    <i type="int" name="ISTART">     0</i>
    <i type="int" name="ICHARG">     2</i>
    <i type="int" name="INIWAV">     1</i>
   </separator>
   <separator name="electronic spin" >
    <i type="int" name="ISPIN">     1</i>
    <i type="logical" name="LNONCOLLINEAR"> F  </i>
    <v name="MAGMOM">      1.00000000      1.00000000      1.00000000      1.00000000      1.00000000      1.00000000      1.00000000      1.00000000</v>
    <i name="NUPDOWN">     -1.00000000</i>
    <i type="logical" name="LSORBIT"> F  </i>
    <v name="SAXIS">      0.00000000      0.00000000      1.00000000</v>
    <i type="logical" name="LSPIRAL"> F  </i>
    <v name="QSPIRAL">      0.00000000      0.00000000      0.00000000</v>
    <i type="logical" name="LZEROZ"> F  </i>
   </separator>
   <separator name="electronic exchange-correlation" >
    <i type="logical" name="LASPH"> T  </i>
    <i type="logical" name="LMETAGGA"> F  </i>
   </separator>
   <separator name="electronic convergence" >
    <i type="int" name="NELM">   250</i>
    <i type="int" name="NELMDL">    -5</i>
    <i type="int" name="NELMIN">     5</i>
    <i name="ENINI">    700.00000000</i>
    <separator name="electronic convergence detail" >
     <i type="logical" name="LDIAG"> T  </i>
     <i type="logical" name="LSUBROT"> F  </i>
     <i name="WEIMIN">      0.00000000</i>
     <i name="EBREAK">      0.00000000</i>
     <i name="DEPER">      0.30000000</i>
     <i type="int" name="NRMM">     4</i>
     <i name="TIME">      0.40000000</i>
    </separator>
   </separator>
   <separator name="electronic mixer" >
    <i name="AMIX">      0.40000000</i>
    <i name="BMIX">      1.00000000</i>
    <i name="AMIN">      0.10000000</i>
    <i name="AMIX_MAG">      1.60000000</i>
    <i name="BMIX_MAG">      1.00000000</i>
    <separator name="electronic mixer details" >
     <i type="int" name="IMIX">     4</i>
     <i type="logical" name="MIXFIRST"> F  </i>
     <i type="int" name="MAXMIX">   -45</i>
     <i name="WC">    100.00000000</i>
     <i type="int" name="INIMIX">     1</i>
     <i type="int" name="MIXPRE">     1</i>
     <i type="int" name="MREMOVE">     5</i>
    </separator>
   </separator>
   <separator name="electronic dipolcorrection" >
    <i type="logical" name="LDIPOL"> F  </i>
    <i type="logical" name="LMONO"> F  </i>
    <i type="int" name="IDIPOL">     0</i>
    <i name="EPSILON">      1.00000000</i>
    <v name="DIPOL">   -100.00000000   -100.00000000   -100.00000000</v>
    <i name="EFIELD">      0.00000000</i>
   </separator>
  </separator>
  <separator name="grids" >
   <i type="int" name="NGX">    40</i>
   <i type="int" name="NGY">    36</i>
   <i type="int" name="NGZ">    98</i>
   <i type="int" name="NGXF">    80</i>
   <i type="int" name="NGYF">    72</i>
   <i type="int" name="NGZF">   196</i>
   <i type="logical" name="ADDGRID"> T  </i>
  </separator>
  <separator name="ionic" >
   <i type="int" name="NSW">     0</i>
   <i type="int" name="IBRION">    -1</i>
   <i type="int" name="MDALGO">     0</i>
   <i type="int" name="ISIF">     2</i>
   <i name="PSTRESS">      0.00000000</i>
   <i name="EDIFFG">      0.00000010</i>
   <i type="int" name="NFREE">     0</i>
   <i name="POTIM">      0.50000000</i>
   <i name="SMASS">     -3.00000000</i>
   <i name="SCALEE">      1.00000000</i>
  </separator>
  <separator name="ionic md" >
   <i name="TEBEG">      0.00010000</i>
   <i name="TEEND">      0.00010000</i>
   <i type="int" name="NBLOCK">     1</i>
   <i type="int" name="KBLOCK">     1</i>
   <i type="int" name="NPACO">   256</i>
   <i name="APACO">     16.00000000</i>
  </separator>
  <separator name="symmetry" >
   <i type="int" name="ISYM">     2</i>
   <i name="SYMPREC">      0.00001000</i>
  </separator>
  <separator name="dos" >
   <i type="int" name="LORBIT">     0</i>
   <v name="RWIGS">     -1.00000000     -1.00000000</v>
   <i type="int" name="NEDOS">   301</i>
   <i name="EMIN">     10.00000000</i>
   <i name="EMAX">    -10.00000000</i>
   <i name="EFERMI">      0.00000000</i>
  </separator>
  <separator name="writing" >
   <i type="int" name="NWRITE">     2</i>
   <i type="logical" name="LWAVE"> F  </i>
   <i type="logical" name="LDOWNSAMPLE"> F  </i>
   <i type="logical" name="LCHARG"> F  </i>
   <i type="logical" name="LPARD"> F  </i>
   <i type="logical" name="LVTOT"> F  </i>
   <i type="logical" name="LVHAR"> F  </i>
   <i type="logical" name="LELF"> F  </i>
   <i type="logical" name="LOPTICS"> F  </i>
   <v name="STM">      0.00000000      0.00000000      0.00000000      0.00000000      0.00000000      0.00000000      0.00000000</v>
  </separator>
  <separator name="performance" >
   <i type="int" name="NPAR">    32</i>
   <i type="int" name="NSIM">     4</i>
   <i type="int" name="NBLK">    -1</i>
   <i type="logical" name="LPLANE"> T  </i>
   <i type="logical" name="LSCALAPACK"> T  </i>
   <i type="logical" name="LSCAAWARE"> F  </i>
   <i type="logical" name="LSCALU"> F  </i>
   <i type="logical" name="LASYNC"> F  </i>
   <i type="logical" name="LORBITALREAL"> F  </i>
  </separator>
  <separator name="miscellaneous" >
   <i type="int" name="IDIOT">     3</i>
   <i type="int" name="PHON_NSTRUCT">    -1</i>
   <i type="logical" name="LMUSIC"> F  </i>
   <v name="POMASS">    118.71000000     78.96000000</v>
   <v name="DARWINR">      0.00000000      0.00000000</v>
   <v name="DARWINV">      1.00000000      1.00000000</v>
   <i type="logical" name="LCORR"> T  </i>
  </separator>
  <i type="logical" name="GGA_COMPAT"> T  </i>
  <i type="logical" name="LBERRY"> F  </i>
  <i type="int" name="ICORELEVEL">     0</i>
  <i type="logical" name="LDAU"> F  </i>
  <i type="int" name="I_CONSTRAINED_M">     0</i>
  <separator name="electronic exchange-correlation" >
   <i type="string" name="GGA">PS</i>
   <i type="int" name="VOSKOWN">     0</i>
   <i type="logical" name="LHFCALC"> F  </i>
   <i type="string" name="PRECFOCK"></i>
   <i type="logical" name="LSYMGRAD"> F  </i>
   <i type="logical" name="LHFONE"> F  </i>
   <i type="logical" name="LRHFCALC"> F  </i>
   <i type="logical" name="LTHOMAS"> F  </i>
   <i type="logical" name="LMODELHF"> F  </i>
   <i type="logical" name="LFOCKACE"> F  </i>
   <i name="ENCUT4O">     -1.00000000</i>
   <i type="int" name="EXXOEP">     0</i>
   <i type="int" name="FOURORBIT">     0</i>
   <i name="AEXX">      0.00000000</i>
   <i name="HFALPHA">      0.00000000</i>
   <i name="MCALPHA">      0.00000000</i>
   <i name="ALDAX">      1.00000000</i>
   <i name="AGGAX">      1.00000000</i>
   <i name="ALDAC">      1.00000000</i>
   <i name="AGGAC">      1.00000000</i>
   <i type="int" name="NKREDX">     1</i>
   <i type="int" name="NKREDY">     1</i>
   <i type="int" name="NKREDZ">     1</i>
   <i type="logical" name="SHIFTRED"> F  </i>
   <i type="logical" name="ODDONLY"> F  </i>
   <i type="logical" name="EVENONLY"> F  </i>
   <i type="int" name="LMAXFOCK">     0</i>
   <i type="int" name="NMAXFOCKAE">     0</i>
   <i type="logical" name="LFOCKAEDFT"> F  </i>
   <i name="HFSCREEN">      0.00000000</i>
   <i name="HFSCREENC">      0.00000000</i>
   <i type="int" name="NBANDSGWLOW">     0</i>
  </separator>
  <separator name="vdW DFT" >
   <i type="logical" name="LUSE_VDW"> F  </i>
   <i name="Zab_VDW">     -0.84910000</i>
   <i name="PARAM1">      0.12340000</i>
   <i name="PARAM2">      1.00000000</i>
   <i name="PARAM3">      0.00000000</i>
  </separator>
  <separator name="model GW" >
   <i type="int" name="MODEL_GW">     0</i>
   <i name="MODEL_EPS0">     15.24405127</i>
   <i name="MODEL_ALPHA">      1.00000000</i>
  </separator>
  <separator name="linear response parameters" >
   <i type="logical" name="LEPSILON"> T  </i>
   <i type="logical" name="LRPA"> F  </i>
   <i type="logical" name="LNABLA"> F  </i>
   <i type="logical" name="LVEL"> F  </i>
   <i type="int" name="KINTER">     0</i>
   <i name="CSHIFT">      0.10000000</i>
   <i name="OMEGAMAX">     -1.00000000</i>
   <i name="DEG_THRESHOLD">      0.00200000</i>
   <i name="RTIME">     -0.10000000</i>
   <i name="WPLASMAI">      0.00000000</i>
   <v name="DFIELD">      0.00000000      0.00000000      0.00000000</v>
   <v name="WPLASMA">      0.00000000      0.00000000      0.00000000      0.00000000      0.00000000      0.00000000      0.00000000      0.00000000      0.00000000</v>
  </separator>
  <separator name="orbital magnetization" >
   <i type="logical" name="NUCIND"> F  </i>
   <v name="MAGPOS">      0.00000000      0.00000000      0.00000000</v>
   <i type="logical" name="LNICSALL"> T  </i>
   <i type="logical" name="ORBITALMAG"> F  </i>
   <i type="logical" name="LMAGBLOCH"> F  </i>
   <i type="logical" name="LCHIMAG"> F  </i>
   <i type="logical" name="LGAUGE"> T  </i>
   <i type="int" name="MAGATOM">     0</i>
   <v name="MAGDIPOL">      0.00000000      0.00000000      0.00000000</v>
   <v name="AVECCONST">      0.00000000      0.00000000      0.00000000</v>
  </separator>
  <separator name="response functions" >
   <i type="logical" name="LFINITE_TEMPERATURE"> F  </i>
   <i type="logical" name="LADDER"> F  </i>
   <i type="logical" name="LRPAFORCE"> F  </i>
   <i type="logical" name="LFXC"> F  </i>
   <i type="logical" name="LHARTREE"> T  </i>
   <i type="int" name="IBSE">     0</i>
   <v type="int" name="KPOINT">    -1     0     0     0</v>
   <i type="logical" name="LTCTC"> F  </i>
   <i type="logical" name="LTCTE"> F  </i>
   <i type="logical" name="LTETE"> F  </i>
   <i type="logical" name="LTRIPLET"> F  </i>
   <i type="logical" name="LFXCEPS"> F  </i>
   <i type="logical" name="LFXHEG"> F  </i>
   <i type="int" name="NATURALO">     2</i>
   <i type="logical" name="LHOLEGF"> F  </i>
   <i type="logical" name="L2ORDER"> F  </i>
   <i type="logical" name="LDMP1"> F  </i>
   <i type="logical" name="LMP2LT"> F  </i>
   <i type="logical" name="LSMP2LT"> F  </i>
   <i type="logical" name="LGWLF"> F  </i>
   <i name="ENCUTGW">     -2.00000000</i>
   <i name="ENCUTGWSOFT">     -2.00000000</i>
   <i name="ENCUTLF">     -1.00000000</i>
   <i type="logical" name="LESF_SPLINES"> F  </i>
   <i type="int" name="LMAXMP2">    -1</i>
   <i name="SCISSOR">      0.00000000</i>
   <i type="int" name="NOMEGA">     0</i>
   <i type="int" name="NOMEGAR">     0</i>
   <i type="int" name="NBANDSGW">    -1</i>
   <i type="int" name="NBANDSO">    -1</i>
   <i type="int" name="NBANDSV">    -1</i>
   <i type="int" name="NELM">   250</i>
   <i type="int" name="NELMHF">     1</i>
   <i type="int" name="DIM">     3</i>
   <i type="int" name="IESPILON">     4</i>
   <i type="int" name="ANTIRES">     0</i>
   <i name="OMEGAMAX">    -30.00000000</i>
   <i name="OMEGAMIN">    -30.00000000</i>
   <i name="OMEGATL">   -200.00000000</i>
   <i type="int" name="OMEGAGRID">     0</i>
   <i name="CSHIFT">     -0.10000000</i>
   <i type="logical" name="LSELFENERGY"> F  </i>
   <i type="logical" name="LSPECTRAL"> F  </i>
   <i type="logical" name="LSPECTRALGW"> F  </i>
   <i type="logical" name="LSINGLES"> F  </i>
   <i type="logical" name="LFERMIGW"> F  </i>
   <i type="logical" name="ODDONLYGW"> F  </i>
   <i type="logical" name="EVENONLYGW"> F  </i>
   <i type="int" name="NKREDLFX">     1</i>
   <i type="int" name="NKREDLFY">     1</i>
   <i type="int" name="NKREDLFZ">     1</i>
   <i type="int" name="MAXMEM">  2800</i>
   <i type="int" name="TELESCOPE">     0</i>
   <i type="int" name="NTAUPAR">    -1</i>
   <i type="int" name="NOMEGAPAR">    -1</i>
   <i name="DAMP_NEWTON">      0.80000001</i>
   <i name="LAMBDA">      1.00000000</i>
  </separator>
  <separator name="External order field" >
   <i name="OFIELD_KAPPA">      0.00000000</i>
   <v name="OFIELD_K">      0.00000000      0.00000000      0.00000000</v>
   <i name="OFIELD_Q6_NEAR">      0.00000000</i>
   <i name="OFIELD_Q6_FAR">      0.00000000</i>
   <i name="OFIELD_A">      0.00000000</i>
  </separator>
 </parameters>
 <atominfo>
  <atoms>       8 </atoms>
  <types>       2 </types>
  <array name="atoms" >
   <dimension dim="1">ion</dimension>
   <field type="string">element</field>
   <field type="int">atomtype</field>
   <set>
    <rc><c>Sn</c><c>   1</c></rc>
    <rc><c>Sn</c><c>   1</c></rc>
    <rc><c>Sn</c><c>   1</c></rc>
    <rc><c>Sn</c><c>   1</c></rc>
    <rc><c>Se</c><c>   2</c></rc>
    <rc><c>Se</c><c>   2</c></rc>
    <rc><c>Se</c><c>   2</c></rc>
    <rc><c>Se</c><c>   2</c></rc>
   </set>
  </array>
  <array name="atomtypes" >
   <dimension dim="1">type</dimension>
   <field type="int">atomspertype</field>
   <field type="string">element</field>
   <field>mass</field>
   <field>valence</field>
   <field type="string">pseudopotential</field>
   <set>
    <rc><c>   4</c><c>Sn</c><c>    118.71000000</c><c>     14.00000000</c><c>  PAW_PBE Sn_d 06Sep2000                </c></rc>
    <rc><c>   4</c><c>Se</c><c>     78.96000000</c><c>      6.00000000</c><c>  PAW_PBE Se 06Sep2000                  </c></rc>
   </set>
  </array>
 </atominfo>
 <structure name="initialpos" >
  <crystal>
   <varray name="basis" >
    <v>       4.34539863       0.00000000       0.00000000 </v>
    <v>       0.00000000       4.11936655       0.00000000 </v>
    <v>       0.00000000       0.00000000      11.35478920 </v>
   </varray>
   <i name="volume">    203.25401695 </i>
   <varray name="rec_basis" >
    <v>       0.23012848       0.00000000       0.00000000 </v>
    <v>       0.00000000       0.24275577       0.00000000 </v>
    <v>       0.00000000       0.00000000       0.08806857 </v>
   </varray>
  </crystal>
  <varray name="positions" >
   <v>       0.09950946       0.25000000       0.11536932 </v>
   <v>       0.40143685       0.25000000       0.61542490 </v>
   <v>       0.59856315       0.75000000       0.38457510 </v>
   <v>       0.90049054       0.75000000       0.88463068 </v>
   <v>       0.02716720       0.25000000       0.35686642 </v>
   <v>       0.47506616       0.25000000       0.85664290 </v>
   <v>       0.52493384       0.75000000       0.14335710 </v>
   <v>       0.97283280       0.75000000       0.64313358 </v>
  </varray>
 </structure>
 <calculation>
  <scstep>
   <time name="dav">    1.70    0.86</time>
   <time name="total">    1.99    1.11</time>
   <energy>
    <i name="alphaZ">    217.43841536 </i>
    <i name="ewald">  -6082.71722399 </i>
    <i name="hartreedc">  -2322.11624653 </i>
    <i name="XCdc">    230.11274143 </i>
    <i name="pawpsdc">   7112.06264409 </i>
    <i name="pawaedc">  -7207.42447429 </i>
    <i name="eentropy">     -0.00010913 </i>
    <i name="bandstr">     39.48765455 </i>
    <i name="atom">   8598.20158228 </i>
    <i name="e_fr_energy">    585.04498376 </i>
    <i name="e_wo_entrp">    585.04509289 </i>
    <i name="e_0_energy">    585.04503833 </i>
   </energy>
  </scstep>
  <scstep>
   <time name="dav">    1.90    0.95</time>
   <time name="total">    1.90    0.95</time>
   <energy>
    <i name="e_fr_energy">     16.88884747 </i>
    <i name="e_wo_entrp">     16.88889971 </i>
    <i name="e_0_energy">     16.88887359 </i>
   </energy>
  </scstep>
  <scstep>
   <time name="dav">    2.54    1.27</time>
   <time name="total">    2.54    1.28</time>
   <energy>
    <i name="e_fr_energy">    -35.44187765 </i>
    <i name="e_wo_entrp">    -35.44187765 </i>
    <i name="e_0_energy">    -35.44187765 </i>
   </energy>
  </scstep>
  <scstep>
   <time name="dav">    2.26    1.13</time>
   <time name="total">    2.26    1.13</time>
   <energy>
    <i name="e_fr_energy">    -36.55522898 </i>
    <i name="e_wo_entrp">    -36.55522898 </i>
    <i name="e_0_energy">    -36.55522898 </i>
   </energy>
  </scstep>
  <scstep>
   <time name="dav">    2.94    1.48</time>
   <time name="total">    3.16    1.63</time>
   <energy>
    <i name="e_fr_energy">    -36.58322367 </i>
    <i name="e_wo_entrp">    -36.58322367 </i>
    <i name="e_0_energy">    -36.58322367 </i>
   </energy>
  </scstep>
  <scstep>
   <time name="dav">    3.05    1.53</time>
   <time name="total">    3.52    1.89</time>
   <energy>
    <i name="e_fr_energy">    -35.95327811 </i>
    <i name="e_wo_entrp">    -35.95327811 </i>
    <i name="e_0_energy">    -35.95327811 </i>
   </energy>
  </scstep>
  <scstep>
   <time name="dav">    2.75    1.38</time>
   <time name="total">    3.22    1.74</time>
   <energy>
    <i name="e_fr_energy">    -35.91868286 </i>
    <i name="e_wo_entrp">    -35.91868286 </i>
    <i name="e_0_energy">    -35.91868286 </i>
   </energy>
  </scstep>
  <scstep>
   <time name="dav">    2.34    1.17</time>
   <time name="total">    2.81    1.53</time>
   <energy>
    <i name="e_fr_energy">    -35.91360873 </i>
    <i name="e_wo_entrp">    -35.91360873 </i>
    <i name="e_0_energy">    -35.91360873 </i>
   </energy>
  </scstep>
  <scstep>
   <time name="dav">    2.71    1.36</time>
   <time name="total">    3.19    1.72</time>
   <energy>
    <i name="e_fr_energy">    -35.91364234 </i>
    <i name="e_wo_entrp">    -35.91364234 </i>
    <i name="e_0_energy">    -35.91364234 </i>
   </energy>
  </scstep>
  <scstep>
   <time name="dav">    2.35    1.18</time>
   <time name="total">    2.82    1.54</time>
   <energy>
    <i name="e_fr_energy">    -35.91364513 </i>
    <i name="e_wo_entrp">    -35.91364513 </i>
    <i name="e_0_energy">    -35.91364513 </i>
   </energy>
  </scstep>
  <scstep>
   <time name="dav">    2.61    1.31</time>
   <time name="total">    3.10    1.68</time>
   <energy>
    <i name="e_fr_energy">    -35.91365839 </i>
    <i name="e_wo_entrp">    -35.91365839 </i>
    <i name="e_0_energy">    -35.91365839 </i>
   </energy>
  </scstep>
  <scstep>
   <time name="dav">    2.21    1.11</time>
   <time name="total">    2.65    1.47</time>
   <energy>
    <i name="e_fr_energy">    -35.91365673 </i>
    <i name="e_wo_entrp">    -35.91365673 </i>
    <i name="e_0_energy">    -35.91365673 </i>
   </energy>
  </scstep>
  <scstep>
   <time name="dav">    2.73    1.37</time>
   <time name="total">    3.20    1.73</time>
   <energy>
    <i name="e_fr_energy">    -35.91365668 </i>
    <i name="e_wo_entrp">    -35.91365668 </i>
    <i name="e_0_energy">    -35.91365668 </i>
   </energy>
  </scstep>
  <scstep>
   <time name="dav">    2.32    1.17</time>
   <time name="total">    2.80    1.52</time>
   <energy>
    <i name="e_fr_energy">    -35.91365670 </i>
    <i name="e_wo_entrp">    -35.91365670 </i>
    <i name="e_0_energy">    -35.91365670 </i>
   </energy>
  </scstep>
  <scstep>
   <time name="dav">    2.29    1.15</time>
   <time name="total">    2.75    1.51</time>
   <energy>
    <i name="e_fr_energy">    -35.91365664 </i>
    <i name="e_wo_entrp">    -35.91365664 </i>
    <i name="e_0_energy">    -35.91365664 </i>
   </energy>
  </scstep>
  <scstep>
   <time name="dav">    1.82    0.91</time>
   <time name="total">    2.31    1.28</time>
   <energy>
    <i name="e_fr_energy">    -35.91365662 </i>
    <i name="e_wo_entrp">    -35.91365662 </i>
    <i name="e_0_energy">    -35.91365662 </i>
   </energy>
  </scstep>
  <scstep>
   <time name="dav">    1.89    0.95</time>
   <time name="total">    2.13    1.20</time>
   <energy>
    <i name="alphaZ">    217.43841536 </i>
    <i name="ewald">  -6082.71722399 </i>
    <i name="hartreedc">  -2303.87038760 </i>
    <i name="XCdc">    230.43078828 </i>
    <i name="pawpsdc">   8471.61187684 </i>
    <i name="pawaedc">  -8567.51088866 </i>
    <i name="eentropy">     -0.00000000 </i>
    <i name="bandstr">   -599.49781913 </i>
    <i name="atom">   8598.20158228 </i>
    <i name="e_fr_energy">    -35.91365663 </i>
    <i name="e_wo_entrp">    -35.91365663 </i>
    <i name="e_0_energy">    -35.91365663 </i>
   </energy>
  </scstep>
  <structure>
   <crystal>
    <varray name="basis" >
     <v>       4.34539863       0.00000000       0.00000000 </v>
     <v>       0.00000000       4.11936655       0.00000000 </v>
     <v>       0.00000000       0.00000000      11.35478920 </v>
    </varray>
    <i name="volume">    203.25401695 </i>
    <varray name="rec_basis" >
     <v>       0.23012848       0.00000000       0.00000000 </v>
     <v>       0.00000000       0.24275577       0.00000000 </v>
     <v>       0.00000000       0.00000000       0.08806857 </v>
    </varray>
   </crystal>
   <varray name="positions" >
    <v>       0.09950946       0.25000000       0.11536932 </v>
    <v>       0.40143685       0.25000000       0.61542490 </v>
    <v>       0.59856315       0.75000000       0.38457510 </v>
    <v>       0.90049054       0.75000000       0.88463068 </v>
    <v>       0.02716720       0.25000000       0.35686642 </v>
    <v>       0.47506616       0.25000000       0.85664290 </v>
    <v>       0.52493384       0.75000000       0.14335710 </v>
    <v>       0.97283280       0.75000000       0.64313358 </v>
   </varray>
  </structure>
  <varray name="forces" >
   <v>      -0.02714021       0.00000000       0.00664327 </v>
   <v>      -0.01124036       0.00000000       0.00076163 </v>
   <v>       0.01124036      -0.00000000      -0.00076163 </v>
   <v>       0.02714021       0.00000000      -0.00664327 </v>
   <v>      -0.03344603       0.00000000      -0.01072947 </v>
   <v>      -0.02680296      -0.00000000       0.00505155 </v>
   <v>       0.02680296       0.00000000      -0.00505155 </v>
   <v>       0.03344603       0.00000000       0.01072947 </v>
  </varray>
  <varray name="stress" >
   <v>       0.00852934       0.00000000       0.06912018 </v>
   <v>       0.00000000       0.04740418       0.00000000 </v>
   <v>       0.06912012       0.00000000      -0.50839562 </v>
  </varray>
  <energy>
   <i name="e_fr_energy">    -37.43153585 </i>
   <i name="e_wo_entrp">    -37.43153585 </i>
   <i name="e_0_energy">    -37.43153585 </i>
  </energy>
  <scstep>
   <time name="total">    1.21    0.62</time>
   <energy>
    <i name="e_fr_energy">   -132.64578634 </i>
    <i name="e_wo_entrp">   -132.64578634 </i>
    <i name="e_0_energy">   -132.64578634 </i>
   </energy>
  </scstep>
  <scstep>
   <time name="total">    1.59    0.84</time>
   <energy>
    <i name="e_fr_energy">   -259.13535065 </i>
    <i name="e_wo_entrp">   -259.13535065 </i>
    <i name="e_0_energy">   -259.13535065 </i>
   </energy>
  </scstep>
  <scstep>
   <time name="total">    1.63    0.88</time>
   <energy>
    <i name="e_fr_energy">   -259.92546967 </i>
    <i name="e_wo_entrp">   -259.92546967 </i>
    <i name="e_0_energy">   -259.92546967 </i>
   </energy>
  </scstep>
  <scstep>
   <time name="total">    1.34    0.74</time>
   <energy>
    <i name="e_fr_energy">   -260.12200662 </i>
    <i name="e_wo_entrp">   -260.12200662 </i>
    <i name="e_0_energy">   -260.12200662 </i>
   </energy>
  </scstep>
  <scstep>
   <time name="total">    1.38    0.75</time>
   <energy>
    <i name="e_fr_energy">   -260.12182336 </i>
    <i name="e_wo_entrp">   -260.12182336 </i>
    <i name="e_0_energy">   -260.12182336 </i>
   </energy>
  </scstep>
  <scstep>
   <time name="total">    1.40    0.75</time>
   <energy>
    <i name="e_fr_energy">   -260.12345865 </i>
    <i name="e_wo_entrp">   -260.12345865 </i>
    <i name="e_0_energy">   -260.12345865 </i>
   </energy>
  </scstep>
  <scstep>
   <time name="total">    1.63    0.84</time>
   <energy>
    <i name="e_fr_energy">   -260.12431395 </i>
    <i name="e_wo_entrp">   -260.12431395 </i>
    <i name="e_0_energy">   -260.12431395 </i>
   </energy>
  </scstep>
  <scstep>
   <time name="total">    1.68    0.85</time>
   <energy>
    <i name="e_fr_energy">   -260.12387982 </i>
    <i name="e_wo_entrp">   -260.12387982 </i>
    <i name="e_0_energy">   -260.12387982 </i>
   </energy>
  </scstep>
  <scstep>
   <time name="total">    1.68    0.84</time>
   <energy>
    <i name="e_fr_energy">   -260.12456039 </i>
    <i name="e_wo_entrp">   -260.12456039 </i>
    <i name="e_0_energy">   -260.12456039 </i>
   </energy>
  </scstep>
  <scstep>
   <time name="total">    1.62    0.83</time>
   <energy>
    <i name="e_fr_energy">   -260.12466279 </i>
    <i name="e_wo_entrp">   -260.12466279 </i>
    <i name="e_0_energy">   -260.12466279 </i>
   </energy>
  </scstep>
  <scstep>
   <time name="total">    1.59    0.82</time>
   <energy>
    <i name="e_fr_energy">   -260.12446216 </i>
    <i name="e_wo_entrp">   -260.12446216 </i>
    <i name="e_0_energy">   -260.12446216 </i>
   </energy>
  </scstep>
  <scstep>
   <time name="total">    1.53    0.80</time>
   <energy>
    <i name="e_fr_energy">   -260.12445878 </i>
    <i name="e_wo_entrp">   -260.12445878 </i>
    <i name="e_0_energy">   -260.12445878 </i>
   </energy>
  </scstep>
  <scstep>
   <time name="total">    1.49    0.76</time>
   <energy>
    <i name="e_fr_energy">   -260.12444656 </i>
    <i name="e_wo_entrp">   -260.12444656 </i>
    <i name="e_0_energy">   -260.12444656 </i>
   </energy>
  </scstep>
  <scstep>
   <time name="total">    1.18    0.60</time>
   <energy>
    <i name="e_fr_energy">   -129.98235739 </i>
    <i name="e_wo_entrp">   -129.98235739 </i>
    <i name="e_0_energy">   -129.98235739 </i>
   </energy>
  </scstep>
  <scstep>
   <time name="total">    1.60    0.83</time>
   <energy>
    <i name="e_fr_energy">   -259.00390631 </i>
    <i name="e_wo_entrp">   -259.00390631 </i>
    <i name="e_0_energy">   -259.00390631 </i>
   </energy>
  </scstep>
  <scstep>
   <time name="total">    1.61    0.85</time>
   <energy>
    <i name="e_fr_energy">   -259.82196926 </i>
    <i name="e_wo_entrp">   -259.82196926 </i>
    <i name="e_0_energy">   -259.82196926 </i>
   </energy>
  </scstep>
  <scstep>
   <time name="total">    1.33    0.70</time>
   <energy>
    <i name="e_fr_energy">   -259.96181081 </i>
    <i name="e_wo_entrp">   -259.96181081 </i>
    <i name="e_0_energy">   -259.96181081 </i>
   </energy>
  </scstep>
  <scstep>
   <time name="total">    1.40    0.74</time>
   <energy>
    <i name="e_fr_energy">   -259.97338694 </i>
    <i name="e_wo_entrp">   -259.97338694 </i>
    <i name="e_0_energy">   -259.97338694 </i>
   </energy>
  </scstep>
  <scstep>
   <time name="total">    1.47    0.75</time>
   <energy>
    <i name="e_fr_energy">   -259.97665554 </i>
    <i name="e_wo_entrp">   -259.97665554 </i>
    <i name="e_0_energy">   -259.97665554 </i>
   </energy>
  </scstep>
  <scstep>
   <time name="total">    1.56    0.78</time>
   <energy>
    <i name="e_fr_energy">   -259.97666169 </i>
    <i name="e_wo_entrp">   -259.97666169 </i>
    <i name="e_0_energy">   -259.97666169 </i>
   </energy>
  </scstep>
  <scstep>
   <time name="total">    1.62    0.81</time>
   <energy>
    <i name="e_fr_energy">   -259.97664014 </i>
    <i name="e_wo_entrp">   -259.97664014 </i>
    <i name="e_0_energy">   -259.97664014 </i>
   </energy>
  </scstep>
  <scstep>
   <time name="total">    1.59    0.80</time>
   <energy>
    <i name="e_fr_energy">   -259.97662892 </i>
    <i name="e_wo_entrp">   -259.97662892 </i>
    <i name="e_0_energy">   -259.97662892 </i>
   </energy>
  </scstep>
  <scstep>
   <time name="total">    1.55    0.78</time>
   <energy>
    <i name="e_fr_energy">   -259.97662884 </i>
    <i name="e_wo_entrp">   -259.97662884 </i>
    <i name="e_0_energy">   -259.97662884 </i>
   </energy>
  </scstep>
  <scstep>
   <time name="total">    1.52    0.76</time>
   <energy>
    <i name="e_fr_energy">   -259.97661461 </i>
    <i name="e_wo_entrp">   -259.97661461 </i>
    <i name="e_0_energy">   -259.97661461 </i>
   </energy>
  </scstep>
  <scstep>
   <time name="total">    1.46    0.73</time>
   <energy>
    <i name="e_fr_energy">   -259.97660642 </i>
    <i name="e_wo_entrp">   -259.97660642 </i>
    <i name="e_0_energy">   -259.97660642 </i>
   </energy>
  </scstep>
  <scstep>
   <time name="total">    1.43    0.72</time>
   <energy>
    <i name="e_fr_energy">   -259.97663392 </i>
    <i name="e_wo_entrp">   -259.97663392 </i>
    <i name="e_0_energy">   -259.97663392 </i>
   </energy>
  </scstep>
  <scstep>
   <time name="total">    1.15    0.58</time>
   <energy>
    <i name="e_fr_energy">   -129.34401217 </i>
    <i name="e_wo_entrp">   -129.34401217 </i>
    <i name="e_0_energy">   -129.34401217 </i>
   </energy>
  </scstep>
  <scstep>
   <time name="total">    1.57    0.82</time>
   <energy>
    <i name="e_fr_energy">   -263.67962015 </i>
    <i name="e_wo_entrp">   -263.67962015 </i>
    <i name="e_0_energy">   -263.67962015 </i>
   </energy>
  </scstep>
  <scstep>
   <time name="total">    1.55    0.85</time>
   <energy>
    <i name="e_fr_energy">   -264.69090789 </i>
    <i name="e_wo_entrp">   -264.69090789 </i>
    <i name="e_0_energy">   -264.69090789 </i>
   </energy>
  </scstep>
  <scstep>
   <time name="total">    1.32    0.72</time>
   <energy>
    <i name="e_fr_energy">   -264.98210337 </i>
    <i name="e_wo_entrp">   -264.98210337 </i>
    <i name="e_0_energy">   -264.98210337 </i>
   </energy>
  </scstep>
  <scstep>
   <time name="total">    1.38    0.74</time>
   <energy>
    <i name="e_fr_energy">   -264.98547001 </i>
    <i name="e_wo_entrp">   -264.98547001 </i>
    <i name="e_0_energy">   -264.98547001 </i>
   </energy>
  </scstep>
  <scstep>
   <time name="total">    1.46    0.78</time>
   <energy>
    <i name="e_fr_energy">   -264.98941029 </i>
    <i name="e_wo_entrp">   -264.98941029 </i>
    <i name="e_0_energy">   -264.98941029 </i>
   </energy>
  </scstep>
  <scstep>
   <time name="total">    1.59    0.81</time>
   <energy>
    <i name="e_fr_energy">   -264.98965979 </i>
    <i name="e_wo_entrp">   -264.98965979 </i>
    <i name="e_0_energy">   -264.98965979 </i>
   </energy>
  </scstep>
  <scstep>
   <time name="total">    1.66    0.83</time>
   <energy>
    <i name="e_fr_energy">   -264.98961098 </i>
    <i name="e_wo_entrp">   -264.98961098 </i>
    <i name="e_0_energy">   -264.98961098 </i>
   </energy>
  </scstep>
  <scstep>
   <time name="total">    1.63    0.83</time>
   <energy>
    <i name="e_fr_energy">   -264.98958499 </i>
    <i name="e_wo_entrp">   -264.98958499 </i>
    <i name="e_0_energy">   -264.98958499 </i>
   </energy>
  </scstep>
  <scstep>
   <time name="total">    1.62    0.82</time>
   <energy>
    <i name="e_fr_energy">   -264.98962814 </i>
    <i name="e_wo_entrp">   -264.98962814 </i>
    <i name="e_0_energy">   -264.98962814 </i>
   </energy>
  </scstep>
  <scstep>
   <time name="total">    1.57    0.81</time>
   <energy>
    <i name="e_fr_energy">   -264.98960803 </i>
    <i name="e_wo_entrp">   -264.98960803 </i>
    <i name="e_0_energy">   -264.98960803 </i>
   </energy>
  </scstep>
  <scstep>
   <time name="total">    1.52    0.78</time>
   <energy>
    <i name="e_fr_energy">   -264.98960718 </i>
    <i name="e_wo_entrp">   -264.98960718 </i>
    <i name="e_0_energy">   -264.98960718 </i>
   </energy>
  </scstep>
  <scstep>
   <time name="total">    1.52    0.78</time>
   <energy>
    <i name="e_fr_energy">   -264.98960128 </i>
    <i name="e_wo_entrp">   -264.98960128 </i>
    <i name="e_0_energy">   -264.98960128 </i>
   </energy>
  </scstep>
  <scstep>
   <time name="total">    1.83    1.21</time>
   <energy>
    <i name="e_fr_energy">     -2.31641823 </i>
    <i name="e_wo_entrp">     -2.31641823 </i>
    <i name="e_0_energy">     -2.31641823 </i>
   </energy>
  </scstep>
  <scstep>
   <time name="total">    2.24    1.35</time>
   <energy>
    <i name="e_fr_energy">    -13.87067577 </i>
    <i name="e_wo_entrp">    -13.87067577 </i>
    <i name="e_0_energy">    -13.87067577 </i>
   </energy>
  </scstep>
  <scstep>
   <time name="total">    2.31    1.40</time>
   <energy>
    <i name="e_fr_energy">    -13.94471915 </i>
    <i name="e_wo_entrp">    -13.94471915 </i>
    <i name="e_0_energy">    -13.94471915 </i>
   </energy>
  </scstep>
  <scstep>
   <time name="total">    2.33    1.42</time>
   <energy>
    <i name="e_fr_energy">    -13.94515265 </i>
    <i name="e_wo_entrp">    -13.94515265 </i>
    <i name="e_0_energy">    -13.94515265 </i>
   </energy>
  </scstep>
  <scstep>
   <time name="total">    2.34    1.44</time>
   <energy>
    <i name="e_fr_energy">    -13.94524356 </i>
    <i name="e_wo_entrp">    -13.94524356 </i>
    <i name="e_0_energy">    -13.94524356 </i>
   </energy>
  </scstep>
  <scstep>
   <time name="total">    2.33    1.42</time>
   <energy>
    <i name="e_fr_energy">    -13.94524759 </i>
    <i name="e_wo_entrp">    -13.94524759 </i>
    <i name="e_0_energy">    -13.94524759 </i>
   </energy>
  </scstep>
  <scstep>
   <time name="total">    2.41    1.46</time>
   <energy>
    <i name="e_fr_energy">    -13.94524887 </i>
    <i name="e_wo_entrp">    -13.94524887 </i>
    <i name="e_0_energy">    -13.94524887 </i>
   </energy>
  </scstep>
  <scstep>
   <time name="total">    2.49    1.45</time>
   <energy>
    <i name="e_fr_energy">    -13.94524898 </i>
    <i name="e_wo_entrp">    -13.94524898 </i>
    <i name="e_0_energy">    -13.94524898 </i>
   </energy>
  </scstep>
  <scstep>
   <time name="total">    2.47    1.44</time>
   <energy>
    <i name="e_fr_energy">    -13.94524900 </i>
    <i name="e_wo_entrp">    -13.94524900 </i>
    <i name="e_0_energy">    -13.94524900 </i>
   </energy>
  </scstep>
  <scstep>
   <time name="total">    2.56    1.50</time>
   <energy>
    <i name="e_fr_energy">    -13.94524901 </i>
    <i name="e_wo_entrp">    -13.94524901 </i>
    <i name="e_0_energy">    -13.94524901 </i>
   </energy>
  </scstep>
  <scstep>
   <time name="total">    1.80    1.19</time>
   <energy>
    <i name="e_fr_energy">     -3.74883292 </i>
    <i name="e_wo_entrp">     -3.74883292 </i>
    <i name="e_0_energy">     -3.74883292 </i>
   </energy>
  </scstep>
  <scstep>
   <time name="total">    2.30    1.39</time>
   <energy>
    <i name="e_fr_energy">    -16.78088927 </i>
    <i name="e_wo_entrp">    -16.78088927 </i>
    <i name="e_0_energy">    -16.78088927 </i>
   </energy>
  </scstep>
  <scstep>
   <time name="total">    2.31    1.40</time>
   <energy>
    <i name="e_fr_energy">    -16.86511749 </i>
    <i name="e_wo_entrp">    -16.86511749 </i>
    <i name="e_0_energy">    -16.86511749 </i>
   </energy>
  </scstep>
  <scstep>
   <time name="total">    2.32    1.43</time>
   <energy>
    <i name="e_fr_energy">    -16.86554829 </i>
    <i name="e_wo_entrp">    -16.86554829 </i>
    <i name="e_0_energy">    -16.86554829 </i>
   </energy>
  </scstep>
  <scstep>
   <time name="total">    2.35    1.42</time>
   <energy>
    <i name="e_fr_energy">    -16.86562662 </i>
    <i name="e_wo_entrp">    -16.86562662 </i>
    <i name="e_0_energy">    -16.86562662 </i>
   </energy>
  </scstep>
  <scstep>
   <time name="total">    2.34    1.44</time>
   <energy>
    <i name="e_fr_energy">    -16.86562991 </i>
    <i name="e_wo_entrp">    -16.86562991 </i>
    <i name="e_0_energy">    -16.86562991 </i>
   </energy>
  </scstep>
  <scstep>
   <time name="total">    2.39    1.45</time>
   <energy>
    <i name="e_fr_energy">    -16.86563123 </i>
    <i name="e_wo_entrp">    -16.86563123 </i>
    <i name="e_0_energy">    -16.86563123 </i>
   </energy>
  </scstep>
  <scstep>
   <time name="total">    2.41    1.41</time>
   <energy>
    <i name="e_fr_energy">    -16.86563133 </i>
    <i name="e_wo_entrp">    -16.86563133 </i>
    <i name="e_0_energy">    -16.86563133 </i>
   </energy>
  </scstep>
  <scstep>
   <time name="total">    2.47    1.44</time>
   <energy>
    <i name="e_fr_energy">    -16.86563135 </i>
    <i name="e_wo_entrp">    -16.86563135 </i>
    <i name="e_0_energy">    -16.86563135 </i>
   </energy>
  </scstep>
  <scstep>
   <time name="total">    2.48    1.45</time>
   <energy>
    <i name="e_fr_energy">    -16.86563135 </i>
    <i name="e_wo_entrp">    -16.86563135 </i>
    <i name="e_0_energy">    -16.86563135 </i>
   </energy>
  </scstep>
  <scstep>
   <time name="total">    2.46    1.44</time>
   <energy>
    <i name="e_fr_energy">    -16.86563135 </i>
    <i name="e_wo_entrp">    -16.86563135 </i>
    <i name="e_0_energy">    -16.86563135 </i>
   </energy>
  </scstep>
  <scstep>
   <time name="total">    2.45    1.43</time>
   <energy>
    <i name="e_fr_energy">    -16.86563135 </i>
    <i name="e_wo_entrp">    -16.86563135 </i>
    <i name="e_0_energy">    -16.86563135 </i>
   </energy>
  </scstep>
  <scstep>
   <time name="total">    2.37    1.39</time>
   <energy>
    <i name="e_fr_energy">    -16.86563135 </i>
    <i name="e_wo_entrp">    -16.86563135 </i>
    <i name="e_0_energy">    -16.86563135 </i>
   </energy>
  </scstep>
  <scstep>
   <time name="total">    2.39    1.40</time>
   <energy>
    <i name="e_fr_energy">    -16.86563135 </i>
    <i name="e_wo_entrp">    -16.86563135 </i>
    <i name="e_0_energy">    -16.86563135 </i>
   </energy>
  </scstep>
  <scstep>
   <time name="total">    1.87    1.22</time>
   <energy>
    <i name="e_fr_energy">     -4.12328786 </i>
    <i name="e_wo_entrp">     -4.12328786 </i>
    <i name="e_0_energy">     -4.12328786 </i>
   </energy>
  </scstep>
  <scstep>
   <time name="total">    2.30    1.41</time>
   <energy>
    <i name="e_fr_energy">    -15.58041004 </i>
    <i name="e_wo_entrp">    -15.58041004 </i>
    <i name="e_0_energy">    -15.58041004 </i>
   </energy>
  </scstep>
  <scstep>
   <time name="total">    2.37    1.44</time>
   <energy>
    <i name="e_fr_energy">    -15.64349099 </i>
    <i name="e_wo_entrp">    -15.64349099 </i>
    <i name="e_0_energy">    -15.64349099 </i>
   </energy>
  </scstep>
  <scstep>
   <time name="total">    2.33    1.43</time>
   <energy>
    <i name="e_fr_energy">    -15.64389936 </i>
    <i name="e_wo_entrp">    -15.64389936 </i>
    <i name="e_0_energy">    -15.64389936 </i>
   </energy>
  </scstep>
  <scstep>
   <time name="total">    2.32    1.40</time>
   <energy>
    <i name="e_fr_energy">    -15.64399889 </i>
    <i name="e_wo_entrp">    -15.64399889 </i>
    <i name="e_0_energy">    -15.64399889 </i>
   </energy>
  </scstep>
  <scstep>
   <time name="total">    2.39    1.44</time>
   <energy>
    <i name="e_fr_energy">    -15.64400259 </i>
    <i name="e_wo_entrp">    -15.64400259 </i>
    <i name="e_0_energy">    -15.64400259 </i>
   </energy>
  </scstep>
  <scstep>
   <time name="total">    2.37    1.42</time>
   <energy>
    <i name="e_fr_energy">    -15.64400424 </i>
    <i name="e_wo_entrp">    -15.64400424 </i>
    <i name="e_0_energy">    -15.64400424 </i>
   </energy>
  </scstep>
  <scstep>
   <time name="total">    2.44    1.44</time>
   <energy>
    <i name="e_fr_energy">    -15.64400435 </i>
    <i name="e_wo_entrp">    -15.64400435 </i>
    <i name="e_0_energy">    -15.64400435 </i>
   </energy>
  </scstep>
  <scstep>
   <time name="total">    2.49    1.45</time>
   <energy>
    <i name="e_fr_energy">    -15.64400439 </i>
    <i name="e_wo_entrp">    -15.64400439 </i>
    <i name="e_0_energy">    -15.64400439 </i>
   </energy>
  </scstep>
  <scstep>
   <time name="total">    2.42    1.42</time>
   <energy>
    <i name="e_fr_energy">    -15.64400439 </i>
    <i name="e_wo_entrp">    -15.64400439 </i>
    <i name="e_0_energy">    -15.64400439 </i>
   </energy>
  </scstep>
  <scstep>
   <time name="total">    2.43    1.42</time>
   <energy>
    <i name="e_fr_energy">    -15.64400438 </i>
    <i name="e_wo_entrp">    -15.64400438 </i>
    <i name="e_0_energy">    -15.64400438 </i>
   </energy>
  </scstep>
  <scstep>
   <time name="total">    2.41    1.41</time>
   <energy>
    <i name="e_fr_energy">    -15.64400438 </i>
    <i name="e_wo_entrp">    -15.64400438 </i>
    <i name="e_0_energy">    -15.64400438 </i>
   </energy>
  </scstep>
  <scstep>
   <time name="total">    2.35    1.38</time>
   <energy>
    <i name="e_fr_energy">    -15.64400439 </i>
    <i name="e_wo_entrp">    -15.64400439 </i>
    <i name="e_0_energy">    -15.64400439 </i>
   </energy>
  </scstep>
  <scstep>
   <time name="total">    2.34    1.38</time>
   <energy>
    <i name="e_fr_energy">    -15.64400439 </i>
    <i name="e_wo_entrp">    -15.64400439 </i>
    <i name="e_0_energy">    -15.64400439 </i>
   </energy>
  </scstep>
  <scstep>
   <time name="total">    2.37    1.39</time>
   <energy>
    <i name="e_fr_energy">    -15.64400440 </i>
    <i name="e_wo_entrp">    -15.64400440 </i>
    <i name="e_0_energy">    -15.64400440 </i>
   </energy>
  </scstep>
  <scstep>
   <time name="total">    2.40    1.41</time>
   <energy>
    <i name="e_fr_energy">    -15.64400440 </i>
    <i name="e_wo_entrp">    -15.64400440 </i>
    <i name="e_0_energy">    -15.64400440 </i>
   </energy>
  </scstep>
  <varray name="dielectric_ipa" >
   <v>      25.83036278       0.00000000       0.05129322 </v>
   <v>       0.00000000      31.03028122       0.00000000 </v>
   <v>       0.05129361       0.00000000      28.85510010 </v>
  </varray>
  <kpoints>
   <generation param="Gamma">
    <v type="int" name="divisions">       8        9        3 </v>
    <v name="usershift">      0.00000000       0.00000000       0.00000000 </v>
    <v name="genvec1">      0.12500000       0.00000000       0.00000000 </v>
    <v name="genvec2">      0.00000000       0.11111111       0.00000000 </v>
    <v name="genvec3">      0.00000000       0.00000000       0.33333333 </v>
    <v name="shift">      0.00000000       0.00000000       0.00000000 </v>
   </generation>
   <varray name="kpointlist" >
    <v>       0.00000000       0.00000000       0.00000000 </v>
    <v>       0.12500000       0.00000000       0.00000000 </v>
    <v>       0.25000000       0.00000000       0.00000000 </v>
    <v>       0.37500000       0.00000000       0.00000000 </v>
    <v>       0.50000000       0.00000000       0.00000000 </v>
    <v>       0.00000000       0.11111111       0.00000000 </v>
    <v>       0.12500000       0.11111111       0.00000000 </v>
    <v>       0.25000000       0.11111111       0.00000000 </v>
    <v>       0.37500000       0.11111111       0.00000000 </v>
    <v>       0.50000000       0.11111111       0.00000000 </v>
    <v>       0.00000000       0.22222222       0.00000000 </v>
    <v>       0.12500000       0.22222222       0.00000000 </v>
    <v>       0.25000000       0.22222222       0.00000000 </v>
    <v>       0.37500000       0.22222222       0.00000000 </v>
    <v>       0.50000000       0.22222222       0.00000000 </v>
    <v>       0.00000000       0.33333333       0.00000000 </v>
    <v>       0.12500000       0.33333333       0.00000000 </v>
    <v>       0.25000000       0.33333333       0.00000000 </v>
    <v>       0.37500000       0.33333333       0.00000000 </v>
    <v>       0.50000000       0.33333333       0.00000000 </v>
    <v>       0.00000000       0.44444444       0.00000000 </v>
    <v>       0.12500000       0.44444444       0.00000000 </v>
    <v>       0.25000000       0.44444444       0.00000000 </v>
    <v>       0.37500000       0.44444444       0.00000000 </v>
    <v>       0.50000000       0.44444444       0.00000000 </v>
    <v>       0.00000000       0.00000000       0.33333333 </v>
    <v>       0.12500000       0.00000000       0.33333333 </v>
    <v>       0.12500000       0.00000000      -0.33333333 </v>
    <v>       0.25000000       0.00000000       0.33333333 </v>
    <v>       0.25000000       0.00000000      -0.33333333 </v>
    <v>       0.37500000       0.00000000       0.33333333 </v>
    <v>       0.37500000       0.00000000      -0.33333333 </v>
    <v>       0.50000000       0.00000000       0.33333333 </v>
    <v>       0.00000000       0.11111111       0.33333333 </v>
    <v>       0.12500000       0.11111111       0.33333333 </v>
    <v>       0.12500000      -0.11111111      -0.33333333 </v>
    <v>       0.25000000       0.11111111       0.33333333 </v>
    <v>       0.25000000      -0.11111111      -0.33333333 </v>
    <v>       0.37500000       0.11111111       0.33333333 </v>
    <v>       0.37500000      -0.11111111      -0.33333333 </v>
    <v>       0.50000000       0.11111111       0.33333333 </v>
    <v>       0.00000000       0.22222222       0.33333333 </v>
    <v>       0.12500000       0.22222222       0.33333333 </v>
    <v>       0.12500000      -0.22222222      -0.33333333 </v>
    <v>       0.25000000       0.22222222       0.33333333 </v>
    <v>       0.25000000      -0.22222222      -0.33333333 </v>
    <v>       0.37500000       0.22222222       0.33333333 </v>
    <v>       0.37500000      -0.22222222      -0.33333333 </v>
    <v>       0.50000000       0.22222222       0.33333333 </v>
    <v>       0.00000000       0.33333333       0.33333333 </v>
    <v>       0.12500000       0.33333333       0.33333333 </v>
    <v>       0.12500000      -0.33333333      -0.33333333 </v>
    <v>       0.25000000       0.33333333       0.33333333 </v>
    <v>       0.25000000      -0.33333333      -0.33333333 </v>
    <v>       0.37500000       0.33333333       0.33333333 </v>
    <v>       0.37500000      -0.33333333      -0.33333333 </v>
    <v>       0.50000000       0.33333333       0.33333333 </v>
    <v>       0.00000000       0.44444444       0.33333333 </v>
    <v>       0.12500000       0.44444444       0.33333333 </v>
    <v>       0.12500000      -0.44444444      -0.33333333 </v>
    <v>       0.25000000       0.44444444       0.33333333 </v>
    <v>       0.25000000      -0.44444444      -0.33333333 </v>
    <v>       0.37500000       0.44444444       0.33333333 </v>
    <v>       0.37500000      -0.44444444      -0.33333333 </v>
    <v>       0.50000000       0.44444444       0.33333333 </v>
   </varray>
   <varray name="weights" >
    <v>       0.00462963 </v>
    <v>       0.00925926 </v>
    <v>       0.00925926 </v>
    <v>       0.00925926 </v>
    <v>       0.00462963 </v>
    <v>       0.00925926 </v>
    <v>       0.01851852 </v>
    <v>       0.01851852 </v>
    <v>       0.01851852 </v>
    <v>       0.00925926 </v>
    <v>       0.00925926 </v>
    <v>       0.01851852 </v>
    <v>       0.01851852 </v>
    <v>       0.01851852 </v>
    <v>       0.00925926 </v>
    <v>       0.00925926 </v>
    <v>       0.01851852 </v>
    <v>       0.01851852 </v>
    <v>       0.01851852 </v>
    <v>       0.00925926 </v>
    <v>       0.00925926 </v>
    <v>       0.01851852 </v>
    <v>       0.01851852 </v>
    <v>       0.01851852 </v>
    <v>       0.00925926 </v>
    <v>       0.00925926 </v>
    <v>       0.00925926 </v>
    <v>       0.00925926 </v>
    <v>       0.00925926 </v>
    <v>       0.00925926 </v>
    <v>       0.00925926 </v>
    <v>       0.00925926 </v>
    <v>       0.00925926 </v>
    <v>       0.01851852 </v>
    <v>       0.01851852 </v>
    <v>       0.01851852 </v>
    <v>       0.01851852 </v>
    <v>       0.01851852 </v>
    <v>       0.01851852 </v>
    <v>       0.01851852 </v>
    <v>       0.01851852 </v>
    <v>       0.01851852 </v>
    <v>       0.01851852 </v>
    <v>       0.01851852 </v>
    <v>       0.01851852 </v>
    <v>       0.01851852 </v>
    <v>       0.01851852 </v>
    <v>       0.01851852 </v>
    <v>       0.01851852 </v>
    <v>       0.01851852 </v>
    <v>       0.01851852 </v>
    <v>       0.01851852 </v>
    <v>       0.01851852 </v>
    <v>       0.01851852 </v>
    <v>       0.01851852 </v>
    <v>       0.01851852 </v>
    <v>       0.01851852 </v>
    <v>       0.01851852 </v>
    <v>       0.01851852 </v>
    <v>       0.01851852 </v>
    <v>       0.01851852 </v>
    <v>       0.01851852 </v>
    <v>       0.01851852 </v>
    <v>       0.01851852 </v>
    <v>       0.01851852 </v>
   </varray>
  </kpoints>
  <scstep>
   <time name="total">    1.82    1.20</time>
   <energy>
    <i name="e_fr_energy">     -2.31641824 </i>
    <i name="e_wo_entrp">     -2.31641824 </i>
    <i name="e_0_energy">     -2.31641824 </i>
   </energy>
  </scstep>
  <scstep>
   <time name="total">    2.54    1.52</time>
   <energy>
    <i name="e_fr_energy">    -13.87067573 </i>
    <i name="e_wo_entrp">    -13.87067573 </i>
    <i name="e_0_energy">    -13.87067573 </i>
   </energy>
  </scstep>
  <scstep>
   <time name="total">    2.45    1.54</time>
   <energy>
    <i name="e_fr_energy">    -13.35429243 </i>
    <i name="e_wo_entrp">    -13.35429243 </i>
    <i name="e_0_energy">    -13.35429243 </i>
   </energy>
  </scstep>
  <scstep>
   <time name="total">    2.45    1.56</time>
   <energy>
    <i name="e_fr_energy">    -13.52116657 </i>
    <i name="e_wo_entrp">    -13.52116657 </i>
    <i name="e_0_energy">    -13.52116657 </i>
   </energy>
  </scstep>
  <scstep>
   <time name="total">    2.51    1.57</time>
   <energy>
    <i name="e_fr_energy">    -13.71772558 </i>
    <i name="e_wo_entrp">    -13.71772558 </i>
    <i name="e_0_energy">    -13.71772558 </i>
   </energy>
  </scstep>
  <scstep>
   <time name="total">    2.59    1.58</time>
   <energy>
    <i name="e_fr_energy">    -13.76985430 </i>
    <i name="e_wo_entrp">    -13.76985430 </i>
    <i name="e_0_energy">    -13.76985430 </i>
   </energy>
  </scstep>
  <scstep>
   <time name="total">    2.65    1.61</time>
   <energy>
    <i name="e_fr_energy">    -13.78264976 </i>
    <i name="e_wo_entrp">    -13.78264976 </i>
    <i name="e_0_energy">    -13.78264976 </i>
   </energy>
  </scstep>
  <scstep>
   <time name="total">    2.63    1.60</time>
   <energy>
    <i name="e_fr_energy">    -13.78283247 </i>
    <i name="e_wo_entrp">    -13.78283247 </i>
    <i name="e_0_energy">    -13.78283247 </i>
   </energy>
  </scstep>
  <scstep>
   <time name="total">    2.74    1.65</time>
   <energy>
    <i name="e_fr_energy">    -13.79263558 </i>
    <i name="e_wo_entrp">    -13.79263558 </i>
    <i name="e_0_energy">    -13.79263558 </i>
   </energy>
  </scstep>
  <scstep>
   <time name="total">    2.68    1.62</time>
   <energy>
    <i name="e_fr_energy">    -13.78242632 </i>
    <i name="e_wo_entrp">    -13.78242632 </i>
    <i name="e_0_energy">    -13.78242632 </i>
   </energy>
  </scstep>
  <scstep>
   <time name="total">    2.75    1.66</time>
   <energy>
    <i name="e_fr_energy">    -13.78832812 </i>
    <i name="e_wo_entrp">    -13.78832812 </i>
    <i name="e_0_energy">    -13.78832812 </i>
   </energy>
  </scstep>
  <scstep>
   <time name="total">    2.63    1.60</time>
   <energy>
    <i name="e_fr_energy">    -13.78974875 </i>
    <i name="e_wo_entrp">    -13.78974875 </i>
    <i name="e_0_energy">    -13.78974875 </i>
   </energy>
  </scstep>
  <scstep>
   <time name="total">    2.68    1.62</time>
   <energy>
    <i name="e_fr_energy">    -13.78860592 </i>
    <i name="e_wo_entrp">    -13.78860592 </i>
    <i name="e_0_energy">    -13.78860592 </i>
   </energy>
  </scstep>
  <scstep>
   <time name="total">    2.60    1.58</time>
   <energy>
    <i name="e_fr_energy">    -13.78848041 </i>
    <i name="e_wo_entrp">    -13.78848041 </i>
    <i name="e_0_energy">    -13.78848041 </i>
   </energy>
  </scstep>
  <scstep>
   <time name="total">    2.59    1.58</time>
   <energy>
    <i name="e_fr_energy">    -13.78864289 </i>
    <i name="e_wo_entrp">    -13.78864289 </i>
    <i name="e_0_energy">    -13.78864289 </i>
   </energy>
  </scstep>
  <scstep>
   <time name="total">    2.56    1.56</time>
   <energy>
    <i name="e_fr_energy">    -13.78876625 </i>
    <i name="e_wo_entrp">    -13.78876625 </i>
    <i name="e_0_energy">    -13.78876625 </i>
   </energy>
  </scstep>
  <scstep>
   <time name="total">    2.54    1.55</time>
   <energy>
    <i name="e_fr_energy">    -13.78832522 </i>
    <i name="e_wo_entrp">    -13.78832522 </i>
    <i name="e_0_energy">    -13.78832522 </i>
   </energy>
  </scstep>
  <scstep>
   <time name="total">    2.55    1.56</time>
   <energy>
    <i name="e_fr_energy">    -13.78974411 </i>
    <i name="e_wo_entrp">    -13.78974411 </i>
    <i name="e_0_energy">    -13.78974411 </i>
   </energy>
  </scstep>
  <scstep>
   <time name="total">    2.54    1.56</time>
   <energy>
    <i name="e_fr_energy">    -13.79015209 </i>
    <i name="e_wo_entrp">    -13.79015209 </i>
    <i name="e_0_energy">    -13.79015209 </i>
   </energy>
  </scstep>
  <scstep>
   <time name="total">    2.55    1.56</time>
   <energy>
    <i name="e_fr_energy">    -13.78877560 </i>
    <i name="e_wo_entrp">    -13.78877560 </i>
    <i name="e_0_energy">    -13.78877560 </i>
   </energy>
  </scstep>
  <scstep>
   <time name="total">    2.57    1.57</time>
   <energy>
    <i name="e_fr_energy">    -13.78721480 </i>
    <i name="e_wo_entrp">    -13.78721480 </i>
    <i name="e_0_energy">    -13.78721480 </i>
   </energy>
  </scstep>
  <scstep>
   <time name="total">    2.56    1.56</time>
   <energy>
    <i name="e_fr_energy">    -13.78967685 </i>
    <i name="e_wo_entrp">    -13.78967685 </i>
    <i name="e_0_energy">    -13.78967685 </i>
   </energy>
  </scstep>
  <kpoints>
   <generation param="Gamma">
    <v type="int" name="divisions">       8        9        3 </v>
    <v name="usershift">      0.00000000       0.00000000       0.00000000 </v>
    <v name="genvec1">      0.12500000       0.00000000       0.00000000 </v>
    <v name="genvec2">      0.00000000       0.11111111       0.00000000 </v>
    <v name="genvec3">      0.00000000       0.00000000       0.33333333 </v>
    <v name="shift">      0.00000000       0.00000000       0.00000000 </v>
   </generation>
   <varray name="kpointlist" >
    <v>       0.00000000       0.00000000       0.00000000 </v>
    <v>       0.12500000       0.00000000       0.00000000 </v>
    <v>       0.25000000       0.00000000       0.00000000 </v>
    <v>       0.37500000       0.00000000       0.00000000 </v>
    <v>       0.50000000       0.00000000       0.00000000 </v>
    <v>       0.00000000       0.11111111       0.00000000 </v>
    <v>       0.12500000       0.11111111       0.00000000 </v>
    <v>       0.25000000       0.11111111       0.00000000 </v>
    <v>       0.37500000       0.11111111       0.00000000 </v>
    <v>       0.50000000       0.11111111       0.00000000 </v>
    <v>       0.00000000       0.22222222       0.00000000 </v>
    <v>       0.12500000       0.22222222       0.00000000 </v>
    <v>       0.25000000       0.22222222       0.00000000 </v>
    <v>       0.37500000       0.22222222       0.00000000 </v>
    <v>       0.50000000       0.22222222       0.00000000 </v>
    <v>       0.00000000       0.33333333       0.00000000 </v>
    <v>       0.12500000       0.33333333       0.00000000 </v>
    <v>       0.25000000       0.33333333       0.00000000 </v>
    <v>       0.37500000       0.33333333       0.00000000 </v>
    <v>       0.50000000       0.33333333       0.00000000 </v>
    <v>       0.00000000       0.44444444       0.00000000 </v>
    <v>       0.12500000       0.44444444       0.00000000 </v>
    <v>       0.25000000       0.44444444       0.00000000 </v>
    <v>       0.37500000       0.44444444       0.00000000 </v>
    <v>       0.50000000       0.44444444       0.00000000 </v>
    <v>       0.00000000       0.00000000       0.33333333 </v>
    <v>       0.12500000       0.00000000       0.33333333 </v>
    <v>       0.12500000       0.00000000      -0.33333333 </v>
    <v>       0.25000000       0.00000000       0.33333333 </v>
    <v>       0.25000000       0.00000000      -0.33333333 </v>
    <v>       0.37500000       0.00000000       0.33333333 </v>
    <v>       0.37500000       0.00000000      -0.33333333 </v>
    <v>       0.50000000       0.00000000       0.33333333 </v>
    <v>       0.00000000       0.11111111       0.33333333 </v>
    <v>       0.12500000       0.11111111       0.33333333 </v>
    <v>       0.12500000      -0.11111111      -0.33333333 </v>
    <v>       0.25000000       0.11111111       0.33333333 </v>
    <v>       0.25000000      -0.11111111      -0.33333333 </v>
    <v>       0.37500000       0.11111111       0.33333333 </v>
    <v>       0.37500000      -0.11111111      -0.33333333 </v>
    <v>       0.50000000       0.11111111       0.33333333 </v>
    <v>       0.00000000       0.22222222       0.33333333 </v>
    <v>       0.12500000       0.22222222       0.33333333 </v>
    <v>       0.12500000      -0.22222222      -0.33333333 </v>
    <v>       0.25000000       0.22222222       0.33333333 </v>
    <v>       0.25000000      -0.22222222      -0.33333333 </v>
    <v>       0.37500000       0.22222222       0.33333333 </v>
    <v>       0.37500000      -0.22222222      -0.33333333 </v>
    <v>       0.50000000       0.22222222       0.33333333 </v>
    <v>       0.00000000       0.33333333       0.33333333 </v>
    <v>       0.12500000       0.33333333       0.33333333 </v>
    <v>       0.12500000      -0.33333333      -0.33333333 </v>
    <v>       0.25000000       0.33333333       0.33333333 </v>
    <v>       0.25000000      -0.33333333      -0.33333333 </v>
    <v>       0.37500000       0.33333333       0.33333333 </v>
    <v>       0.37500000      -0.33333333      -0.33333333 </v>
    <v>       0.50000000       0.33333333       0.33333333 </v>
    <v>       0.00000000       0.44444444       0.33333333 </v>
    <v>       0.12500000       0.44444444       0.33333333 </v>
    <v>       0.12500000      -0.44444444      -0.33333333 </v>
    <v>       0.25000000       0.44444444       0.33333333 </v>
    <v>       0.25000000      -0.44444444      -0.33333333 </v>
    <v>       0.37500000       0.44444444       0.33333333 </v>
    <v>       0.37500000      -0.44444444      -0.33333333 </v>
    <v>       0.50000000       0.44444444       0.33333333 </v>
   </varray>
   <varray name="weights" >
    <v>       0.00462963 </v>
    <v>       0.00925926 </v>
    <v>       0.00925926 </v>
    <v>       0.00925926 </v>
    <v>       0.00462963 </v>
    <v>       0.00925926 </v>
    <v>       0.01851852 </v>
    <v>       0.01851852 </v>
    <v>       0.01851852 </v>
    <v>       0.00925926 </v>
    <v>       0.00925926 </v>
    <v>       0.01851852 </v>
    <v>       0.01851852 </v>
    <v>       0.01851852 </v>
    <v>       0.00925926 </v>
    <v>       0.00925926 </v>
    <v>       0.01851852 </v>
    <v>       0.01851852 </v>
    <v>       0.01851852 </v>
    <v>       0.00925926 </v>
    <v>       0.00925926 </v>
    <v>       0.01851852 </v>
    <v>       0.01851852 </v>
    <v>       0.01851852 </v>
    <v>       0.00925926 </v>
    <v>       0.00925926 </v>
    <v>       0.00925926 </v>
    <v>       0.00925926 </v>
    <v>       0.00925926 </v>
    <v>       0.00925926 </v>
    <v>       0.00925926 </v>
    <v>       0.00925926 </v>
    <v>       0.00925926 </v>
    <v>       0.01851852 </v>
    <v>       0.01851852 </v>
    <v>       0.01851852 </v>
    <v>       0.01851852 </v>
    <v>       0.01851852 </v>
    <v>       0.01851852 </v>
    <v>       0.01851852 </v>
    <v>       0.01851852 </v>
    <v>       0.01851852 </v>
    <v>       0.01851852 </v>
    <v>       0.01851852 </v>
    <v>       0.01851852 </v>
    <v>       0.01851852 </v>
    <v>       0.01851852 </v>
    <v>       0.01851852 </v>
    <v>       0.01851852 </v>
    <v>       0.01851852 </v>
    <v>       0.01851852 </v>
    <v>       0.01851852 </v>
    <v>       0.01851852 </v>
    <v>       0.01851852 </v>
    <v>       0.01851852 </v>
    <v>       0.01851852 </v>
    <v>       0.01851852 </v>
    <v>       0.01851852 </v>
    <v>       0.01851852 </v>
    <v>       0.01851852 </v>
    <v>       0.01851852 </v>
    <v>       0.01851852 </v>
    <v>       0.01851852 </v>
    <v>       0.01851852 </v>
    <v>       0.01851852 </v>
   </varray>
  </kpoints>
  <scstep>
   <time name="total">    1.81    1.18</time>
   <energy>
    <i name="e_fr_energy">     -3.74883292 </i>
    <i name="e_wo_entrp">     -3.74883292 </i>
    <i name="e_0_energy">     -3.74883292 </i>
   </energy>
  </scstep>
  <scstep>
   <time name="total">    2.61    1.58</time>
   <energy>
    <i name="e_fr_energy">    -16.78088927 </i>
    <i name="e_wo_entrp">    -16.78088927 </i>
    <i name="e_0_energy">    -16.78088927 </i>
   </energy>
  </scstep>
  <scstep>
   <time name="total">    2.42    1.54</time>
   <energy>
    <i name="e_fr_energy">    -16.50221417 </i>
    <i name="e_wo_entrp">    -16.50221417 </i>
    <i name="e_0_energy">    -16.50221417 </i>
   </energy>
  </scstep>
  <scstep>
   <time name="total">    2.43    1.53</time>
   <energy>
    <i name="e_fr_energy">    -16.95575625 </i>
    <i name="e_wo_entrp">    -16.95575625 </i>
    <i name="e_0_energy">    -16.95575625 </i>
   </energy>
  </scstep>
  <scstep>
   <time name="total">    2.49    1.58</time>
   <energy>
    <i name="e_fr_energy">    -17.08057554 </i>
    <i name="e_wo_entrp">    -17.08057554 </i>
    <i name="e_0_energy">    -17.08057554 </i>
   </energy>
  </scstep>
  <scstep>
   <time name="total">    2.60    1.59</time>
   <energy>
    <i name="e_fr_energy">    -17.10183409 </i>
    <i name="e_wo_entrp">    -17.10183409 </i>
    <i name="e_0_energy">    -17.10183409 </i>
   </energy>
  </scstep>
  <scstep>
   <time name="total">    2.61    1.58</time>
   <energy>
    <i name="e_fr_energy">    -17.09844916 </i>
    <i name="e_wo_entrp">    -17.09844916 </i>
    <i name="e_0_energy">    -17.09844916 </i>
   </energy>
  </scstep>
  <scstep>
   <time name="total">    2.68    1.62</time>
   <energy>
    <i name="e_fr_energy">    -17.10252308 </i>
    <i name="e_wo_entrp">    -17.10252308 </i>
    <i name="e_0_energy">    -17.10252308 </i>
   </energy>
  </scstep>
  <scstep>
   <time name="total">    2.66    1.61</time>
   <energy>
    <i name="e_fr_energy">    -17.10047366 </i>
    <i name="e_wo_entrp">    -17.10047366 </i>
    <i name="e_0_energy">    -17.10047366 </i>
   </energy>
  </scstep>
  <scstep>
   <time name="total">    2.72    1.64</time>
   <energy>
    <i name="e_fr_energy">    -17.10373538 </i>
    <i name="e_wo_entrp">    -17.10373538 </i>
    <i name="e_0_energy">    -17.10373538 </i>
   </energy>
  </scstep>
  <scstep>
   <time name="total">    2.66    1.61</time>
   <energy>
    <i name="e_fr_energy">    -17.10140517 </i>
    <i name="e_wo_entrp">    -17.10140517 </i>
    <i name="e_0_energy">    -17.10140517 </i>
   </energy>
  </scstep>
  <scstep>
   <time name="total">    2.74    1.65</time>
   <energy>
    <i name="e_fr_energy">    -17.10327599 </i>
    <i name="e_wo_entrp">    -17.10327599 </i>
    <i name="e_0_energy">    -17.10327599 </i>
   </energy>
  </scstep>
  <scstep>
   <time name="total">    2.66    1.61</time>
   <energy>
    <i name="e_fr_energy">    -17.10129859 </i>
    <i name="e_wo_entrp">    -17.10129859 </i>
    <i name="e_0_energy">    -17.10129859 </i>
   </energy>
  </scstep>
  <scstep>
   <time name="total">    2.58    1.57</time>
   <energy>
    <i name="e_fr_energy">    -17.10323504 </i>
    <i name="e_wo_entrp">    -17.10323504 </i>
    <i name="e_0_energy">    -17.10323504 </i>
   </energy>
  </scstep>
  <scstep>
   <time name="total">    2.57    1.57</time>
   <energy>
    <i name="e_fr_energy">    -17.10305247 </i>
    <i name="e_wo_entrp">    -17.10305247 </i>
    <i name="e_0_energy">    -17.10305247 </i>
   </energy>
  </scstep>
  <scstep>
   <time name="total">    2.55    1.56</time>
   <energy>
    <i name="e_fr_energy">    -17.10263008 </i>
    <i name="e_wo_entrp">    -17.10263008 </i>
    <i name="e_0_energy">    -17.10263008 </i>
   </energy>
  </scstep>
  <scstep>
   <time name="total">    2.56    1.56</time>
   <energy>
    <i name="e_fr_energy">    -17.10282575 </i>
    <i name="e_wo_entrp">    -17.10282575 </i>
    <i name="e_0_energy">    -17.10282575 </i>
   </energy>
  </scstep>
  <scstep>
   <time name="total">    2.60    1.58</time>
   <energy>
    <i name="e_fr_energy">    -17.10310509 </i>
    <i name="e_wo_entrp">    -17.10310509 </i>
    <i name="e_0_energy">    -17.10310509 </i>
   </energy>
  </scstep>
  <scstep>
   <time name="total">    2.56    1.56</time>
   <energy>
    <i name="e_fr_energy">    -17.10216977 </i>
    <i name="e_wo_entrp">    -17.10216977 </i>
    <i name="e_0_energy">    -17.10216977 </i>
   </energy>
  </scstep>
  <scstep>
   <time name="total">    2.54    1.56</time>
   <energy>
    <i name="e_fr_energy">    -17.10219726 </i>
    <i name="e_wo_entrp">    -17.10219726 </i>
    <i name="e_0_energy">    -17.10219726 </i>
   </energy>
  </scstep>
  <scstep>
   <time name="total">    2.57    1.57</time>
   <energy>
    <i name="e_fr_energy">    -17.10197289 </i>
    <i name="e_wo_entrp">    -17.10197289 </i>
    <i name="e_0_energy">    -17.10197289 </i>
   </energy>
  </scstep>
  <scstep>
   <time name="total">    2.60    1.58</time>
   <energy>
    <i name="e_fr_energy">    -17.10365491 </i>
    <i name="e_wo_entrp">    -17.10365491 </i>
    <i name="e_0_energy">    -17.10365491 </i>
   </energy>
  </scstep>
  <scstep>
   <time name="total">    2.58    1.57</time>
   <energy>
    <i name="e_fr_energy">    -17.10314911 </i>
    <i name="e_wo_entrp">    -17.10314911 </i>
    <i name="e_0_energy">    -17.10314911 </i>
   </energy>
  </scstep>
  <scstep>
   <time name="total">    2.57    1.57</time>
   <energy>
    <i name="e_fr_energy">    -17.10267436 </i>
    <i name="e_wo_entrp">    -17.10267436 </i>
    <i name="e_0_energy">    -17.10267436 </i>
   </energy>
  </scstep>
  <scstep>
   <time name="total">    2.57    1.57</time>
   <energy>
    <i name="e_fr_energy">    -17.10196802 </i>
    <i name="e_wo_entrp">    -17.10196802 </i>
    <i name="e_0_energy">    -17.10196802 </i>
   </energy>
  </scstep>
  <scstep>
   <time name="total">    2.55    1.56</time>
   <energy>
    <i name="e_fr_energy">    -17.10336025 </i>
    <i name="e_wo_entrp">    -17.10336025 </i>
    <i name="e_0_energy">    -17.10336025 </i>
   </energy>
  </scstep>
  <scstep>
   <time name="total">    2.60    1.58</time>
   <energy>
    <i name="e_fr_energy">    -17.10309032 </i>
    <i name="e_wo_entrp">    -17.10309032 </i>
    <i name="e_0_energy">    -17.10309032 </i>
   </energy>
  </scstep>
  <kpoints>
   <generation param="Gamma">
    <v type="int" name="divisions">       8        9        3 </v>
    <v name="usershift">      0.00000000       0.00000000       0.00000000 </v>
    <v name="genvec1">      0.12500000       0.00000000       0.00000000 </v>
    <v name="genvec2">      0.00000000       0.11111111       0.00000000 </v>
    <v name="genvec3">      0.00000000       0.00000000       0.33333333 </v>
    <v name="shift">      0.00000000       0.00000000       0.00000000 </v>
   </generation>
   <varray name="kpointlist" >
    <v>       0.00000000       0.00000000       0.00000000 </v>
    <v>       0.12500000       0.00000000       0.00000000 </v>
    <v>       0.25000000       0.00000000       0.00000000 </v>
    <v>       0.37500000       0.00000000       0.00000000 </v>
    <v>       0.50000000       0.00000000       0.00000000 </v>
    <v>       0.00000000       0.11111111       0.00000000 </v>
    <v>       0.12500000       0.11111111       0.00000000 </v>
    <v>       0.25000000       0.11111111       0.00000000 </v>
    <v>       0.37500000       0.11111111       0.00000000 </v>
    <v>       0.50000000       0.11111111       0.00000000 </v>
    <v>       0.00000000       0.22222222       0.00000000 </v>
    <v>       0.12500000       0.22222222       0.00000000 </v>
    <v>       0.25000000       0.22222222       0.00000000 </v>
    <v>       0.37500000       0.22222222       0.00000000 </v>
    <v>       0.50000000       0.22222222       0.00000000 </v>
    <v>       0.00000000       0.33333333       0.00000000 </v>
    <v>       0.12500000       0.33333333       0.00000000 </v>
    <v>       0.25000000       0.33333333       0.00000000 </v>
    <v>       0.37500000       0.33333333       0.00000000 </v>
    <v>       0.50000000       0.33333333       0.00000000 </v>
    <v>       0.00000000       0.44444444       0.00000000 </v>
    <v>       0.12500000       0.44444444       0.00000000 </v>
    <v>       0.25000000       0.44444444       0.00000000 </v>
    <v>       0.37500000       0.44444444       0.00000000 </v>
    <v>       0.50000000       0.44444444       0.00000000 </v>
    <v>       0.00000000       0.00000000       0.33333333 </v>
    <v>       0.12500000       0.00000000       0.33333333 </v>
    <v>       0.12500000       0.00000000      -0.33333333 </v>
    <v>       0.25000000       0.00000000       0.33333333 </v>
    <v>       0.25000000       0.00000000      -0.33333333 </v>
    <v>       0.37500000       0.00000000       0.33333333 </v>
    <v>       0.37500000       0.00000000      -0.33333333 </v>
    <v>       0.50000000       0.00000000       0.33333333 </v>
    <v>       0.00000000       0.11111111       0.33333333 </v>
    <v>       0.12500000       0.11111111       0.33333333 </v>
    <v>       0.12500000      -0.11111111      -0.33333333 </v>
    <v>       0.25000000       0.11111111       0.33333333 </v>
    <v>       0.25000000      -0.11111111      -0.33333333 </v>
    <v>       0.37500000       0.11111111       0.33333333 </v>
    <v>       0.37500000      -0.11111111      -0.33333333 </v>
    <v>       0.50000000       0.11111111       0.33333333 </v>
    <v>       0.00000000       0.22222222       0.33333333 </v>
    <v>       0.12500000       0.22222222       0.33333333 </v>
    <v>       0.12500000      -0.22222222      -0.33333333 </v>
    <v>       0.25000000       0.22222222       0.33333333 </v>
    <v>       0.25000000      -0.22222222      -0.33333333 </v>
    <v>       0.37500000       0.22222222       0.33333333 </v>
    <v>       0.37500000      -0.22222222      -0.33333333 </v>
    <v>       0.50000000       0.22222222       0.33333333 </v>
    <v>       0.00000000       0.33333333       0.33333333 </v>
    <v>       0.12500000       0.33333333       0.33333333 </v>
    <v>       0.12500000      -0.33333333      -0.33333333 </v>
    <v>       0.25000000       0.33333333       0.33333333 </v>
    <v>       0.25000000      -0.33333333      -0.33333333 </v>
    <v>       0.37500000       0.33333333       0.33333333 </v>
    <v>       0.37500000      -0.33333333      -0.33333333 </v>
    <v>       0.50000000       0.33333333       0.33333333 </v>
    <v>       0.00000000       0.44444444       0.33333333 </v>
    <v>       0.12500000       0.44444444       0.33333333 </v>
    <v>       0.12500000      -0.44444444      -0.33333333 </v>
    <v>       0.25000000       0.44444444       0.33333333 </v>
    <v>       0.25000000      -0.44444444      -0.33333333 </v>
    <v>       0.37500000       0.44444444       0.33333333 </v>
    <v>       0.37500000      -0.44444444      -0.33333333 </v>
    <v>       0.50000000       0.44444444       0.33333333 </v>
   </varray>
   <varray name="weights" >
    <v>       0.00462963 </v>
    <v>       0.00925926 </v>
    <v>       0.00925926 </v>
    <v>       0.00925926 </v>
    <v>       0.00462963 </v>
    <v>       0.00925926 </v>
    <v>       0.01851852 </v>
    <v>       0.01851852 </v>
    <v>       0.01851852 </v>
    <v>       0.00925926 </v>
    <v>       0.00925926 </v>
    <v>       0.01851852 </v>
    <v>       0.01851852 </v>
    <v>       0.01851852 </v>
    <v>       0.00925926 </v>
    <v>       0.00925926 </v>
    <v>       0.01851852 </v>
    <v>       0.01851852 </v>
    <v>       0.01851852 </v>
    <v>       0.00925926 </v>
    <v>       0.00925926 </v>
    <v>       0.01851852 </v>
    <v>       0.01851852 </v>
    <v>       0.01851852 </v>
    <v>       0.00925926 </v>
    <v>       0.00925926 </v>
    <v>       0.00925926 </v>
    <v>       0.00925926 </v>
    <v>       0.00925926 </v>
    <v>       0.00925926 </v>
    <v>       0.00925926 </v>
    <v>       0.00925926 </v>
    <v>       0.00925926 </v>
    <v>       0.01851852 </v>
    <v>       0.01851852 </v>
    <v>       0.01851852 </v>
    <v>       0.01851852 </v>
    <v>       0.01851852 </v>
    <v>       0.01851852 </v>
    <v>       0.01851852 </v>
    <v>       0.01851852 </v>
    <v>       0.01851852 </v>
    <v>       0.01851852 </v>
    <v>       0.01851852 </v>
    <v>       0.01851852 </v>
    <v>       0.01851852 </v>
    <v>       0.01851852 </v>
    <v>       0.01851852 </v>
    <v>       0.01851852 </v>
    <v>       0.01851852 </v>
    <v>       0.01851852 </v>
    <v>       0.01851852 </v>
    <v>       0.01851852 </v>
    <v>       0.01851852 </v>
    <v>       0.01851852 </v>
    <v>       0.01851852 </v>
    <v>       0.01851852 </v>
    <v>       0.01851852 </v>
    <v>       0.01851852 </v>
    <v>       0.01851852 </v>
    <v>       0.01851852 </v>
    <v>       0.01851852 </v>
    <v>       0.01851852 </v>
    <v>       0.01851852 </v>
    <v>       0.01851852 </v>
   </varray>
  </kpoints>
  <scstep>
   <time name="total">    1.86    1.20</time>
   <energy>
    <i name="e_fr_energy">     -4.12328786 </i>
    <i name="e_wo_entrp">     -4.12328786 </i>
    <i name="e_0_energy">     -4.12328786 </i>
   </energy>
  </scstep>
  <scstep>
   <time name="total">    2.58    1.56</time>
   <energy>
    <i name="e_fr_energy">    -15.58041004 </i>
    <i name="e_wo_entrp">    -15.58041004 </i>
    <i name="e_0_energy">    -15.58041004 </i>
   </energy>
  </scstep>
  <scstep>
   <time name="total">    2.44    1.54</time>
   <energy>
    <i name="e_fr_energy">    -15.21215421 </i>
    <i name="e_wo_entrp">    -15.21215421 </i>
    <i name="e_0_energy">    -15.21215421 </i>
   </energy>
  </scstep>
  <scstep>
   <time name="total">    2.47    1.54</time>
   <energy>
    <i name="e_fr_energy">    -15.47194661 </i>
    <i name="e_wo_entrp">    -15.47194661 </i>
    <i name="e_0_energy">    -15.47194661 </i>
   </energy>
  </scstep>
  <scstep>
   <time name="total">    2.57    1.57</time>
   <energy>
    <i name="e_fr_energy">    -15.62621996 </i>
    <i name="e_wo_entrp">    -15.62621996 </i>
    <i name="e_0_energy">    -15.62621996 </i>
   </energy>
  </scstep>
  <scstep>
   <time name="total">    2.61    1.59</time>
   <energy>
    <i name="e_fr_energy">    -15.68528201 </i>
    <i name="e_wo_entrp">    -15.68528201 </i>
    <i name="e_0_energy">    -15.68528201 </i>
   </energy>
  </scstep>
  <scstep>
   <time name="total">    2.64    1.60</time>
   <energy>
    <i name="e_fr_energy">    -15.68854697 </i>
    <i name="e_wo_entrp">    -15.68854697 </i>
    <i name="e_0_energy">    -15.68854697 </i>
   </energy>
  </scstep>
  <scstep>
   <time name="total">    2.68    1.62</time>
   <energy>
    <i name="e_fr_energy">    -15.68980763 </i>
    <i name="e_wo_entrp">    -15.68980763 </i>
    <i name="e_0_energy">    -15.68980763 </i>
   </energy>
  </scstep>
  <scstep>
   <time name="total">    2.72    1.64</time>
   <energy>
    <i name="e_fr_energy">    -15.68703635 </i>
    <i name="e_wo_entrp">    -15.68703635 </i>
    <i name="e_0_energy">    -15.68703635 </i>
   </energy>
  </scstep>
  <scstep>
   <time name="total">    2.69    1.63</time>
   <energy>
    <i name="e_fr_energy">    -15.68918357 </i>
    <i name="e_wo_entrp">    -15.68918357 </i>
    <i name="e_0_energy">    -15.68918357 </i>
   </energy>
  </scstep>
  <scstep>
   <time name="total">    2.74    1.65</time>
   <energy>
    <i name="e_fr_energy">    -15.68840607 </i>
    <i name="e_wo_entrp">    -15.68840607 </i>
    <i name="e_0_energy">    -15.68840607 </i>
   </energy>
  </scstep>
  <scstep>
   <time name="total">    2.69    1.63</time>
   <energy>
    <i name="e_fr_energy">    -15.69262851 </i>
    <i name="e_wo_entrp">    -15.69262851 </i>
    <i name="e_0_energy">    -15.69262851 </i>
   </energy>
  </scstep>
  <scstep>
   <time name="total">    2.67    1.62</time>
   <energy>
    <i name="e_fr_energy">    -15.68913154 </i>
    <i name="e_wo_entrp">    -15.68913154 </i>
    <i name="e_0_energy">    -15.68913154 </i>
   </energy>
  </scstep>
  <scstep>
   <time name="total">    2.63    1.60</time>
   <energy>
    <i name="e_fr_energy">    -15.69243054 </i>
    <i name="e_wo_entrp">    -15.69243054 </i>
    <i name="e_0_energy">    -15.69243054 </i>
   </energy>
  </scstep>
  <scstep>
   <time name="total">    2.58    1.58</time>
   <energy>
    <i name="e_fr_energy">    -15.68696023 </i>
    <i name="e_wo_entrp">    -15.68696023 </i>
    <i name="e_0_energy">    -15.68696023 </i>
   </energy>
  </scstep>
  <scstep>
   <time name="total">    2.60    1.59</time>
   <energy>
    <i name="e_fr_energy">    -15.69272128 </i>
    <i name="e_wo_entrp">    -15.69272128 </i>
    <i name="e_0_energy">    -15.69272128 </i>
   </energy>
  </scstep>
  <scstep>
   <time name="total">    2.58    1.57</time>
   <energy>
    <i name="e_fr_energy">    -15.69184457 </i>
    <i name="e_wo_entrp">    -15.69184457 </i>
    <i name="e_0_energy">    -15.69184457 </i>
   </energy>
  </scstep>
  <scstep>
   <time name="total">    2.54    1.55</time>
   <energy>
    <i name="e_fr_energy">    -15.69183272 </i>
    <i name="e_wo_entrp">    -15.69183272 </i>
    <i name="e_0_energy">    -15.69183272 </i>
   </energy>
  </scstep>
  <scstep>
   <time name="total">    2.55    1.56</time>
   <energy>
    <i name="e_fr_energy">    -15.69041055 </i>
    <i name="e_wo_entrp">    -15.69041055 </i>
    <i name="e_0_energy">    -15.69041055 </i>
   </energy>
  </scstep>
  <scstep>
   <time name="total">    2.56    1.56</time>
   <energy>
    <i name="e_fr_energy">    -15.69280129 </i>
    <i name="e_wo_entrp">    -15.69280129 </i>
    <i name="e_0_energy">    -15.69280129 </i>
   </energy>
  </scstep>
  <scstep>
   <time name="total">    2.55    1.56</time>
   <energy>
    <i name="e_fr_energy">    -15.69019272 </i>
    <i name="e_wo_entrp">    -15.69019272 </i>
    <i name="e_0_energy">    -15.69019272 </i>
   </energy>
  </scstep>
  <scstep>
   <time name="total">    2.57    1.57</time>
   <energy>
    <i name="e_fr_energy">    -15.69124476 </i>
    <i name="e_wo_entrp">    -15.69124476 </i>
    <i name="e_0_energy">    -15.69124476 </i>
   </energy>
  </scstep>
  <scstep>
   <time name="total">    2.60    1.58</time>
   <energy>
    <i name="e_fr_energy">    -15.69000205 </i>
    <i name="e_wo_entrp">    -15.69000205 </i>
    <i name="e_0_energy">    -15.69000205 </i>
   </energy>
  </scstep>
  <kpoints>
   <generation param="Gamma">
    <v type="int" name="divisions">       8        9        3 </v>
    <v name="usershift">      0.00000000       0.00000000       0.00000000 </v>
    <v name="genvec1">      0.12500000       0.00000000       0.00000000 </v>
    <v name="genvec2">      0.00000000       0.11111111       0.00000000 </v>
    <v name="genvec3">      0.00000000       0.00000000       0.33333333 </v>
    <v name="shift">      0.00000000       0.00000000       0.00000000 </v>
   </generation>
   <varray name="kpointlist" >
    <v>       0.00000000       0.00000000       0.00000000 </v>
    <v>       0.12500000       0.00000000       0.00000000 </v>
    <v>       0.25000000       0.00000000       0.00000000 </v>
    <v>       0.37500000       0.00000000       0.00000000 </v>
    <v>       0.50000000       0.00000000       0.00000000 </v>
    <v>       0.00000000       0.11111111       0.00000000 </v>
    <v>       0.12500000       0.11111111       0.00000000 </v>
    <v>       0.25000000       0.11111111       0.00000000 </v>
    <v>       0.37500000       0.11111111       0.00000000 </v>
    <v>       0.50000000       0.11111111       0.00000000 </v>
    <v>       0.00000000       0.22222222       0.00000000 </v>
    <v>       0.12500000       0.22222222       0.00000000 </v>
    <v>       0.25000000       0.22222222       0.00000000 </v>
    <v>       0.37500000       0.22222222       0.00000000 </v>
    <v>       0.50000000       0.22222222       0.00000000 </v>
    <v>       0.00000000       0.33333333       0.00000000 </v>
    <v>       0.12500000       0.33333333       0.00000000 </v>
    <v>       0.25000000       0.33333333       0.00000000 </v>
    <v>       0.37500000       0.33333333       0.00000000 </v>
    <v>       0.50000000       0.33333333       0.00000000 </v>
    <v>       0.00000000       0.44444444       0.00000000 </v>
    <v>       0.12500000       0.44444444       0.00000000 </v>
    <v>       0.25000000       0.44444444       0.00000000 </v>
    <v>       0.37500000       0.44444444       0.00000000 </v>
    <v>       0.50000000       0.44444444       0.00000000 </v>
    <v>       0.00000000       0.00000000       0.33333333 </v>
    <v>       0.12500000       0.00000000       0.33333333 </v>
    <v>       0.12500000       0.00000000      -0.33333333 </v>
    <v>       0.25000000       0.00000000       0.33333333 </v>
    <v>       0.25000000       0.00000000      -0.33333333 </v>
    <v>       0.37500000       0.00000000       0.33333333 </v>
    <v>       0.37500000       0.00000000      -0.33333333 </v>
    <v>       0.50000000       0.00000000       0.33333333 </v>
    <v>       0.00000000       0.11111111       0.33333333 </v>
    <v>       0.12500000       0.11111111       0.33333333 </v>
    <v>       0.12500000      -0.11111111      -0.33333333 </v>
    <v>       0.25000000       0.11111111       0.33333333 </v>
    <v>       0.25000000      -0.11111111      -0.33333333 </v>
    <v>       0.37500000       0.11111111       0.33333333 </v>
    <v>       0.37500000      -0.11111111      -0.33333333 </v>
    <v>       0.50000000       0.11111111       0.33333333 </v>
    <v>       0.00000000       0.22222222       0.33333333 </v>
    <v>       0.12500000       0.22222222       0.33333333 </v>
    <v>       0.12500000      -0.22222222      -0.33333333 </v>
    <v>       0.25000000       0.22222222       0.33333333 </v>
    <v>       0.25000000      -0.22222222      -0.33333333 </v>
    <v>       0.37500000       0.22222222       0.33333333 </v>
    <v>       0.37500000      -0.22222222      -0.33333333 </v>
    <v>       0.50000000       0.22222222       0.33333333 </v>
    <v>       0.00000000       0.33333333       0.33333333 </v>
    <v>       0.12500000       0.33333333       0.33333333 </v>
    <v>       0.12500000      -0.33333333      -0.33333333 </v>
    <v>       0.25000000       0.33333333       0.33333333 </v>
    <v>       0.25000000      -0.33333333      -0.33333333 </v>
    <v>       0.37500000       0.33333333       0.33333333 </v>
    <v>       0.37500000      -0.33333333      -0.33333333 </v>
    <v>       0.50000000       0.33333333       0.33333333 </v>
    <v>       0.00000000       0.44444444       0.33333333 </v>
    <v>       0.12500000       0.44444444       0.33333333 </v>
    <v>       0.12500000      -0.44444444      -0.33333333 </v>
    <v>       0.25000000       0.44444444       0.33333333 </v>
    <v>       0.25000000      -0.44444444      -0.33333333 </v>
    <v>       0.37500000       0.44444444       0.33333333 </v>
    <v>       0.37500000      -0.44444444      -0.33333333 </v>
    <v>       0.50000000       0.44444444       0.33333333 </v>
   </varray>
   <varray name="weights" >
    <v>       0.00462963 </v>
    <v>       0.00925926 </v>
    <v>       0.00925926 </v>
    <v>       0.00925926 </v>
    <v>       0.00462963 </v>
    <v>       0.00925926 </v>
    <v>       0.01851852 </v>
    <v>       0.01851852 </v>
    <v>       0.01851852 </v>
    <v>       0.00925926 </v>
    <v>       0.00925926 </v>
    <v>       0.01851852 </v>
    <v>       0.01851852 </v>
    <v>       0.01851852 </v>
    <v>       0.00925926 </v>
    <v>       0.00925926 </v>
    <v>       0.01851852 </v>
    <v>       0.01851852 </v>
    <v>       0.01851852 </v>
    <v>       0.00925926 </v>
    <v>       0.00925926 </v>
    <v>       0.01851852 </v>
    <v>       0.01851852 </v>
    <v>       0.01851852 </v>
    <v>       0.00925926 </v>
    <v>       0.00925926 </v>
    <v>       0.00925926 </v>
    <v>       0.00925926 </v>
    <v>       0.00925926 </v>
    <v>       0.00925926 </v>
    <v>       0.00925926 </v>
    <v>       0.00925926 </v>
    <v>       0.00925926 </v>
    <v>       0.01851852 </v>
    <v>       0.01851852 </v>
    <v>       0.01851852 </v>
    <v>       0.01851852 </v>
    <v>       0.01851852 </v>
    <v>       0.01851852 </v>
    <v>       0.01851852 </v>
    <v>       0.01851852 </v>
    <v>       0.01851852 </v>
    <v>       0.01851852 </v>
    <v>       0.01851852 </v>
    <v>       0.01851852 </v>
    <v>       0.01851852 </v>
    <v>       0.01851852 </v>
    <v>       0.01851852 </v>
    <v>       0.01851852 </v>
    <v>       0.01851852 </v>
    <v>       0.01851852 </v>
    <v>       0.01851852 </v>
    <v>       0.01851852 </v>
    <v>       0.01851852 </v>
    <v>       0.01851852 </v>
    <v>       0.01851852 </v>
    <v>       0.01851852 </v>
    <v>       0.01851852 </v>
    <v>       0.01851852 </v>
    <v>       0.01851852 </v>
    <v>       0.01851852 </v>
    <v>       0.01851852 </v>
    <v>       0.01851852 </v>
    <v>       0.01851852 </v>
    <v>       0.01851852 </v>
   </varray>
  </kpoints>
  <varray name="dielectric_dft" >
   <v>      24.37457240       0.00000000       0.05123064 </v>
   <v>       0.00000000      29.80456687       0.00000000 </v>
   <v>       0.05122591       0.00000000      27.66738865 </v>
  </varray>
  <varray name="epsilon" >
   <v>      24.37457240       0.00000000       0.05123064 </v>
   <v>       0.00000000      29.80456687       0.00000000 </v>
   <v>       0.05122591       0.00000000      27.66738865 </v>
  </varray>
  <kpoints>
   <generation param="Gamma">
    <v type="int" name="divisions">       8        9        3 </v>
    <v name="usershift">      0.00000000       0.00000000       0.00000000 </v>
    <v name="genvec1">      0.12500000       0.00000000       0.00000000 </v>
    <v name="genvec2">      0.00000000       0.11111111       0.00000000 </v>
    <v name="genvec3">      0.00000000       0.00000000       0.33333333 </v>
    <v name="shift">      0.00000000       0.00000000       0.00000000 </v>
   </generation>
   <varray name="kpointlist" >
    <v>       0.00000000       0.00000000       0.00000000 </v>
    <v>       0.12500000       0.00000000       0.00000000 </v>
    <v>       0.25000000       0.00000000       0.00000000 </v>
    <v>       0.37500000       0.00000000       0.00000000 </v>
    <v>       0.50000000       0.00000000       0.00000000 </v>
    <v>       0.00000000       0.11111111       0.00000000 </v>
    <v>       0.12500000       0.11111111       0.00000000 </v>
    <v>       0.25000000       0.11111111       0.00000000 </v>
    <v>       0.37500000       0.11111111       0.00000000 </v>
    <v>       0.50000000       0.11111111       0.00000000 </v>
    <v>       0.00000000       0.22222222       0.00000000 </v>
    <v>       0.12500000       0.22222222       0.00000000 </v>
    <v>       0.25000000       0.22222222       0.00000000 </v>
    <v>       0.37500000       0.22222222       0.00000000 </v>
    <v>       0.50000000       0.22222222       0.00000000 </v>
    <v>       0.00000000       0.33333333       0.00000000 </v>
    <v>       0.12500000       0.33333333       0.00000000 </v>
    <v>       0.25000000       0.33333333       0.00000000 </v>
    <v>       0.37500000       0.33333333       0.00000000 </v>
    <v>       0.50000000       0.33333333       0.00000000 </v>
    <v>       0.00000000       0.44444444       0.00000000 </v>
    <v>       0.12500000       0.44444444       0.00000000 </v>
    <v>       0.25000000       0.44444444       0.00000000 </v>
    <v>       0.37500000       0.44444444       0.00000000 </v>
    <v>       0.50000000       0.44444444       0.00000000 </v>
    <v>       0.00000000       0.00000000       0.33333333 </v>
    <v>       0.12500000       0.00000000       0.33333333 </v>
    <v>       0.12500000       0.00000000      -0.33333333 </v>
    <v>       0.25000000       0.00000000       0.33333333 </v>
    <v>       0.25000000       0.00000000      -0.33333333 </v>
    <v>       0.37500000       0.00000000       0.33333333 </v>
    <v>       0.37500000       0.00000000      -0.33333333 </v>
    <v>       0.50000000       0.00000000       0.33333333 </v>
    <v>       0.00000000       0.11111111       0.33333333 </v>
    <v>       0.12500000       0.11111111       0.33333333 </v>
    <v>       0.12500000      -0.11111111      -0.33333333 </v>
    <v>       0.25000000       0.11111111       0.33333333 </v>
    <v>       0.25000000      -0.11111111      -0.33333333 </v>
    <v>       0.37500000       0.11111111       0.33333333 </v>
    <v>       0.37500000      -0.11111111      -0.33333333 </v>
    <v>       0.50000000       0.11111111       0.33333333 </v>
    <v>       0.00000000       0.22222222       0.33333333 </v>
    <v>       0.12500000       0.22222222       0.33333333 </v>
    <v>       0.12500000      -0.22222222      -0.33333333 </v>
    <v>       0.25000000       0.22222222       0.33333333 </v>
    <v>       0.25000000      -0.22222222      -0.33333333 </v>
    <v>       0.37500000       0.22222222       0.33333333 </v>
    <v>       0.37500000      -0.22222222      -0.33333333 </v>
    <v>       0.50000000       0.22222222       0.33333333 </v>
    <v>       0.00000000       0.33333333       0.33333333 </v>
    <v>       0.12500000       0.33333333       0.33333333 </v>
    <v>       0.12500000      -0.33333333      -0.33333333 </v>
    <v>       0.25000000       0.33333333       0.33333333 </v>
    <v>       0.25000000      -0.33333333      -0.33333333 </v>
    <v>       0.37500000       0.33333333       0.33333333 </v>
    <v>       0.37500000      -0.33333333      -0.33333333 </v>
    <v>       0.50000000       0.33333333       0.33333333 </v>
    <v>       0.00000000       0.44444444       0.33333333 </v>
    <v>       0.12500000       0.44444444       0.33333333 </v>
    <v>       0.12500000      -0.44444444      -0.33333333 </v>
    <v>       0.25000000       0.44444444       0.33333333 </v>
    <v>       0.25000000      -0.44444444      -0.33333333 </v>
    <v>       0.37500000       0.44444444       0.33333333 </v>
    <v>       0.37500000      -0.44444444      -0.33333333 </v>
    <v>       0.50000000       0.44444444       0.33333333 </v>
   </varray>
   <varray name="weights" >
    <v>       0.00462963 </v>
    <v>       0.00925926 </v>
    <v>       0.00925926 </v>
    <v>       0.00925926 </v>
    <v>       0.00462963 </v>
    <v>       0.00925926 </v>
    <v>       0.01851852 </v>
    <v>       0.01851852 </v>
    <v>       0.01851852 </v>
    <v>       0.00925926 </v>
    <v>       0.00925926 </v>
    <v>       0.01851852 </v>
    <v>       0.01851852 </v>
    <v>       0.01851852 </v>
    <v>       0.00925926 </v>
    <v>       0.00925926 </v>
    <v>       0.01851852 </v>
    <v>       0.01851852 </v>
    <v>       0.01851852 </v>
    <v>       0.00925926 </v>
    <v>       0.00925926 </v>
    <v>       0.01851852 </v>
    <v>       0.01851852 </v>
    <v>       0.01851852 </v>
    <v>       0.00925926 </v>
    <v>       0.00925926 </v>
    <v>       0.00925926 </v>
    <v>       0.00925926 </v>
    <v>       0.00925926 </v>
    <v>       0.00925926 </v>
    <v>       0.00925926 </v>
    <v>       0.00925926 </v>
    <v>       0.00925926 </v>
    <v>       0.01851852 </v>
    <v>       0.01851852 </v>
    <v>       0.01851852 </v>
    <v>       0.01851852 </v>
    <v>       0.01851852 </v>
    <v>       0.01851852 </v>
    <v>       0.01851852 </v>
    <v>       0.01851852 </v>
    <v>       0.01851852 </v>
    <v>       0.01851852 </v>
    <v>       0.01851852 </v>
    <v>       0.01851852 </v>
    <v>       0.01851852 </v>
    <v>       0.01851852 </v>
    <v>       0.01851852 </v>
    <v>       0.01851852 </v>
    <v>       0.01851852 </v>
    <v>       0.01851852 </v>
    <v>       0.01851852 </v>
    <v>       0.01851852 </v>
    <v>       0.01851852 </v>
    <v>       0.01851852 </v>
    <v>       0.01851852 </v>
    <v>       0.01851852 </v>
    <v>       0.01851852 </v>
    <v>       0.01851852 </v>
    <v>       0.01851852 </v>
    <v>       0.01851852 </v>
    <v>       0.01851852 </v>
    <v>       0.01851852 </v>
    <v>       0.01851852 </v>
    <v>       0.01851852 </v>
   </varray>
  </kpoints>
  <array name="born_charges" >
   <dimension dim="1">ion</dimension>
   <set>
    <v>       3.94501861       0.00000000      -0.58691406 </v>
    <v>       0.00000000       4.55931030       0.00000000 </v>
    <v>       0.09739493       0.00000000       4.23252212 </v>
   </set>
   <set>
    <v>       4.04355300       0.00000000       0.59697921 </v>
    <v>       0.00000000       4.58491782       0.00000000 </v>
    <v>      -0.07358358       0.00000000       4.23941306 </v>
   </set>
   <set>
    <v>       4.04355300       0.00000000       0.59697921 </v>
    <v>       0.00000000       4.58491782       0.00000000 </v>
    <v>      -0.07358358       0.00000000       4.23941306 </v>
   </set>
   <set>
    <v>       3.94501861       0.00000000      -0.58691406 </v>
    <v>       0.00000000       4.55931030       0.00000000 </v>
    <v>       0.09739493       0.00000000       4.23252212 </v>
   </set>
   <set>
    <v>      -4.03112032       0.00000000       0.57271370 </v>
    <v>       0.00000000      -4.57965489       0.00000000 </v>
    <v>       0.67988192       0.00000000      -4.23929478 </v>
   </set>
   <set>
    <v>      -3.95745129       0.00000000      -0.58277885 </v>
    <v>       0.00000000      -4.56457324       0.00000000 </v>
    <v>      -0.70369326       0.00000000      -4.23264040 </v>
   </set>
   <set>
    <v>      -3.95745129       0.00000000      -0.58277885 </v>
    <v>       0.00000000      -4.56457324       0.00000000 </v>
    <v>      -0.70369326       0.00000000      -4.23264040 </v>
   </set>
   <set>
    <v>      -4.03112032       0.00000000       0.57271370 </v>
    <v>       0.00000000      -4.57965489       0.00000000 </v>
    <v>       0.67988192       0.00000000      -4.23929478 </v>
   </set>
  </array>
  <time name="totalsc">  439.12  266.22</time>
  <eigenvalues>
   <array>
    <dimension dim="1">band</dimension>
    <dimension dim="2">kpoint</dimension>
    <dimension dim="3">spin</dimension>
    <field>eigene</field>
    <field>occ</field>
    <set>
     <set comment="spin 1">
      <set comment="kpoint 1">
       <r>  -15.4186    1.0000 </r>
       <r>  -15.3994    1.0000 </r>
       <r>  -15.3984    1.0000 </r>
       <r>  -15.3923    1.0000 </r>
       <r>  -15.3920    1.0000 </r>
       <r>  -15.3902    1.0000 </r>
       <r>  -15.3864    1.0000 </r>
       <r>  -15.3828    1.0000 </r>
       <r>  -15.3820    1.0000 </r>
       <r>  -15.3801    1.0000 </r>
       <r>  -15.3764    1.0000 </r>
       <r>  -15.3757    1.0000 </r>
       <r>  -15.3651    1.0000 </r>
       <r>  -15.3604    1.0000 </r>
       <r>  -15.3452    1.0000 </r>
       <r>  -15.3356    1.0000 </r>
       <r>  -15.3348    1.0000 </r>
       <r>  -15.3268    1.0000 </r>
       <r>  -15.3146    1.0000 </r>
       <r>  -15.3050    1.0000 </r>
       <r>   -8.1766    1.0000 </r>
       <r>   -7.7615    1.0000 </r>
       <r>   -7.1071    1.0000 </r>
       <r>   -6.4997    1.0000 </r>
       <r>   -1.4513    1.0000 </r>
       <r>   -0.2040    1.0000 </r>
       <r>    0.0299    1.0000 </r>
       <r>    0.8492    1.0000 </r>
       <r>    0.9750    1.0000 </r>
       <r>    2.3090    1.0000 </r>
       <r>    2.3262    1.0000 </r>
       <r>    2.4390    1.0000 </r>
       <r>    2.8981    1.0000 </r>
       <r>    2.9104    1.0000 </r>
       <r>    3.4128    1.0000 </r>
       <r>    3.9131    1.0000 </r>
       <r>    4.2218    1.0000 </r>
       <r>    4.5897    1.0000 </r>
       <r>    5.1306    1.0000 </r>
       <r>    5.2880    1.0000 </r>
       <r>    6.3314    0.0000 </r>
       <r>    8.7771    0.0000 </r>
       <r>    8.8867    0.0000 </r>
       <r>    8.9305    0.0000 </r>
       <r>    9.1742    0.0000 </r>
       <r>    9.3657    0.0000 </r>
       <r>   10.0893    0.0000 </r>
       <r>   10.4089    0.0000 </r>
       <r>   10.5180    0.0000 </r>
       <r>   10.7511    0.0000 </r>
       <r>   11.3476    0.0000 </r>
       <r>   11.8008    0.0000 </r>
       <r>   12.0318    0.0000 </r>
       <r>   12.0790    0.0000 </r>
       <r>   12.1464    0.0000 </r>
       <r>   12.6180    0.0000 </r>
       <r>   12.6696    0.0000 </r>
       <r>   13.5878    0.0000 </r>
       <r>   14.3933    0.0000 </r>
       <r>   14.4081    0.0000 </r>
       <r>   14.5484    0.0000 </r>
       <r>   14.6916    0.0000 </r>
       <r>   15.0276    0.0000 </r>
       <r>   15.0365    0.0000 </r>
      </set>
      <set comment="kpoint 2">
       <r>  -15.4173    1.0000 </r>
       <r>  -15.3995    1.0000 </r>
       <r>  -15.3972    1.0000 </r>
       <r>  -15.3923    1.0000 </r>
       <r>  -15.3915    1.0000 </r>
       <r>  -15.3915    1.0000 </r>
       <r>  -15.3871    1.0000 </r>
       <r>  -15.3831    1.0000 </r>
       <r>  -15.3809    1.0000 </r>
       <r>  -15.3803    1.0000 </r>
       <r>  -15.3772    1.0000 </r>
       <r>  -15.3736    1.0000 </r>
       <r>  -15.3640    1.0000 </r>
       <r>  -15.3607    1.0000 </r>
       <r>  -15.3453    1.0000 </r>
       <r>  -15.3356    1.0000 </r>
       <r>  -15.3351    1.0000 </r>
       <r>  -15.3272    1.0000 </r>
       <r>  -15.3142    1.0000 </r>
       <r>  -15.3053    1.0000 </r>
       <r>   -8.1024    1.0000 </r>
       <r>   -7.6942    1.0000 </r>
       <r>   -7.0843    1.0000 </r>
       <r>   -6.5086    1.0000 </r>
       <r>   -1.7386    1.0000 </r>
       <r>   -0.3993    1.0000 </r>
       <r>   -0.2365    1.0000 </r>
       <r>    0.4718    1.0000 </r>
       <r>    0.8577    1.0000 </r>
       <r>    2.3535    1.0000 </r>
       <r>    2.4377    1.0000 </r>
       <r>    2.8600    1.0000 </r>
       <r>    3.0109    1.0000 </r>
       <r>    3.4370    1.0000 </r>
       <r>    3.4968    1.0000 </r>
       <r>    3.9871    1.0000 </r>
       <r>    4.2716    1.0000 </r>
       <r>    4.9219    1.0000 </r>
       <r>    4.9640    1.0000 </r>
       <r>    5.3405    1.0000 </r>
       <r>    6.3425    0.0000 </r>
       <r>    8.1994    0.0000 </r>
       <r>    8.8546    0.0000 </r>
       <r>    8.9882    0.0000 </r>
       <r>    9.0696    0.0000 </r>
       <r>    9.1634    0.0000 </r>
       <r>    9.9607    0.0000 </r>
       <r>   10.2474    0.0000 </r>
       <r>   10.2917    0.0000 </r>
       <r>   10.3898    0.0000 </r>
       <r>   11.2782    0.0000 </r>
       <r>   11.2828    0.0000 </r>
       <r>   11.5582    0.0000 </r>
       <r>   12.0078    0.0000 </r>
       <r>   12.0974    0.0000 </r>
       <r>   12.6085    0.0000 </r>
       <r>   13.0599    0.0000 </r>
       <r>   13.6537    0.0000 </r>
       <r>   13.9928    0.0000 </r>
       <r>   14.5742    0.0000 </r>
       <r>   14.8809    0.0000 </r>
       <r>   15.3466    0.0000 </r>
       <r>   15.3978    0.0000 </r>
       <r>   15.6533    0.0000 </r>
      </set>
      <set comment="kpoint 3">
       <r>  -15.4140    1.0000 </r>
       <r>  -15.4003    1.0000 </r>
       <r>  -15.3945    1.0000 </r>
       <r>  -15.3944    1.0000 </r>
       <r>  -15.3938    1.0000 </r>
       <r>  -15.3899    1.0000 </r>
       <r>  -15.3875    1.0000 </r>
       <r>  -15.3843    1.0000 </r>
       <r>  -15.3807    1.0000 </r>
       <r>  -15.3792    1.0000 </r>
       <r>  -15.3772    1.0000 </r>
       <r>  -15.3687    1.0000 </r>
       <r>  -15.3630    1.0000 </r>
       <r>  -15.3603    1.0000 </r>
       <r>  -15.3452    1.0000 </r>
       <r>  -15.3372    1.0000 </r>
       <r>  -15.3339    1.0000 </r>
       <r>  -15.3282    1.0000 </r>
       <r>  -15.3132    1.0000 </r>
       <r>  -15.3063    1.0000 </r>
       <r>   -7.8928    1.0000 </r>
       <r>   -7.5039    1.0000 </r>
       <r>   -7.0498    1.0000 </r>
       <r>   -6.5570    1.0000 </r>
       <r>   -2.2663    1.0000 </r>
       <r>   -1.1164    1.0000 </r>
       <r>   -0.7997    1.0000 </r>
       <r>    0.0297    1.0000 </r>
       <r>    0.8755    1.0000 </r>
       <r>    2.6446    1.0000 </r>
       <r>    2.7573    1.0000 </r>
       <r>    3.2958    1.0000 </r>
       <r>    3.4851    1.0000 </r>
       <r>    3.7049    1.0000 </r>
       <r>    3.8899    1.0000 </r>
       <r>    4.3696    1.0000 </r>
       <r>    4.6297    1.0000 </r>
       <r>    4.7564    1.0000 </r>
       <r>    5.2787    1.0000 </r>
       <r>    5.5831    1.0000 </r>
       <r>    6.6654    0.0000 </r>
       <r>    7.1826    0.0000 </r>
       <r>    7.9194    0.0000 </r>
       <r>    8.1038    0.0000 </r>
       <r>    8.8604    0.0000 </r>
       <r>    8.9420    0.0000 </r>
       <r>    9.3323    0.0000 </r>
       <r>    9.4444    0.0000 </r>
       <r>   10.3189    0.0000 </r>
       <r>   10.5821    0.0000 </r>
       <r>   10.5926    0.0000 </r>
       <r>   11.1423    0.0000 </r>
       <r>   11.2431    0.0000 </r>
       <r>   12.2728    0.0000 </r>
       <r>   12.6786    0.0000 </r>
       <r>   12.6806    0.0000 </r>
       <r>   13.3223    0.0000 </r>
       <r>   13.5420    0.0000 </r>
       <r>   14.1352    0.0000 </r>
       <r>   14.7077    0.0000 </r>
       <r>   15.1877    0.0000 </r>
       <r>   15.5469    0.0000 </r>
       <r>   15.9288    0.0000 </r>
       <r>   16.2983    0.0000 </r>
      </set>
      <set comment="kpoint 4">
       <r>  -15.4097    1.0000 </r>
       <r>  -15.4021    1.0000 </r>
       <r>  -15.3970    1.0000 </r>
       <r>  -15.3963    1.0000 </r>
       <r>  -15.3921    1.0000 </r>
       <r>  -15.3891    1.0000 </r>
       <r>  -15.3871    1.0000 </r>
       <r>  -15.3854    1.0000 </r>
       <r>  -15.3821    1.0000 </r>
       <r>  -15.3807    1.0000 </r>
       <r>  -15.3720    1.0000 </r>
       <r>  -15.3646    1.0000 </r>
       <r>  -15.3637    1.0000 </r>
       <r>  -15.3590    1.0000 </r>
       <r>  -15.3438    1.0000 </r>
       <r>  -15.3390    1.0000 </r>
       <r>  -15.3326    1.0000 </r>
       <r>  -15.3292    1.0000 </r>
       <r>  -15.3118    1.0000 </r>
       <r>  -15.3076    1.0000 </r>
       <r>   -7.5924    1.0000 </r>
       <r>   -7.2279    1.0000 </r>
       <r>   -7.0932    1.0000 </r>
       <r>   -6.6913    1.0000 </r>
       <r>   -2.5942    1.0000 </r>
       <r>   -1.9590    1.0000 </r>
       <r>   -1.0525    1.0000 </r>
       <r>   -0.5667    1.0000 </r>
       <r>    1.3266    1.0000 </r>
       <r>    2.5380    1.0000 </r>
       <r>    3.2271    1.0000 </r>
       <r>    3.7057    1.0000 </r>
       <r>    3.8647    1.0000 </r>
       <r>    4.0871    1.0000 </r>
       <r>    4.1809    1.0000 </r>
       <r>    4.3625    1.0000 </r>
       <r>    4.7021    1.0000 </r>
       <r>    5.1625    1.0000 </r>
       <r>    5.6664    1.0000 </r>
       <r>    5.8772    1.0000 </r>
       <r>    6.6664    0.0000 </r>
       <r>    7.0753    0.0000 </r>
       <r>    7.2428    0.0000 </r>
       <r>    7.3176    0.0000 </r>
       <r>    7.9177    0.0000 </r>
       <r>    8.0143    0.0000 </r>
       <r>    8.6644    0.0000 </r>
       <r>    8.8962    0.0000 </r>
       <r>    9.3154    0.0000 </r>
       <r>    9.6063    0.0000 </r>
       <r>   11.4618    0.0000 </r>
       <r>   11.7503    0.0000 </r>
       <r>   12.4119    0.0000 </r>
       <r>   12.6918    0.0000 </r>
       <r>   13.1028    0.0000 </r>
       <r>   13.6022    0.0000 </r>
       <r>   13.6452    0.0000 </r>
       <r>   14.1594    0.0000 </r>
       <r>   14.2930    0.0000 </r>
       <r>   14.6450    0.0000 </r>
       <r>   14.7515    0.0000 </r>
       <r>   15.7196    0.0000 </r>
       <r>   16.5464    0.0000 </r>
       <r>   16.6341    0.0000 </r>
      </set>
      <set comment="kpoint 5">
       <r>  -15.4063    1.0000 </r>
       <r>  -15.4045    1.0000 </r>
       <r>  -15.3981    1.0000 </r>
       <r>  -15.3974    1.0000 </r>
       <r>  -15.3907    1.0000 </r>
       <r>  -15.3893    1.0000 </r>
       <r>  -15.3871    1.0000 </r>
       <r>  -15.3855    1.0000 </r>
       <r>  -15.3829    1.0000 </r>
       <r>  -15.3812    1.0000 </r>
       <r>  -15.3684    1.0000 </r>
       <r>  -15.3664    1.0000 </r>
       <r>  -15.3615    1.0000 </r>
       <r>  -15.3593    1.0000 </r>
       <r>  -15.3422    1.0000 </r>
       <r>  -15.3404    1.0000 </r>
       <r>  -15.3319    1.0000 </r>
       <r>  -15.3296    1.0000 </r>
       <r>  -15.3109    1.0000 </r>
       <r>  -15.3085    1.0000 </r>
       <r>   -7.2974    1.0000 </r>
       <r>   -7.2800    1.0000 </r>
       <r>   -6.9401    1.0000 </r>
       <r>   -6.9206    1.0000 </r>
       <r>   -2.5018    1.0000 </r>
       <r>   -2.4879    1.0000 </r>
       <r>   -0.9809    1.0000 </r>
       <r>   -0.9662    1.0000 </r>
       <r>    1.9393    1.0000 </r>
       <r>    1.9579    1.0000 </r>
       <r>    3.6781    1.0000 </r>
       <r>    3.7063    1.0000 </r>
       <r>    4.0999    1.0000 </r>
       <r>    4.1351    1.0000 </r>
       <r>    4.4360    1.0000 </r>
       <r>    4.4481    1.0000 </r>
       <r>    5.0224    1.0000 </r>
       <r>    5.0296    1.0000 </r>
       <r>    5.6367    1.0000 </r>
       <r>    5.6420    1.0000 </r>
       <r>    7.0666    0.0000 </r>
       <r>    7.0697    0.0000 </r>
       <r>    7.2330    0.0000 </r>
       <r>    7.2596    0.0000 </r>
       <r>    7.5481    0.0000 </r>
       <r>    7.5506    0.0000 </r>
       <r>    8.3521    0.0000 </r>
       <r>    8.3585    0.0000 </r>
       <r>    8.9511    0.0000 </r>
       <r>    8.9762    0.0000 </r>
       <r>   11.9010    0.0000 </r>
       <r>   11.9125    0.0000 </r>
       <r>   13.1107    0.0000 </r>
       <r>   13.1183    0.0000 </r>
       <r>   13.7792    0.0000 </r>
       <r>   13.7938    0.0000 </r>
       <r>   13.8978    0.0000 </r>
       <r>   13.9020    0.0000 </r>
       <r>   15.0996    0.0000 </r>
       <r>   15.1007    0.0000 </r>
       <r>   15.6125    0.0000 </r>
       <r>   15.6282    0.0000 </r>
       <r>   16.0052    0.0000 </r>
       <r>   16.0054    0.0000 </r>
      </set>
      <set comment="kpoint 6">
       <r>  -15.4149    1.0000 </r>
       <r>  -15.3969    1.0000 </r>
       <r>  -15.3966    1.0000 </r>
       <r>  -15.3924    1.0000 </r>
       <r>  -15.3919    1.0000 </r>
       <r>  -15.3910    1.0000 </r>
       <r>  -15.3904    1.0000 </r>
       <r>  -15.3850    1.0000 </r>
       <r>  -15.3818    1.0000 </r>
       <r>  -15.3790    1.0000 </r>
       <r>  -15.3789    1.0000 </r>
       <r>  -15.3732    1.0000 </r>
       <r>  -15.3631    1.0000 </r>
       <r>  -15.3605    1.0000 </r>
       <r>  -15.3436    1.0000 </r>
       <r>  -15.3362    1.0000 </r>
       <r>  -15.3336    1.0000 </r>
       <r>  -15.3283    1.0000 </r>
       <r>  -15.3151    1.0000 </r>
       <r>  -15.3065    1.0000 </r>
       <r>   -8.1047    1.0000 </r>
       <r>   -7.7008    1.0000 </r>
       <r>   -7.0685    1.0000 </r>
       <r>   -6.4977    1.0000 </r>
       <r>   -1.5662    1.0000 </r>
       <r>   -0.4571    1.0000 </r>
       <r>    0.0238    1.0000 </r>
       <r>    0.4201    1.0000 </r>
       <r>    0.8858    1.0000 </r>
       <r>    2.2252    1.0000 </r>
       <r>    2.5179    1.0000 </r>
       <r>    2.6305    1.0000 </r>
       <r>    2.8961    1.0000 </r>
       <r>    2.9777    1.0000 </r>
       <r>    3.6185    1.0000 </r>
       <r>    3.9496    1.0000 </r>
       <r>    4.2347    1.0000 </r>
       <r>    4.8314    1.0000 </r>
       <r>    5.1500    1.0000 </r>
       <r>    5.2276    1.0000 </r>
       <r>    6.4468    0.0000 </r>
       <r>    8.3176    0.0000 </r>
       <r>    8.8356    0.0000 </r>
       <r>    9.0669    0.0000 </r>
       <r>    9.1873    0.0000 </r>
       <r>    9.3111    0.0000 </r>
       <r>    9.7711    0.0000 </r>
       <r>   10.1682    0.0000 </r>
       <r>   10.2531    0.0000 </r>
       <r>   10.6555    0.0000 </r>
       <r>   11.0872    0.0000 </r>
       <r>   11.3905    0.0000 </r>
       <r>   11.7685    0.0000 </r>
       <r>   11.7768    0.0000 </r>
       <r>   12.2718    0.0000 </r>
       <r>   12.3614    0.0000 </r>
       <r>   12.6083    0.0000 </r>
       <r>   13.9258    0.0000 </r>
       <r>   14.1355    0.0000 </r>
       <r>   14.4955    0.0000 </r>
       <r>   15.1161    0.0000 </r>
       <r>   15.2060    0.0000 </r>
       <r>   15.2584    0.0000 </r>
       <r>   15.4135    0.0000 </r>
      </set>
      <set comment="kpoint 7">
       <r>  -15.4139    1.0000 </r>
       <r>  -15.3968    1.0000 </r>
       <r>  -15.3958    1.0000 </r>
       <r>  -15.3930    1.0000 </r>
       <r>  -15.3926    1.0000 </r>
       <r>  -15.3909    1.0000 </r>
       <r>  -15.3900    1.0000 </r>
       <r>  -15.3856    1.0000 </r>
       <r>  -15.3821    1.0000 </r>
       <r>  -15.3809    1.0000 </r>
       <r>  -15.3767    1.0000 </r>
       <r>  -15.3714    1.0000 </r>
       <r>  -15.3626    1.0000 </r>
       <r>  -15.3603    1.0000 </r>
       <r>  -15.3438    1.0000 </r>
       <r>  -15.3357    1.0000 </r>
       <r>  -15.3343    1.0000 </r>
       <r>  -15.3286    1.0000 </r>
       <r>  -15.3147    1.0000 </r>
       <r>  -15.3068    1.0000 </r>
       <r>   -8.0314    1.0000 </r>
       <r>   -7.6346    1.0000 </r>
       <r>   -7.0458    1.0000 </r>
       <r>   -6.5045    1.0000 </r>
       <r>   -1.7856    1.0000 </r>
       <r>   -0.5488    1.0000 </r>
       <r>   -0.2744    1.0000 </r>
       <r>    0.2833    1.0000 </r>
       <r>    0.8043    1.0000 </r>
       <r>    2.0050    1.0000 </r>
       <r>    2.1708    1.0000 </r>
       <r>    3.1788    1.0000 </r>
       <r>    3.2139    1.0000 </r>
       <r>    3.3426    1.0000 </r>
       <r>    3.4158    1.0000 </r>
       <r>    4.0444    1.0000 </r>
       <r>    4.5023    1.0000 </r>
       <r>    4.9945    1.0000 </r>
       <r>    5.2324    1.0000 </r>
       <r>    5.3088    1.0000 </r>
       <r>    6.4725    0.0000 </r>
       <r>    7.8086    0.0000 </r>
       <r>    8.4211    0.0000 </r>
       <r>    8.7354    0.0000 </r>
       <r>    8.9942    0.0000 </r>
       <r>    9.2972    0.0000 </r>
       <r>    9.5994    0.0000 </r>
       <r>    9.9694    0.0000 </r>
       <r>   10.2640    0.0000 </r>
       <r>   10.8793    0.0000 </r>
       <r>   10.9875    0.0000 </r>
       <r>   11.3333    0.0000 </r>
       <r>   11.5788    0.0000 </r>
       <r>   12.1061    0.0000 </r>
       <r>   12.3330    0.0000 </r>
       <r>   12.6967    0.0000 </r>
       <r>   12.9418    0.0000 </r>
       <r>   13.9622    0.0000 </r>
       <r>   14.1991    0.0000 </r>
       <r>   14.5135    0.0000 </r>
       <r>   14.8218    0.0000 </r>
       <r>   15.0207    0.0000 </r>
       <r>   15.2489    0.0000 </r>
       <r>   15.5556    0.0000 </r>
      </set>
      <set comment="kpoint 8">
       <r>  -15.4113    1.0000 </r>
       <r>  -15.3977    1.0000 </r>
       <r>  -15.3959    1.0000 </r>
       <r>  -15.3950    1.0000 </r>
       <r>  -15.3933    1.0000 </r>
       <r>  -15.3899    1.0000 </r>
       <r>  -15.3884    1.0000 </r>
       <r>  -15.3867    1.0000 </r>
       <r>  -15.3836    1.0000 </r>
       <r>  -15.3820    1.0000 </r>
       <r>  -15.3738    1.0000 </r>
       <r>  -15.3669    1.0000 </r>
       <r>  -15.3626    1.0000 </r>
       <r>  -15.3587    1.0000 </r>
       <r>  -15.3436    1.0000 </r>
       <r>  -15.3359    1.0000 </r>
       <r>  -15.3345    1.0000 </r>
       <r>  -15.3293    1.0000 </r>
       <r>  -15.3138    1.0000 </r>
       <r>  -15.3076    1.0000 </r>
       <r>   -7.8249    1.0000 </r>
       <r>   -7.4481    1.0000 </r>
       <r>   -7.0105    1.0000 </r>
       <r>   -6.5461    1.0000 </r>
       <r>   -2.2235    1.0000 </r>
       <r>   -1.0854    1.0000 </r>
       <r>   -0.7980    1.0000 </r>
       <r>   -0.0606    1.0000 </r>
       <r>    0.9542    1.0000 </r>
       <r>    1.9967    1.0000 </r>
       <r>    2.1626    1.0000 </r>
       <r>    3.1950    1.0000 </r>
       <r>    3.5675    1.0000 </r>
       <r>    3.6345    1.0000 </r>
       <r>    4.0203    1.0000 </r>
       <r>    4.0764    1.0000 </r>
       <r>    4.8384    1.0000 </r>
       <r>    5.1068    1.0000 </r>
       <r>    5.3388    1.0000 </r>
       <r>    5.5425    1.0000 </r>
       <r>    6.7816    0.0000 </r>
       <r>    7.2788    0.0000 </r>
       <r>    7.5192    0.0000 </r>
       <r>    7.6826    0.0000 </r>
       <r>    8.8710    0.0000 </r>
       <r>    8.9555    0.0000 </r>
       <r>    9.2953    0.0000 </r>
       <r>    9.8453    0.0000 </r>
       <r>   10.3661    0.0000 </r>
       <r>   10.5821    0.0000 </r>
       <r>   10.9493    0.0000 </r>
       <r>   11.4047    0.0000 </r>
       <r>   11.7753    0.0000 </r>
       <r>   11.9625    0.0000 </r>
       <r>   12.7617    0.0000 </r>
       <r>   13.0548    0.0000 </r>
       <r>   13.5396    0.0000 </r>
       <r>   13.9814    0.0000 </r>
       <r>   14.0217    0.0000 </r>
       <r>   14.4070    0.0000 </r>
       <r>   14.8080    0.0000 </r>
       <r>   15.5595    0.0000 </r>
       <r>   15.7453    0.0000 </r>
       <r>   16.2252    0.0000 </r>
      </set>
      <set comment="kpoint 9">
       <r>  -15.4079    1.0000 </r>
       <r>  -15.4008    1.0000 </r>
       <r>  -15.3974    1.0000 </r>
       <r>  -15.3970    1.0000 </r>
       <r>  -15.3926    1.0000 </r>
       <r>  -15.3904    1.0000 </r>
       <r>  -15.3876    1.0000 </r>
       <r>  -15.3866    1.0000 </r>
       <r>  -15.3845    1.0000 </r>
       <r>  -15.3826    1.0000 </r>
       <r>  -15.3700    1.0000 </r>
       <r>  -15.3639    1.0000 </r>
       <r>  -15.3621    1.0000 </r>
       <r>  -15.3575    1.0000 </r>
       <r>  -15.3423    1.0000 </r>
       <r>  -15.3376    1.0000 </r>
       <r>  -15.3333    1.0000 </r>
       <r>  -15.3301    1.0000 </r>
       <r>  -15.3126    1.0000 </r>
       <r>  -15.3087    1.0000 </r>
       <r>   -7.5309    1.0000 </r>
       <r>   -7.1796    1.0000 </r>
       <r>   -7.0499    1.0000 </r>
       <r>   -6.6688    1.0000 </r>
       <r>   -2.5076    1.0000 </r>
       <r>   -1.8831    1.0000 </r>
       <r>   -0.9882    1.0000 </r>
       <r>   -0.5504    1.0000 </r>
       <r>    1.3935    1.0000 </r>
       <r>    2.2236    1.0000 </r>
       <r>    2.4309    1.0000 </r>
       <r>    3.2920    1.0000 </r>
       <r>    3.3853    1.0000 </r>
       <r>    3.6430    1.0000 </r>
       <r>    4.1246    1.0000 </r>
       <r>    4.4492    1.0000 </r>
       <r>    5.0108    1.0000 </r>
       <r>    5.1287    1.0000 </r>
       <r>    5.4251    1.0000 </r>
       <r>    5.5093    1.0000 </r>
       <r>    6.9270    0.0000 </r>
       <r>    7.0892    0.0000 </r>
       <r>    7.1719    0.0000 </r>
       <r>    7.4849    0.0000 </r>
       <r>    8.3567    0.0000 </r>
       <r>    8.4818    0.0000 </r>
       <r>    8.7791    0.0000 </r>
       <r>    9.4844    0.0000 </r>
       <r>    9.9366    0.0000 </r>
       <r>   10.2569    0.0000 </r>
       <r>   11.3665    0.0000 </r>
       <r>   11.6232    0.0000 </r>
       <r>   11.9656    0.0000 </r>
       <r>   12.7386    0.0000 </r>
       <r>   12.8847    0.0000 </r>
       <r>   13.2043    0.0000 </r>
       <r>   14.0563    0.0000 </r>
       <r>   14.3542    0.0000 </r>
       <r>   14.3895    0.0000 </r>
       <r>   14.8436    0.0000 </r>
       <r>   15.3266    0.0000 </r>
       <r>   15.6862    0.0000 </r>
       <r>   16.7838    0.0000 </r>
       <r>   16.8878    0.0000 </r>
      </set>
      <set comment="kpoint 10">
       <r>  -15.4048    1.0000 </r>
       <r>  -15.4038    1.0000 </r>
       <r>  -15.3980    1.0000 </r>
       <r>  -15.3979    1.0000 </r>
       <r>  -15.3921    1.0000 </r>
       <r>  -15.3912    1.0000 </r>
       <r>  -15.3872    1.0000 </r>
       <r>  -15.3869    1.0000 </r>
       <r>  -15.3842    1.0000 </r>
       <r>  -15.3829    1.0000 </r>
       <r>  -15.3671    1.0000 </r>
       <r>  -15.3654    1.0000 </r>
       <r>  -15.3598    1.0000 </r>
       <r>  -15.3576    1.0000 </r>
       <r>  -15.3407    1.0000 </r>
       <r>  -15.3389    1.0000 </r>
       <r>  -15.3326    1.0000 </r>
       <r>  -15.3304    1.0000 </r>
       <r>  -15.3118    1.0000 </r>
       <r>  -15.3095    1.0000 </r>
       <r>   -7.2450    1.0000 </r>
       <r>   -7.2280    1.0000 </r>
       <r>   -6.9033    1.0000 </r>
       <r>   -6.8844    1.0000 </r>
       <r>   -2.4077    1.0000 </r>
       <r>   -2.3947    1.0000 </r>
       <r>   -0.9173    1.0000 </r>
       <r>   -0.9037    1.0000 </r>
       <r>    1.9342    1.0000 </r>
       <r>    1.9533    1.0000 </r>
       <r>    2.9796    1.0000 </r>
       <r>    2.9977    1.0000 </r>
       <r>    3.4035    1.0000 </r>
       <r>    3.4267    1.0000 </r>
       <r>    4.2771    1.0000 </r>
       <r>    4.2995    1.0000 </r>
       <r>    5.2337    1.0000 </r>
       <r>    5.2363    1.0000 </r>
       <r>    5.3984    1.0000 </r>
       <r>    5.4065    1.0000 </r>
       <r>    6.8683    0.0000 </r>
       <r>    6.8812    0.0000 </r>
       <r>    7.3017    0.0000 </r>
       <r>    7.3123    0.0000 </r>
       <r>    8.5171    0.0000 </r>
       <r>    8.5208    0.0000 </r>
       <r>    8.8525    0.0000 </r>
       <r>    8.8607    0.0000 </r>
       <r>    9.6746    0.0000 </r>
       <r>    9.6896    0.0000 </r>
       <r>   11.7468    0.0000 </r>
       <r>   11.7568    0.0000 </r>
       <r>   12.2189    0.0000 </r>
       <r>   12.2227    0.0000 </r>
       <r>   13.7425    0.0000 </r>
       <r>   13.7545    0.0000 </r>
       <r>   14.5092    0.0000 </r>
       <r>   14.5104    0.0000 </r>
       <r>   15.4195    0.0000 </r>
       <r>   15.4196    0.0000 </r>
       <r>   15.7114    0.0000 </r>
       <r>   15.7132    0.0000 </r>
       <r>   16.2025    0.0000 </r>
       <r>   16.2122    0.0000 </r>
      </set>
      <set comment="kpoint 11">
       <r>  -15.4052    1.0000 </r>
       <r>  -15.3972    1.0000 </r>
       <r>  -15.3946    1.0000 </r>
       <r>  -15.3938    1.0000 </r>
       <r>  -15.3931    1.0000 </r>
       <r>  -15.3922    1.0000 </r>
       <r>  -15.3880    1.0000 </r>
       <r>  -15.3876    1.0000 </r>
       <r>  -15.3843    1.0000 </r>
       <r>  -15.3836    1.0000 </r>
       <r>  -15.3754    1.0000 </r>
       <r>  -15.3683    1.0000 </r>
       <r>  -15.3615    1.0000 </r>
       <r>  -15.3590    1.0000 </r>
       <r>  -15.3395    1.0000 </r>
       <r>  -15.3384    1.0000 </r>
       <r>  -15.3327    1.0000 </r>
       <r>  -15.3305    1.0000 </r>
       <r>  -15.3160    1.0000 </r>
       <r>  -15.3102    1.0000 </r>
       <r>   -7.8970    1.0000 </r>
       <r>   -7.5301    1.0000 </r>
       <r>   -6.9731    1.0000 </r>
       <r>   -6.5166    1.0000 </r>
       <r>   -1.8541    1.0000 </r>
       <r>   -0.9720    1.0000 </r>
       <r>   -0.4401    1.0000 </r>
       <r>   -0.1954    1.0000 </r>
       <r>    0.8868    1.0000 </r>
       <r>    2.4060    1.0000 </r>
       <r>    2.7499    1.0000 </r>
       <r>    2.9208    1.0000 </r>
       <r>    2.9773    1.0000 </r>
       <r>    3.2022    1.0000 </r>
       <r>    3.9352    1.0000 </r>
       <r>    4.0795    1.0000 </r>
       <r>    4.3067    1.0000 </r>
       <r>    5.0396    1.0000 </r>
       <r>    5.1722    1.0000 </r>
       <r>    5.4423    1.0000 </r>
       <r>    6.7189    0.0000 </r>
       <r>    7.0655    0.0000 </r>
       <r>    8.4002    0.0000 </r>
       <r>    8.5146    0.0000 </r>
       <r>    8.6141    0.0000 </r>
       <r>    9.1696    0.0000 </r>
       <r>    9.2920    0.0000 </r>
       <r>    9.7575    0.0000 </r>
       <r>   10.4324    0.0000 </r>
       <r>   10.6038    0.0000 </r>
       <r>   10.7013    0.0000 </r>
       <r>   10.8710    0.0000 </r>
       <r>   11.4650    0.0000 </r>
       <r>   11.5049    0.0000 </r>
       <r>   12.1438    0.0000 </r>
       <r>   12.6653    0.0000 </r>
       <r>   13.1513    0.0000 </r>
       <r>   13.4866    0.0000 </r>
       <r>   14.7096    0.0000 </r>
       <r>   14.7814    0.0000 </r>
       <r>   15.3757    0.0000 </r>
       <r>   15.3924    0.0000 </r>
       <r>   15.5757    0.0000 </r>
       <r>   16.1325    0.0000 </r>
      </set>
      <set comment="kpoint 12">
       <r>  -15.4059    1.0000 </r>
       <r>  -15.3973    1.0000 </r>
       <r>  -15.3961    1.0000 </r>
       <r>  -15.3940    1.0000 </r>
       <r>  -15.3926    1.0000 </r>
       <r>  -15.3919    1.0000 </r>
       <r>  -15.3880    1.0000 </r>
       <r>  -15.3872    1.0000 </r>
       <r>  -15.3850    1.0000 </r>
       <r>  -15.3840    1.0000 </r>
       <r>  -15.3742    1.0000 </r>
       <r>  -15.3667    1.0000 </r>
       <r>  -15.3621    1.0000 </r>
       <r>  -15.3576    1.0000 </r>
       <r>  -15.3398    1.0000 </r>
       <r>  -15.3378    1.0000 </r>
       <r>  -15.3328    1.0000 </r>
       <r>  -15.3311    1.0000 </r>
       <r>  -15.3158    1.0000 </r>
       <r>  -15.3104    1.0000 </r>
       <r>   -7.8269    1.0000 </r>
       <r>   -7.4676    1.0000 </r>
       <r>   -6.9501    1.0000 </r>
       <r>   -6.5162    1.0000 </r>
       <r>   -1.9289    1.0000 </r>
       <r>   -0.9280    1.0000 </r>
       <r>   -0.5425    1.0000 </r>
       <r>   -0.2872    1.0000 </r>
       <r>    0.9519    1.0000 </r>
       <r>    1.7326    1.0000 </r>
       <r>    2.0565    1.0000 </r>
       <r>    2.9254    1.0000 </r>
       <r>    3.3649    1.0000 </r>
       <r>    3.6156    1.0000 </r>
       <r>    3.7022    1.0000 </r>
       <r>    4.0797    1.0000 </r>
       <r>    4.7718    1.0000 </r>
       <r>    5.0751    1.0000 </r>
       <r>    5.2279    1.0000 </r>
       <r>    5.4625    1.0000 </r>
       <r>    6.7563    0.0000 </r>
       <r>    7.1365    0.0000 </r>
       <r>    7.6700    0.0000 </r>
       <r>    7.8092    0.0000 </r>
       <r>    8.9398    0.0000 </r>
       <r>    9.0346    0.0000 </r>
       <r>    9.6440    0.0000 </r>
       <r>    9.9054    0.0000 </r>
       <r>   10.4772    0.0000 </r>
       <r>   10.5650    0.0000 </r>
       <r>   10.7371    0.0000 </r>
       <r>   11.3998    0.0000 </r>
       <r>   11.4361    0.0000 </r>
       <r>   12.4266    0.0000 </r>
       <r>   12.4556    0.0000 </r>
       <r>   12.9246    0.0000 </r>
       <r>   13.3421    0.0000 </r>
       <r>   13.8742    0.0000 </r>
       <r>   13.9796    0.0000 </r>
       <r>   14.3623    0.0000 </r>
       <r>   14.7741    0.0000 </r>
       <r>   15.5286    0.0000 </r>
       <r>   15.7049    0.0000 </r>
       <r>   15.9664    0.0000 </r>
      </set>
      <set comment="kpoint 13">
       <r>  -15.4077    1.0000 </r>
       <r>  -15.4007    1.0000 </r>
       <r>  -15.3966    1.0000 </r>
       <r>  -15.3955    1.0000 </r>
       <r>  -15.3930    1.0000 </r>
       <r>  -15.3913    1.0000 </r>
       <r>  -15.3889    1.0000 </r>
       <r>  -15.3866    1.0000 </r>
       <r>  -15.3843    1.0000 </r>
       <r>  -15.3841    1.0000 </r>
       <r>  -15.3715    1.0000 </r>
       <r>  -15.3630    1.0000 </r>
       <r>  -15.3622    1.0000 </r>
       <r>  -15.3555    1.0000 </r>
       <r>  -15.3396    1.0000 </r>
       <r>  -15.3367    1.0000 </r>
       <r>  -15.3329    1.0000 </r>
       <r>  -15.3324    1.0000 </r>
       <r>  -15.3152    1.0000 </r>
       <r>  -15.3107    1.0000 </r>
       <r>   -7.6313    1.0000 </r>
       <r>   -7.2938    1.0000 </r>
       <r>   -6.9115    1.0000 </r>
       <r>   -6.5353    1.0000 </r>
       <r>   -2.1192    1.0000 </r>
       <r>   -1.0406    1.0000 </r>
       <r>   -0.8565    1.0000 </r>
       <r>   -0.3819    1.0000 </r>
       <r>    1.1880    1.0000 </r>
       <r>    1.3008    1.0000 </r>
       <r>    1.5639    1.0000 </r>
       <r>    2.6982    1.0000 </r>
       <r>    2.8134    1.0000 </r>
       <r>    3.7899    1.0000 </r>
       <r>    3.9182    1.0000 </r>
       <r>    4.2920    1.0000 </r>
       <r>    4.6962    1.0000 </r>
       <r>    4.9428    1.0000 </r>
       <r>    5.0546    1.0000 </r>
       <r>    5.3117    1.0000 </r>
       <r>    6.7307    0.0000 </r>
       <r>    7.1912    0.0000 </r>
       <r>    7.8382    0.0000 </r>
       <r>    8.2804    0.0000 </r>
       <r>    8.5167    0.0000 </r>
       <r>    8.9656    0.0000 </r>
       <r>    9.3092    0.0000 </r>
       <r>   10.3349    0.0000 </r>
       <r>   10.8355    0.0000 </r>
       <r>   10.9570    0.0000 </r>
       <r>   11.0199    0.0000 </r>
       <r>   11.4340    0.0000 </r>
       <r>   11.6824    0.0000 </r>
       <r>   12.7361    0.0000 </r>
       <r>   12.9889    0.0000 </r>
       <r>   13.2386    0.0000 </r>
       <r>   13.8104    0.0000 </r>
       <r>   13.9022    0.0000 </r>
       <r>   14.1851    0.0000 </r>
       <r>   14.7128    0.0000 </r>
       <r>   15.1774    0.0000 </r>
       <r>   15.3704    0.0000 </r>
       <r>   16.0607    0.0000 </r>
       <r>   16.1557    0.0000 </r>
      </set>
      <set comment="kpoint 14">
       <r>  -15.4091    1.0000 </r>
       <r>  -15.4054    1.0000 </r>
       <r>  -15.3978    1.0000 </r>
       <r>  -15.3968    1.0000 </r>
       <r>  -15.3936    1.0000 </r>
       <r>  -15.3909    1.0000 </r>
       <r>  -15.3900    1.0000 </r>
       <r>  -15.3877    1.0000 </r>
       <r>  -15.3829    1.0000 </r>
       <r>  -15.3820    1.0000 </r>
       <r>  -15.3683    1.0000 </r>
       <r>  -15.3633    1.0000 </r>
       <r>  -15.3582    1.0000 </r>
       <r>  -15.3541    1.0000 </r>
       <r>  -15.3383    1.0000 </r>
       <r>  -15.3357    1.0000 </r>
       <r>  -15.3337    1.0000 </r>
       <r>  -15.3327    1.0000 </r>
       <r>  -15.3143    1.0000 </r>
       <r>  -15.3112    1.0000 </r>
       <r>   -7.3584    1.0000 </r>
       <r>   -7.0498    1.0000 </r>
       <r>   -6.9366    1.0000 </r>
       <r>   -6.6206    1.0000 </r>
       <r>   -2.2583    1.0000 </r>
       <r>   -1.6730    1.0000 </r>
       <r>   -0.8336    1.0000 </r>
       <r>   -0.5585    1.0000 </r>
       <r>    1.3670    1.0000 </r>
       <r>    1.5565    1.0000 </r>
       <r>    1.5907    1.0000 </r>
       <r>    2.5119    1.0000 </r>
       <r>    2.6307    1.0000 </r>
       <r>    3.3006    1.0000 </r>
       <r>    3.4382    1.0000 </r>
       <r>    4.0736    1.0000 </r>
       <r>    4.3438    1.0000 </r>
       <r>    4.8162    1.0000 </r>
       <r>    4.8317    1.0000 </r>
       <r>    5.3101    1.0000 </r>
       <r>    6.5255    0.0000 </r>
       <r>    7.7973    0.0000 </r>
       <r>    7.9293    0.0000 </r>
       <r>    8.8400    0.0000 </r>
       <r>    9.0027    0.0000 </r>
       <r>    9.3123    0.0000 </r>
       <r>    9.5351    0.0000 </r>
       <r>   10.5032    0.0000 </r>
       <r>   10.6305    0.0000 </r>
       <r>   11.0143    0.0000 </r>
       <r>   11.1018    0.0000 </r>
       <r>   11.5378    0.0000 </r>
       <r>   11.5881    0.0000 </r>
       <r>   11.8925    0.0000 </r>
       <r>   12.9392    0.0000 </r>
       <r>   13.7452    0.0000 </r>
       <r>   14.0186    0.0000 </r>
       <r>   14.5269    0.0000 </r>
       <r>   15.0433    0.0000 </r>
       <r>   15.6961    0.0000 </r>
       <r>   15.8539    0.0000 </r>
       <r>   16.2510    0.0000 </r>
       <r>   16.4128    0.0000 </r>
       <r>   16.8696    0.0000 </r>
      </set>
      <set comment="kpoint 15">
       <r>  -15.4089    1.0000 </r>
       <r>  -15.4084    1.0000 </r>
       <r>  -15.3987    1.0000 </r>
       <r>  -15.3978    1.0000 </r>
       <r>  -15.3925    1.0000 </r>
       <r>  -15.3912    1.0000 </r>
       <r>  -15.3902    1.0000 </r>
       <r>  -15.3887    1.0000 </r>
       <r>  -15.3820    1.0000 </r>
       <r>  -15.3811    1.0000 </r>
       <r>  -15.3661    1.0000 </r>
       <r>  -15.3644    1.0000 </r>
       <r>  -15.3563    1.0000 </r>
       <r>  -15.3540    1.0000 </r>
       <r>  -15.3370    1.0000 </r>
       <r>  -15.3358    1.0000 </r>
       <r>  -15.3341    1.0000 </r>
       <r>  -15.3328    1.0000 </r>
       <r>  -15.3139    1.0000 </r>
       <r>  -15.3116    1.0000 </r>
       <r>   -7.1027    1.0000 </r>
       <r>   -7.0866    1.0000 </r>
       <r>   -6.8104    1.0000 </r>
       <r>   -6.7929    1.0000 </r>
       <r>   -2.1322    1.0000 </r>
       <r>   -2.1224    1.0000 </r>
       <r>   -0.7586    1.0000 </r>
       <r>   -0.7498    1.0000 </r>
       <r>    1.6875    1.0000 </r>
       <r>    1.7127    1.0000 </r>
       <r>    1.9681    1.0000 </r>
       <r>    1.9926    1.0000 </r>
       <r>    2.7543    1.0000 </r>
       <r>    2.7768    1.0000 </r>
       <r>    3.4858    1.0000 </r>
       <r>    3.5116    1.0000 </r>
       <r>    4.5093    1.0000 </r>
       <r>    4.5183    1.0000 </r>
       <r>    4.9996    1.0000 </r>
       <r>    5.0167    1.0000 </r>
       <r>    7.0587    0.0000 </r>
       <r>    7.0743    0.0000 </r>
       <r>    8.6200    0.0000 </r>
       <r>    8.6294    0.0000 </r>
       <r>    9.6256    0.0000 </r>
       <r>    9.6274    0.0000 </r>
       <r>   10.1852    0.0000 </r>
       <r>   10.1897    0.0000 </r>
       <r>   10.5525    0.0000 </r>
       <r>   10.5598    0.0000 </r>
       <r>   11.2358    0.0000 </r>
       <r>   11.2381    0.0000 </r>
       <r>   11.6161    0.0000 </r>
       <r>   11.6276    0.0000 </r>
       <r>   13.2098    0.0000 </r>
       <r>   13.2283    0.0000 </r>
       <r>   15.2698    0.0000 </r>
       <r>   15.2757    0.0000 </r>
       <r>   15.7345    0.0000 </r>
       <r>   15.7377    0.0000 </r>
       <r>   16.0915    0.0000 </r>
       <r>   16.0924    0.0000 </r>
       <r>   17.0368    0.0000 </r>
       <r>   17.0509    0.0000 </r>
      </set>
      <set comment="kpoint 16">
       <r>  -15.4021    1.0000 </r>
       <r>  -15.3985    1.0000 </r>
       <r>  -15.3976    1.0000 </r>
       <r>  -15.3949    1.0000 </r>
       <r>  -15.3913    1.0000 </r>
       <r>  -15.3902    1.0000 </r>
       <r>  -15.3889    1.0000 </r>
       <r>  -15.3873    1.0000 </r>
       <r>  -15.3858    1.0000 </r>
       <r>  -15.3784    1.0000 </r>
       <r>  -15.3728    1.0000 </r>
       <r>  -15.3644    1.0000 </r>
       <r>  -15.3619    1.0000 </r>
       <r>  -15.3545    1.0000 </r>
       <r>  -15.3424    1.0000 </r>
       <r>  -15.3395    1.0000 </r>
       <r>  -15.3337    1.0000 </r>
       <r>  -15.3264    1.0000 </r>
       <r>  -15.3174    1.0000 </r>
       <r>  -15.3144    1.0000 </r>
       <r>   -7.5800    1.0000 </r>
       <r>   -7.2872    1.0000 </r>
       <r>   -6.8842    1.0000 </r>
       <r>   -6.6194    1.0000 </r>
       <r>   -2.1428    1.0000 </r>
       <r>   -1.3766    1.0000 </r>
       <r>   -1.2895    1.0000 </r>
       <r>   -0.7057    1.0000 </r>
       <r>    1.2290    1.0000 </r>
       <r>    2.7127    1.0000 </r>
       <r>    2.9625    1.0000 </r>
       <r>    3.1494    1.0000 </r>
       <r>    3.2469    1.0000 </r>
       <r>    3.4966    1.0000 </r>
       <r>    4.1050    1.0000 </r>
       <r>    4.2221    1.0000 </r>
       <r>    4.5820    1.0000 </r>
       <r>    4.9748    1.0000 </r>
       <r>    5.1145    1.0000 </r>
       <r>    5.7522    1.0000 </r>
       <r>    6.3137    0.0000 </r>
       <r>    7.0808    0.0000 </r>
       <r>    7.5273    0.0000 </r>
       <r>    7.6207    0.0000 </r>
       <r>    7.8415    0.0000 </r>
       <r>    8.3492    0.0000 </r>
       <r>    8.4280    0.0000 </r>
       <r>    9.2771    0.0000 </r>
       <r>    9.6853    0.0000 </r>
       <r>    9.8883    0.0000 </r>
       <r>   10.7335    0.0000 </r>
       <r>   11.1015    0.0000 </r>
       <r>   12.1139    0.0000 </r>
       <r>   12.6863    0.0000 </r>
       <r>   12.8345    0.0000 </r>
       <r>   13.1276    0.0000 </r>
       <r>   13.9978    0.0000 </r>
       <r>   14.1094    0.0000 </r>
       <r>   14.1563    0.0000 </r>
       <r>   14.6578    0.0000 </r>
       <r>   15.3726    0.0000 </r>
       <r>   15.4885    0.0000 </r>
       <r>   15.8764    0.0000 </r>
       <r>   16.4899    0.0000 </r>
      </set>
      <set comment="kpoint 17">
       <r>  -15.4053    1.0000 </r>
       <r>  -15.4013    1.0000 </r>
       <r>  -15.3981    1.0000 </r>
       <r>  -15.3961    1.0000 </r>
       <r>  -15.3913    1.0000 </r>
       <r>  -15.3893    1.0000 </r>
       <r>  -15.3882    1.0000 </r>
       <r>  -15.3863    1.0000 </r>
       <r>  -15.3848    1.0000 </r>
       <r>  -15.3786    1.0000 </r>
       <r>  -15.3722    1.0000 </r>
       <r>  -15.3645    1.0000 </r>
       <r>  -15.3605    1.0000 </r>
       <r>  -15.3537    1.0000 </r>
       <r>  -15.3418    1.0000 </r>
       <r>  -15.3391    1.0000 </r>
       <r>  -15.3338    1.0000 </r>
       <r>  -15.3269    1.0000 </r>
       <r>  -15.3172    1.0000 </r>
       <r>  -15.3143    1.0000 </r>
       <r>   -7.5168    1.0000 </r>
       <r>   -7.2321    1.0000 </r>
       <r>   -6.8590    1.0000 </r>
       <r>   -6.6052    1.0000 </r>
       <r>   -2.1001    1.0000 </r>
       <r>   -1.2838    1.0000 </r>
       <r>   -1.2288    1.0000 </r>
       <r>   -0.7424    1.0000 </r>
       <r>    1.3167    1.0000 </r>
       <r>    1.8244    1.0000 </r>
       <r>    2.2163    1.0000 </r>
       <r>    2.9610    1.0000 </r>
       <r>    3.4343    1.0000 </r>
       <r>    3.4969    1.0000 </r>
       <r>    4.0431    1.0000 </r>
       <r>    4.0673    1.0000 </r>
       <r>    4.6570    1.0000 </r>
       <r>    5.0362    1.0000 </r>
       <r>    5.1284    1.0000 </r>
       <r>    5.2313    1.0000 </r>
       <r>    6.8941    0.0000 </r>
       <r>    6.9940    0.0000 </r>
       <r>    7.0765    0.0000 </r>
       <r>    7.4280    0.0000 </r>
       <r>    8.4776    0.0000 </r>
       <r>    8.8425    0.0000 </r>
       <r>    9.0823    0.0000 </r>
       <r>    9.4092    0.0000 </r>
       <r>   10.1337    0.0000 </r>
       <r>   10.5847    0.0000 </r>
       <r>   10.8492    0.0000 </r>
       <r>   10.9868    0.0000 </r>
       <r>   11.7043    0.0000 </r>
       <r>   12.9097    0.0000 </r>
       <r>   13.0050    0.0000 </r>
       <r>   13.1777    0.0000 </r>
       <r>   13.8143    0.0000 </r>
       <r>   14.1481    0.0000 </r>
       <r>   14.2786    0.0000 </r>
       <r>   14.7278    0.0000 </r>
       <r>   15.3065    0.0000 </r>
       <r>   16.0252    0.0000 </r>
       <r>   16.4393    0.0000 </r>
       <r>   16.5739    0.0000 </r>
      </set>
      <set comment="kpoint 18">
       <r>  -15.4109    1.0000 </r>
       <r>  -15.4070    1.0000 </r>
       <r>  -15.4010    1.0000 </r>
       <r>  -15.3998    1.0000 </r>
       <r>  -15.3917    1.0000 </r>
       <r>  -15.3885    1.0000 </r>
       <r>  -15.3861    1.0000 </r>
       <r>  -15.3836    1.0000 </r>
       <r>  -15.3823    1.0000 </r>
       <r>  -15.3794    1.0000 </r>
       <r>  -15.3705    1.0000 </r>
       <r>  -15.3644    1.0000 </r>
       <r>  -15.3571    1.0000 </r>
       <r>  -15.3519    1.0000 </r>
       <r>  -15.3405    1.0000 </r>
       <r>  -15.3379    1.0000 </r>
       <r>  -15.3336    1.0000 </r>
       <r>  -15.3281    1.0000 </r>
       <r>  -15.3168    1.0000 </r>
       <r>  -15.3141    1.0000 </r>
       <r>   -7.3438    1.0000 </r>
       <r>   -7.0823    1.0000 </r>
       <r>   -6.8094    1.0000 </r>
       <r>   -6.5824    1.0000 </r>
       <r>   -2.0009    1.0000 </r>
       <r>   -1.1562    1.0000 </r>
       <r>   -1.0313    1.0000 </r>
       <r>   -0.8195    1.0000 </r>
       <r>    1.0342    1.0000 </r>
       <r>    1.4471    1.0000 </r>
       <r>    1.5454    1.0000 </r>
       <r>    2.2873    1.0000 </r>
       <r>    2.5712    1.0000 </r>
       <r>    3.4108    1.0000 </r>
       <r>    3.4971    1.0000 </r>
       <r>    3.9505    1.0000 </r>
       <r>    4.2829    1.0000 </r>
       <r>    4.3744    1.0000 </r>
       <r>    4.7343    1.0000 </r>
       <r>    5.2777    1.0000 </r>
       <r>    6.4009    0.0000 </r>
       <r>    7.8304    0.0000 </r>
       <r>    8.2087    0.0000 </r>
       <r>    8.5322    0.0000 </r>
       <r>    8.8365    0.0000 </r>
       <r>    9.2965    0.0000 </r>
       <r>    9.7975    0.0000 </r>
       <r>   10.2527    0.0000 </r>
       <r>   10.6207    0.0000 </r>
       <r>   10.7588    0.0000 </r>
       <r>   11.3918    0.0000 </r>
       <r>   11.5099    0.0000 </r>
       <r>   11.7502    0.0000 </r>
       <r>   11.8056    0.0000 </r>
       <r>   13.2784    0.0000 </r>
       <r>   14.0098    0.0000 </r>
       <r>   14.0847    0.0000 </r>
       <r>   14.1962    0.0000 </r>
       <r>   14.9126    0.0000 </r>
       <r>   15.2622    0.0000 </r>
       <r>   15.9056    0.0000 </r>
       <r>   15.9388    0.0000 </r>
       <r>   16.1489    0.0000 </r>
       <r>   16.7159    0.0000 </r>
      </set>
      <set comment="kpoint 19">
       <r>  -15.4152    1.0000 </r>
       <r>  -15.4128    1.0000 </r>
       <r>  -15.4044    1.0000 </r>
       <r>  -15.4038    1.0000 </r>
       <r>  -15.3914    1.0000 </r>
       <r>  -15.3888    1.0000 </r>
       <r>  -15.3842    1.0000 </r>
       <r>  -15.3817    1.0000 </r>
       <r>  -15.3807    1.0000 </r>
       <r>  -15.3795    1.0000 </r>
       <r>  -15.3684    1.0000 </r>
       <r>  -15.3646    1.0000 </r>
       <r>  -15.3535    1.0000 </r>
       <r>  -15.3504    1.0000 </r>
       <r>  -15.3389    1.0000 </r>
       <r>  -15.3366    1.0000 </r>
       <r>  -15.3328    1.0000 </r>
       <r>  -15.3292    1.0000 </r>
       <r>  -15.3163    1.0000 </r>
       <r>  -15.3140    1.0000 </r>
       <r>   -7.1129    1.0000 </r>
       <r>   -6.8839    1.0000 </r>
       <r>   -6.8035    1.0000 </r>
       <r>   -6.6008    1.0000 </r>
       <r>   -1.8866    1.0000 </r>
       <r>   -1.3942    1.0000 </r>
       <r>   -0.7435    1.0000 </r>
       <r>   -0.7145    1.0000 </r>
       <r>    0.7343    1.0000 </r>
       <r>    1.1383    1.0000 </r>
       <r>    1.5527    1.0000 </r>
       <r>    1.8521    1.0000 </r>
       <r>    2.1837    1.0000 </r>
       <r>    2.6790    1.0000 </r>
       <r>    2.9317    1.0000 </r>
       <r>    3.4794    1.0000 </r>
       <r>    3.6043    1.0000 </r>
       <r>    4.1102    1.0000 </r>
       <r>    4.6512    1.0000 </r>
       <r>    4.7945    1.0000 </r>
       <r>    6.8370    0.0000 </r>
       <r>    8.4293    0.0000 </r>
       <r>    8.9531    0.0000 </r>
       <r>    9.1905    0.0000 </r>
       <r>    9.9120    0.0000 </r>
       <r>    9.9288    0.0000 </r>
       <r>   10.3647    0.0000 </r>
       <r>   10.6862    0.0000 </r>
       <r>   10.7323    0.0000 </r>
       <r>   10.9573    0.0000 </r>
       <r>   11.5095    0.0000 </r>
       <r>   11.6316    0.0000 </r>
       <r>   11.8312    0.0000 </r>
       <r>   12.1813    0.0000 </r>
       <r>   12.7326    0.0000 </r>
       <r>   13.4348    0.0000 </r>
       <r>   15.1693    0.0000 </r>
       <r>   15.3290    0.0000 </r>
       <r>   15.7522    0.0000 </r>
       <r>   15.8287    0.0000 </r>
       <r>   16.0748    0.0000 </r>
       <r>   16.5592    0.0000 </r>
       <r>   16.8571    0.0000 </r>
       <r>   17.1852    0.0000 </r>
      </set>
      <set comment="kpoint 20">
       <r>  -15.4162    1.0000 </r>
       <r>  -15.4159    1.0000 </r>
       <r>  -15.4059    1.0000 </r>
       <r>  -15.4054    1.0000 </r>
       <r>  -15.3910    1.0000 </r>
       <r>  -15.3893    1.0000 </r>
       <r>  -15.3834    1.0000 </r>
       <r>  -15.3817    1.0000 </r>
       <r>  -15.3802    1.0000 </r>
       <r>  -15.3788    1.0000 </r>
       <r>  -15.3670    1.0000 </r>
       <r>  -15.3653    1.0000 </r>
       <r>  -15.3519    1.0000 </r>
       <r>  -15.3498    1.0000 </r>
       <r>  -15.3382    1.0000 </r>
       <r>  -15.3360    1.0000 </r>
       <r>  -15.3320    1.0000 </r>
       <r>  -15.3298    1.0000 </r>
       <r>  -15.3161    1.0000 </r>
       <r>  -15.3139    1.0000 </r>
       <r>   -6.9145    1.0000 </r>
       <r>   -6.8997    1.0000 </r>
       <r>   -6.7115    1.0000 </r>
       <r>   -6.6959    1.0000 </r>
       <r>   -1.7030    1.0000 </r>
       <r>   -1.7004    1.0000 </r>
       <r>   -0.6370    1.0000 </r>
       <r>   -0.6331    1.0000 </r>
       <r>    0.9913    1.0000 </r>
       <r>    0.9982    1.0000 </r>
       <r>    1.4182    1.0000 </r>
       <r>    1.4322    1.0000 </r>
       <r>    2.2782    1.0000 </r>
       <r>    2.2802    1.0000 </r>
       <r>    2.9920    1.0000 </r>
       <r>    2.9928    1.0000 </r>
       <r>    3.6455    1.0000 </r>
       <r>    3.6583    1.0000 </r>
       <r>    4.6245    1.0000 </r>
       <r>    4.6399    1.0000 </r>
       <r>    7.5984    0.0000 </r>
       <r>    7.6061    0.0000 </r>
       <r>    9.5176    0.0000 </r>
       <r>    9.5178    0.0000 </r>
       <r>   10.3871    0.0000 </r>
       <r>   10.3978    0.0000 </r>
       <r>   10.7564    0.0000 </r>
       <r>   10.7678    0.0000 </r>
       <r>   10.8764    0.0000 </r>
       <r>   10.8882    0.0000 </r>
       <r>   11.6885    0.0000 </r>
       <r>   11.6912    0.0000 </r>
       <r>   11.9812    0.0000 </r>
       <r>   11.9815    0.0000 </r>
       <r>   12.7701    0.0000 </r>
       <r>   12.7830    0.0000 </r>
       <r>   15.8718    0.0000 </r>
       <r>   15.8831    0.0000 </r>
       <r>   16.4440    0.0000 </r>
       <r>   16.4579    0.0000 </r>
       <r>   16.6444    0.0000 </r>
       <r>   16.6510    0.0000 </r>
       <r>   17.3010    0.0000 </r>
       <r>   17.3051    0.0000 </r>
      </set>
      <set comment="kpoint 21">
       <r>  -15.4043    1.0000 </r>
       <r>  -15.4030    1.0000 </r>
       <r>  -15.3987    1.0000 </r>
       <r>  -15.3970    1.0000 </r>
       <r>  -15.3897    1.0000 </r>
       <r>  -15.3894    1.0000 </r>
       <r>  -15.3873    1.0000 </r>
       <r>  -15.3858    1.0000 </r>
       <r>  -15.3799    1.0000 </r>
       <r>  -15.3728    1.0000 </r>
       <r>  -15.3718    1.0000 </r>
       <r>  -15.3699    1.0000 </r>
       <r>  -15.3552    1.0000 </r>
       <r>  -15.3501    1.0000 </r>
       <r>  -15.3484    1.0000 </r>
       <r>  -15.3455    1.0000 </r>
       <r>  -15.3272    1.0000 </r>
       <r>  -15.3218    1.0000 </r>
       <r>  -15.3211    1.0000 </r>
       <r>  -15.3179    1.0000 </r>
       <r>   -7.2062    1.0000 </r>
       <r>   -7.0436    1.0000 </r>
       <r>   -6.8920    1.0000 </r>
       <r>   -6.8574    1.0000 </r>
       <r>   -2.2108    1.0000 </r>
       <r>   -1.9207    1.0000 </r>
       <r>   -1.4607    1.0000 </r>
       <r>   -1.1995    1.0000 </r>
       <r>    1.7725    1.0000 </r>
       <r>    2.3745    1.0000 </r>
       <r>    3.3419    1.0000 </r>
       <r>    3.5574    1.0000 </r>
       <r>    3.6812    1.0000 </r>
       <r>    3.7579    1.0000 </r>
       <r>    3.8223    1.0000 </r>
       <r>    4.3461    1.0000 </r>
       <r>    4.9224    1.0000 </r>
       <r>    4.9416    1.0000 </r>
       <r>    5.0297    1.0000 </r>
       <r>    5.1733    1.0000 </r>
       <r>    6.8036    0.0000 </r>
       <r>    6.9023    0.0000 </r>
       <r>    7.0083    0.0000 </r>
       <r>    7.3672    0.0000 </r>
       <r>    7.4339    0.0000 </r>
       <r>    7.6419    0.0000 </r>
       <r>    8.1867    0.0000 </r>
       <r>    8.5770    0.0000 </r>
       <r>    8.9521    0.0000 </r>
       <r>    9.1306    0.0000 </r>
       <r>   10.9501    0.0000 </r>
       <r>   11.1195    0.0000 </r>
       <r>   12.7616    0.0000 </r>
       <r>   12.9538    0.0000 </r>
       <r>   13.3697    0.0000 </r>
       <r>   13.5830    0.0000 </r>
       <r>   14.4759    0.0000 </r>
       <r>   14.9070    0.0000 </r>
       <r>   15.1408    0.0000 </r>
       <r>   15.6602    0.0000 </r>
       <r>   15.7465    0.0000 </r>
       <r>   16.2563    0.0000 </r>
       <r>   16.5651    0.0000 </r>
       <r>   16.7165    0.0000 </r>
      </set>
      <set comment="kpoint 22">
       <r>  -15.4073    1.0000 </r>
       <r>  -15.4058    1.0000 </r>
       <r>  -15.4001    1.0000 </r>
       <r>  -15.3990    1.0000 </r>
       <r>  -15.3899    1.0000 </r>
       <r>  -15.3888    1.0000 </r>
       <r>  -15.3862    1.0000 </r>
       <r>  -15.3850    1.0000 </r>
       <r>  -15.3787    1.0000 </r>
       <r>  -15.3729    1.0000 </r>
       <r>  -15.3714    1.0000 </r>
       <r>  -15.3695    1.0000 </r>
       <r>  -15.3543    1.0000 </r>
       <r>  -15.3504    1.0000 </r>
       <r>  -15.3466    1.0000 </r>
       <r>  -15.3446    1.0000 </r>
       <r>  -15.3274    1.0000 </r>
       <r>  -15.3231    1.0000 </r>
       <r>  -15.3201    1.0000 </r>
       <r>  -15.3178    1.0000 </r>
       <r>   -7.1553    1.0000 </r>
       <r>   -6.9995    1.0000 </r>
       <r>   -6.8597    1.0000 </r>
       <r>   -6.8241    1.0000 </r>
       <r>   -2.1148    1.0000 </r>
       <r>   -1.8216    1.0000 </r>
       <r>   -1.3755    1.0000 </r>
       <r>   -1.1557    1.0000 </r>
       <r>    1.8118    1.0000 </r>
       <r>    2.1436    1.0000 </r>
       <r>    2.3897    1.0000 </r>
       <r>    2.9442    1.0000 </r>
       <r>    3.2112    1.0000 </r>
       <r>    3.2529    1.0000 </r>
       <r>    4.2353    1.0000 </r>
       <r>    4.3192    1.0000 </r>
       <r>    4.3385    1.0000 </r>
       <r>    4.5788    1.0000 </r>
       <r>    5.1687    1.0000 </r>
       <r>    5.2217    1.0000 </r>
       <r>    6.6253    0.0000 </r>
       <r>    6.6301    0.0000 </r>
       <r>    7.2965    0.0000 </r>
       <r>    7.5823    0.0000 </r>
       <r>    8.4037    0.0000 </r>
       <r>    8.5242    0.0000 </r>
       <r>    8.8397    0.0000 </r>
       <r>    9.2866    0.0000 </r>
       <r>    9.4058    0.0000 </r>
       <r>   10.0481    0.0000 </r>
       <r>   10.7758    0.0000 </r>
       <r>   10.8903    0.0000 </r>
       <r>   11.8401    0.0000 </r>
       <r>   12.1929    0.0000 </r>
       <r>   14.0439    0.0000 </r>
       <r>   14.4268    0.0000 </r>
       <r>   14.6851    0.0000 </r>
       <r>   14.9303    0.0000 </r>
       <r>   15.1801    0.0000 </r>
       <r>   15.3341    0.0000 </r>
       <r>   15.7970    0.0000 </r>
       <r>   16.2175    0.0000 </r>
       <r>   16.4823    0.0000 </r>
       <r>   16.5403    0.0000 </r>
      </set>
      <set comment="kpoint 23">
       <r>  -15.4135    1.0000 </r>
       <r>  -15.4121    1.0000 </r>
       <r>  -15.4043    1.0000 </r>
       <r>  -15.4037    1.0000 </r>
       <r>  -15.3896    1.0000 </r>
       <r>  -15.3881    1.0000 </r>
       <r>  -15.3841    1.0000 </r>
       <r>  -15.3831    1.0000 </r>
       <r>  -15.3767    1.0000 </r>
       <r>  -15.3731    1.0000 </r>
       <r>  -15.3705    1.0000 </r>
       <r>  -15.3685    1.0000 </r>
       <r>  -15.3520    1.0000 </r>
       <r>  -15.3496    1.0000 </r>
       <r>  -15.3435    1.0000 </r>
       <r>  -15.3422    1.0000 </r>
       <r>  -15.3276    1.0000 </r>
       <r>  -15.3245    1.0000 </r>
       <r>  -15.3191    1.0000 </r>
       <r>  -15.3173    1.0000 </r>
       <r>   -7.0214    1.0000 </r>
       <r>   -6.8856    1.0000 </r>
       <r>   -6.7844    1.0000 </r>
       <r>   -6.7442    1.0000 </r>
       <r>   -1.8447    1.0000 </r>
       <r>   -1.5441    1.0000 </r>
       <r>   -1.1432    1.0000 </r>
       <r>   -1.0589    1.0000 </r>
       <r>    1.2380    1.0000 </r>
       <r>    1.7334    1.0000 </r>
       <r>    1.7430    1.0000 </r>
       <r>    1.9884    1.0000 </r>
       <r>    2.4594    1.0000 </r>
       <r>    2.9288    1.0000 </r>
       <r>    3.3402    1.0000 </r>
       <r>    3.5602    1.0000 </r>
       <r>    3.6031    1.0000 </r>
       <r>    4.0738    1.0000 </r>
       <r>    4.8238    1.0000 </r>
       <r>    4.9976    1.0000 </r>
       <r>    6.7485    0.0000 </r>
       <r>    7.4617    0.0000 </r>
       <r>    8.5808    0.0000 </r>
       <r>    8.9164    0.0000 </r>
       <r>    9.4926    0.0000 </r>
       <r>    9.6030    0.0000 </r>
       <r>   10.0175    0.0000 </r>
       <r>   10.2302    0.0000 </r>
       <r>   10.3378    0.0000 </r>
       <r>   10.6059    0.0000 </r>
       <r>   10.7848    0.0000 </r>
       <r>   11.4220    0.0000 </r>
       <r>   11.4761    0.0000 </r>
       <r>   11.5497    0.0000 </r>
       <r>   13.3698    0.0000 </r>
       <r>   13.6441    0.0000 </r>
       <r>   15.2124    0.0000 </r>
       <r>   15.4347    0.0000 </r>
       <r>   15.6509    0.0000 </r>
       <r>   16.2888    0.0000 </r>
       <r>   16.3954    0.0000 </r>
       <r>   16.6807    0.0000 </r>
       <r>   16.9480    0.0000 </r>
       <r>   17.1730    0.0000 </r>
      </set>
      <set comment="kpoint 24">
       <r>  -15.4191    1.0000 </r>
       <r>  -15.4182    1.0000 </r>
       <r>  -15.4087    1.0000 </r>
       <r>  -15.4084    1.0000 </r>
       <r>  -15.3894    1.0000 </r>
       <r>  -15.3881    1.0000 </r>
       <r>  -15.3822    1.0000 </r>
       <r>  -15.3813    1.0000 </r>
       <r>  -15.3752    1.0000 </r>
       <r>  -15.3733    1.0000 </r>
       <r>  -15.3697    1.0000 </r>
       <r>  -15.3679    1.0000 </r>
       <r>  -15.3494    1.0000 </r>
       <r>  -15.3479    1.0000 </r>
       <r>  -15.3409    1.0000 </r>
       <r>  -15.3398    1.0000 </r>
       <r>  -15.3273    1.0000 </r>
       <r>  -15.3252    1.0000 </r>
       <r>  -15.3184    1.0000 </r>
       <r>  -15.3169    1.0000 </r>
       <r>   -6.8592    1.0000 </r>
       <r>   -6.7534    1.0000 </r>
       <r>   -6.7238    1.0000 </r>
       <r>   -6.6718    1.0000 </r>
       <r>   -1.4804    1.0000 </r>
       <r>   -1.2125    1.0000 </r>
       <r>   -0.9537    1.0000 </r>
       <r>   -0.8597    1.0000 </r>
       <r>    0.6190    1.0000 </r>
       <r>    1.0081    1.0000 </r>
       <r>    1.2613    1.0000 </r>
       <r>    1.5529    1.0000 </r>
       <r>    2.0428    1.0000 </r>
       <r>    2.2125    1.0000 </r>
       <r>    2.7147    1.0000 </r>
       <r>    3.1533    1.0000 </r>
       <r>    3.3017    1.0000 </r>
       <r>    3.4374    1.0000 </r>
       <r>    4.5087    1.0000 </r>
       <r>    4.5588    1.0000 </r>
       <r>    7.5140    0.0000 </r>
       <r>    8.2723    0.0000 </r>
       <r>    9.0595    0.0000 </r>
       <r>    9.3874    0.0000 </r>
       <r>   10.2599    0.0000 </r>
       <r>   10.3096    0.0000 </r>
       <r>   10.4344    0.0000 </r>
       <r>   10.8212    0.0000 </r>
       <r>   10.8299    0.0000 </r>
       <r>   11.3283    0.0000 </r>
       <r>   11.7911    0.0000 </r>
       <r>   11.9221    0.0000 </r>
       <r>   12.0545    0.0000 </r>
       <r>   12.4285    0.0000 </r>
       <r>   12.7902    0.0000 </r>
       <r>   13.0740    0.0000 </r>
       <r>   15.5929    0.0000 </r>
       <r>   15.7615    0.0000 </r>
       <r>   16.6797    0.0000 </r>
       <r>   16.7603    0.0000 </r>
       <r>   16.9869    0.0000 </r>
       <r>   17.1399    0.0000 </r>
       <r>   17.5908    0.0000 </r>
       <r>   17.6380    0.0000 </r>
      </set>
      <set comment="kpoint 25">
       <r>  -15.4210    1.0000 </r>
       <r>  -15.4209    1.0000 </r>
       <r>  -15.4105    1.0000 </r>
       <r>  -15.4104    1.0000 </r>
       <r>  -15.3893    1.0000 </r>
       <r>  -15.3882    1.0000 </r>
       <r>  -15.3814    1.0000 </r>
       <r>  -15.3807    1.0000 </r>
       <r>  -15.3747    1.0000 </r>
       <r>  -15.3734    1.0000 </r>
       <r>  -15.3694    1.0000 </r>
       <r>  -15.3679    1.0000 </r>
       <r>  -15.3482    1.0000 </r>
       <r>  -15.3471    1.0000 </r>
       <r>  -15.3399    1.0000 </r>
       <r>  -15.3388    1.0000 </r>
       <r>  -15.3269    1.0000 </r>
       <r>  -15.3255    1.0000 </r>
       <r>  -15.3182    1.0000 </r>
       <r>  -15.3168    1.0000 </r>
       <r>   -6.7500    1.0000 </r>
       <r>   -6.7362    1.0000 </r>
       <r>   -6.6754    1.0000 </r>
       <r>   -6.6614    1.0000 </r>
       <r>   -1.2128    1.0000 </r>
       <r>   -1.2032    1.0000 </r>
       <r>   -0.7704    1.0000 </r>
       <r>   -0.7527    1.0000 </r>
       <r>    0.5453    1.0000 </r>
       <r>    0.5489    1.0000 </r>
       <r>    1.1595    1.0000 </r>
       <r>    1.1651    1.0000 </r>
       <r>    1.9076    1.0000 </r>
       <r>    1.9151    1.0000 </r>
       <r>    2.6437    1.0000 </r>
       <r>    2.6530    1.0000 </r>
       <r>    3.3493    1.0000 </r>
       <r>    3.3546    1.0000 </r>
       <r>    4.3778    1.0000 </r>
       <r>    4.3851    1.0000 </r>
       <r>    8.2175    0.0000 </r>
       <r>    8.2202    0.0000 </r>
       <r>    9.0871    0.0000 </r>
       <r>    9.0880    0.0000 </r>
       <r>   10.3592    0.0000 </r>
       <r>   10.3680    0.0000 </r>
       <r>   10.8014    0.0000 </r>
       <r>   10.8061    0.0000 </r>
       <r>   11.7077    0.0000 </r>
       <r>   11.7082    0.0000 </r>
       <r>   12.3433    0.0000 </r>
       <r>   12.3454    0.0000 </r>
       <r>   12.6694    0.0000 </r>
       <r>   12.6740    0.0000 </r>
       <r>   12.8456    0.0000 </r>
       <r>   12.8500    0.0000 </r>
       <r>   15.9958    0.0000 </r>
       <r>   16.0011    0.0000 </r>
       <r>   16.6979    0.0000 </r>
       <r>   16.7001    0.0000 </r>
       <r>   16.9489    0.0000 </r>
       <r>   16.9505    0.0000 </r>
       <r>   17.7887    0.0000 </r>
       <r>   17.8053    0.0000 </r>
      </set>
      <set comment="kpoint 26">
       <r>  -15.4150    1.0000 </r>
       <r>  -15.4061    1.0000 </r>
       <r>  -15.3970    1.0000 </r>
       <r>  -15.3937    1.0000 </r>
       <r>  -15.3908    1.0000 </r>
       <r>  -15.3892    1.0000 </r>
       <r>  -15.3877    1.0000 </r>
       <r>  -15.3843    1.0000 </r>
       <r>  -15.3793    1.0000 </r>
       <r>  -15.3781    1.0000 </r>
       <r>  -15.3771    1.0000 </r>
       <r>  -15.3757    1.0000 </r>
       <r>  -15.3646    1.0000 </r>
       <r>  -15.3621    1.0000 </r>
       <r>  -15.3434    1.0000 </r>
       <r>  -15.3391    1.0000 </r>
       <r>  -15.3315    1.0000 </r>
       <r>  -15.3279    1.0000 </r>
       <r>  -15.3122    1.0000 </r>
       <r>  -15.3070    1.0000 </r>
       <r>   -8.1041    1.0000 </r>
       <r>   -7.9124    1.0000 </r>
       <r>   -6.9090    1.0000 </r>
       <r>   -6.6211    1.0000 </r>
       <r>   -1.3099    1.0000 </r>
       <r>   -0.8662    1.0000 </r>
       <r>    0.7161    1.0000 </r>
       <r>    0.8311    1.0000 </r>
       <r>    1.2160    1.0000 </r>
       <r>    2.0488    1.0000 </r>
       <r>    2.4193    1.0000 </r>
       <r>    2.5418    1.0000 </r>
       <r>    2.6749    1.0000 </r>
       <r>    3.0380    1.0000 </r>
       <r>    3.6831    1.0000 </r>
       <r>    3.7023    1.0000 </r>
       <r>    3.7176    1.0000 </r>
       <r>    4.0703    1.0000 </r>
       <r>    5.2337    1.0000 </r>
       <r>    5.3057    1.0000 </r>
       <r>    7.6378    0.0000 </r>
       <r>    8.4632    0.0000 </r>
       <r>    8.5517    0.0000 </r>
       <r>    9.0528    0.0000 </r>
       <r>    9.5014    0.0000 </r>
       <r>    9.6472    0.0000 </r>
       <r>    9.9043    0.0000 </r>
       <r>   10.1166    0.0000 </r>
       <r>   10.6491    0.0000 </r>
       <r>   10.8254    0.0000 </r>
       <r>   11.3390    0.0000 </r>
       <r>   11.3763    0.0000 </r>
       <r>   11.6237    0.0000 </r>
       <r>   11.8760    0.0000 </r>
       <r>   12.1962    0.0000 </r>
       <r>   12.4649    0.0000 </r>
       <r>   13.0146    0.0000 </r>
       <r>   13.4063    0.0000 </r>
       <r>   13.9248    0.0000 </r>
       <r>   14.3284    0.0000 </r>
       <r>   14.5226    0.0000 </r>
       <r>   14.5394    0.0000 </r>
       <r>   14.8581    0.0000 </r>
       <r>   14.8662    0.0000 </r>
      </set>
      <set comment="kpoint 27">
       <r>  -15.4140    1.0000 </r>
       <r>  -15.4057    1.0000 </r>
       <r>  -15.3959    1.0000 </r>
       <r>  -15.3927    1.0000 </r>
       <r>  -15.3916    1.0000 </r>
       <r>  -15.3898    1.0000 </r>
       <r>  -15.3888    1.0000 </r>
       <r>  -15.3844    1.0000 </r>
       <r>  -15.3798    1.0000 </r>
       <r>  -15.3775    1.0000 </r>
       <r>  -15.3771    1.0000 </r>
       <r>  -15.3738    1.0000 </r>
       <r>  -15.3639    1.0000 </r>
       <r>  -15.3621    1.0000 </r>
       <r>  -15.3434    1.0000 </r>
       <r>  -15.3393    1.0000 </r>
       <r>  -15.3317    1.0000 </r>
       <r>  -15.3283    1.0000 </r>
       <r>  -15.3120    1.0000 </r>
       <r>  -15.3072    1.0000 </r>
       <r>   -8.0316    1.0000 </r>
       <r>   -7.8430    1.0000 </r>
       <r>   -6.8944    1.0000 </r>
       <r>   -6.6215    1.0000 </r>
       <r>   -1.5773    1.0000 </r>
       <r>   -1.0951    1.0000 </r>
       <r>    0.2701    1.0000 </r>
       <r>    0.4978    1.0000 </r>
       <r>    1.2648    1.0000 </r>
       <r>    2.2073    1.0000 </r>
       <r>    2.5292    1.0000 </r>
       <r>    2.7802    1.0000 </r>
       <r>    2.8377    1.0000 </r>
       <r>    3.2155    1.0000 </r>
       <r>    3.7760    1.0000 </r>
       <r>    3.8763    1.0000 </r>
       <r>    4.1284    1.0000 </r>
       <r>    4.2486    1.0000 </r>
       <r>    5.1241    1.0000 </r>
       <r>    5.3087    1.0000 </r>
       <r>    7.6002    0.0000 </r>
       <r>    8.2980    0.0000 </r>
       <r>    8.7540    0.0000 </r>
       <r>    8.9922    0.0000 </r>
       <r>    9.0051    0.0000 </r>
       <r>    9.3371    0.0000 </r>
       <r>    9.4330    0.0000 </r>
       <r>    9.9319    0.0000 </r>
       <r>   10.4704    0.0000 </r>
       <r>   10.8620    0.0000 </r>
       <r>   10.9856    0.0000 </r>
       <r>   11.3023    0.0000 </r>
       <r>   11.3716    0.0000 </r>
       <r>   11.5236    0.0000 </r>
       <r>   12.1108    0.0000 </r>
       <r>   12.6745    0.0000 </r>
       <r>   12.9671    0.0000 </r>
       <r>   13.4730    0.0000 </r>
       <r>   13.9388    0.0000 </r>
       <r>   14.1501    0.0000 </r>
       <r>   15.0370    0.0000 </r>
       <r>   15.2520    0.0000 </r>
       <r>   15.4270    0.0000 </r>
       <r>   15.5266    0.0000 </r>
      </set>
      <set comment="kpoint 28">
       <r>  -15.4140    1.0000 </r>
       <r>  -15.4056    1.0000 </r>
       <r>  -15.3958    1.0000 </r>
       <r>  -15.3929    1.0000 </r>
       <r>  -15.3916    1.0000 </r>
       <r>  -15.3901    1.0000 </r>
       <r>  -15.3882    1.0000 </r>
       <r>  -15.3848    1.0000 </r>
       <r>  -15.3795    1.0000 </r>
       <r>  -15.3777    1.0000 </r>
       <r>  -15.3769    1.0000 </r>
       <r>  -15.3740    1.0000 </r>
       <r>  -15.3638    1.0000 </r>
       <r>  -15.3621    1.0000 </r>
       <r>  -15.3436    1.0000 </r>
       <r>  -15.3390    1.0000 </r>
       <r>  -15.3320    1.0000 </r>
       <r>  -15.3282    1.0000 </r>
       <r>  -15.3120    1.0000 </r>
       <r>  -15.3071    1.0000 </r>
       <r>   -8.0311    1.0000 </r>
       <r>   -7.8438    1.0000 </r>
       <r>   -6.8931    1.0000 </r>
       <r>   -6.6225    1.0000 </r>
       <r>   -1.5799    1.0000 </r>
       <r>   -1.0899    1.0000 </r>
       <r>    0.2666    1.0000 </r>
       <r>    0.4963    1.0000 </r>
       <r>    1.2681    1.0000 </r>
       <r>    2.2052    1.0000 </r>
       <r>    2.5293    1.0000 </r>
       <r>    2.7800    1.0000 </r>
       <r>    2.8261    1.0000 </r>
       <r>    3.2307    1.0000 </r>
       <r>    3.7768    1.0000 </r>
       <r>    3.8829    1.0000 </r>
       <r>    4.1278    1.0000 </r>
       <r>    4.2403    1.0000 </r>
       <r>    5.1294    1.0000 </r>
       <r>    5.3049    1.0000 </r>
       <r>    7.5867    0.0000 </r>
       <r>    8.3075    0.0000 </r>
       <r>    8.7387    0.0000 </r>
       <r>    9.0015    0.0000 </r>
       <r>    9.0210    0.0000 </r>
       <r>    9.3222    0.0000 </r>
       <r>    9.4400    0.0000 </r>
       <r>    9.9397    0.0000 </r>
       <r>   10.4713    0.0000 </r>
       <r>   10.8527    0.0000 </r>
       <r>   10.9934    0.0000 </r>
       <r>   11.2614    0.0000 </r>
       <r>   11.3766    0.0000 </r>
       <r>   11.5394    0.0000 </r>
       <r>   12.1469    0.0000 </r>
       <r>   12.6477    0.0000 </r>
       <r>   12.9714    0.0000 </r>
       <r>   13.4800    0.0000 </r>
       <r>   13.9326    0.0000 </r>
       <r>   14.1418    0.0000 </r>
       <r>   15.0425    0.0000 </r>
       <r>   15.2499    0.0000 </r>
       <r>   15.4277    0.0000 </r>
       <r>   15.5307    0.0000 </r>
      </set>
      <set comment="kpoint 29">
       <r>  -15.4113    1.0000 </r>
       <r>  -15.4047    1.0000 </r>
       <r>  -15.3940    1.0000 </r>
       <r>  -15.3936    1.0000 </r>
       <r>  -15.3916    1.0000 </r>
       <r>  -15.3908    1.0000 </r>
       <r>  -15.3901    1.0000 </r>
       <r>  -15.3856    1.0000 </r>
       <r>  -15.3806    1.0000 </r>
       <r>  -15.3783    1.0000 </r>
       <r>  -15.3740    1.0000 </r>
       <r>  -15.3698    1.0000 </r>
       <r>  -15.3631    1.0000 </r>
       <r>  -15.3612    1.0000 </r>
       <r>  -15.3432    1.0000 </r>
       <r>  -15.3396    1.0000 </r>
       <r>  -15.3320    1.0000 </r>
       <r>  -15.3291    1.0000 </r>
       <r>  -15.3116    1.0000 </r>
       <r>  -15.3077    1.0000 </r>
       <r>   -7.8273    1.0000 </r>
       <r>   -7.6492    1.0000 </r>
       <r>   -6.8792    1.0000 </r>
       <r>   -6.6478    1.0000 </r>
       <r>   -2.0888    1.0000 </r>
       <r>   -1.6127    1.0000 </r>
       <r>   -0.4898    1.0000 </r>
       <r>   -0.1455    1.0000 </r>
       <r>    1.4554    1.0000 </r>
       <r>    2.4990    1.0000 </r>
       <r>    2.8430    1.0000 </r>
       <r>    3.0787    1.0000 </r>
       <r>    3.3244    1.0000 </r>
       <r>    3.6250    1.0000 </r>
       <r>    3.9522    1.0000 </r>
       <r>    4.2527    1.0000 </r>
       <r>    4.5011    1.0000 </r>
       <r>    4.7508    1.0000 </r>
       <r>    5.0990    1.0000 </r>
       <r>    5.3954    1.0000 </r>
       <r>    7.4666    0.0000 </r>
       <r>    7.7957    0.0000 </r>
       <r>    8.0835    0.0000 </r>
       <r>    8.3016    0.0000 </r>
       <r>    8.5106    0.0000 </r>
       <r>    8.6435    0.0000 </r>
       <r>    9.1175    0.0000 </r>
       <r>    9.8294    0.0000 </r>
       <r>    9.8758    0.0000 </r>
       <r>   10.3615    0.0000 </r>
       <r>   10.6824    0.0000 </r>
       <r>   10.8292    0.0000 </r>
       <r>   11.4233    0.0000 </r>
       <r>   11.6907    0.0000 </r>
       <r>   12.5934    0.0000 </r>
       <r>   13.1135    0.0000 </r>
       <r>   13.2963    0.0000 </r>
       <r>   13.8820    0.0000 </r>
       <r>   14.2068    0.0000 </r>
       <r>   14.2219    0.0000 </r>
       <r>   15.2471    0.0000 </r>
       <r>   15.6538    0.0000 </r>
       <r>   16.3974    0.0000 </r>
       <r>   16.5642    0.0000 </r>
      </set>
      <set comment="kpoint 30">
       <r>  -15.4114    1.0000 </r>
       <r>  -15.4046    1.0000 </r>
       <r>  -15.3936    1.0000 </r>
       <r>  -15.3933    1.0000 </r>
       <r>  -15.3926    1.0000 </r>
       <r>  -15.3911    1.0000 </r>
       <r>  -15.3890    1.0000 </r>
       <r>  -15.3863    1.0000 </r>
       <r>  -15.3798    1.0000 </r>
       <r>  -15.3789    1.0000 </r>
       <r>  -15.3739    1.0000 </r>
       <r>  -15.3700    1.0000 </r>
       <r>  -15.3625    1.0000 </r>
       <r>  -15.3616    1.0000 </r>
       <r>  -15.3435    1.0000 </r>
       <r>  -15.3390    1.0000 </r>
       <r>  -15.3325    1.0000 </r>
       <r>  -15.3289    1.0000 </r>
       <r>  -15.3117    1.0000 </r>
       <r>  -15.3076    1.0000 </r>
       <r>   -7.8260    1.0000 </r>
       <r>   -7.6514    1.0000 </r>
       <r>   -6.8758    1.0000 </r>
       <r>   -6.6504    1.0000 </r>
       <r>   -2.0952    1.0000 </r>
       <r>   -1.6002    1.0000 </r>
       <r>   -0.5000    1.0000 </r>
       <r>   -0.1431    1.0000 </r>
       <r>    1.4557    1.0000 </r>
       <r>    2.4967    1.0000 </r>
       <r>    2.8436    1.0000 </r>
       <r>    3.0775    1.0000 </r>
       <r>    3.3249    1.0000 </r>
       <r>    3.6375    1.0000 </r>
       <r>    3.9549    1.0000 </r>
       <r>    4.2505    1.0000 </r>
       <r>    4.4964    1.0000 </r>
       <r>    4.7490    1.0000 </r>
       <r>    5.0961    1.0000 </r>
       <r>    5.3937    1.0000 </r>
       <r>    7.4700    0.0000 </r>
       <r>    7.7897    0.0000 </r>
       <r>    8.0759    0.0000 </r>
       <r>    8.3041    0.0000 </r>
       <r>    8.5241    0.0000 </r>
       <r>    8.6356    0.0000 </r>
       <r>    9.1230    0.0000 </r>
       <r>    9.8453    0.0000 </r>
       <r>    9.8619    0.0000 </r>
       <r>   10.3689    0.0000 </r>
       <r>   10.6797    0.0000 </r>
       <r>   10.8273    0.0000 </r>
       <r>   11.4094    0.0000 </r>
       <r>   11.6862    0.0000 </r>
       <r>   12.6077    0.0000 </r>
       <r>   13.1177    0.0000 </r>
       <r>   13.2932    0.0000 </r>
       <r>   13.8942    0.0000 </r>
       <r>   14.1958    0.0000 </r>
       <r>   14.2142    0.0000 </r>
       <r>   15.2533    0.0000 </r>
       <r>   15.6546    0.0000 </r>
       <r>   16.4219    0.0000 </r>
       <r>   16.5472    0.0000 </r>
      </set>
      <set comment="kpoint 31">
       <r>  -15.4081    1.0000 </r>
       <r>  -15.4040    1.0000 </r>
       <r>  -15.3963    1.0000 </r>
       <r>  -15.3945    1.0000 </r>
       <r>  -15.3919    1.0000 </r>
       <r>  -15.3905    1.0000 </r>
       <r>  -15.3897    1.0000 </r>
       <r>  -15.3875    1.0000 </r>
       <r>  -15.3808    1.0000 </r>
       <r>  -15.3790    1.0000 </r>
       <r>  -15.3700    1.0000 </r>
       <r>  -15.3662    1.0000 </r>
       <r>  -15.3630    1.0000 </r>
       <r>  -15.3599    1.0000 </r>
       <r>  -15.3423    1.0000 </r>
       <r>  -15.3399    1.0000 </r>
       <r>  -15.3322    1.0000 </r>
       <r>  -15.3297    1.0000 </r>
       <r>  -15.3111    1.0000 </r>
       <r>  -15.3083    1.0000 </r>
       <r>   -7.5397    1.0000 </r>
       <r>   -7.3844    1.0000 </r>
       <r>   -6.9291    1.0000 </r>
       <r>   -6.7531    1.0000 </r>
       <r>   -2.4378    1.0000 </r>
       <r>   -2.1226    1.0000 </r>
       <r>   -1.0243    1.0000 </r>
       <r>   -0.7704    1.0000 </r>
       <r>    1.8774    1.0000 </r>
       <r>    2.8116    1.0000 </r>
       <r>    3.2757    1.0000 </r>
       <r>    3.2983    1.0000 </r>
       <r>    3.4999    1.0000 </r>
       <r>    3.9540    1.0000 </r>
       <r>    4.0707    1.0000 </r>
       <r>    4.2863    1.0000 </r>
       <r>    4.8175    1.0000 </r>
       <r>    4.9848    1.0000 </r>
       <r>    5.6262    1.0000 </r>
       <r>    5.8254    1.0000 </r>
       <r>    6.8881    0.0000 </r>
       <r>    7.2984    0.0000 </r>
       <r>    7.3981    0.0000 </r>
       <r>    7.7147    0.0000 </r>
       <r>    7.7613    0.0000 </r>
       <r>    8.1517    0.0000 </r>
       <r>    8.6056    0.0000 </r>
       <r>    9.0714    0.0000 </r>
       <r>    9.4083    0.0000 </r>
       <r>    9.4377    0.0000 </r>
       <r>   10.9377    0.0000 </r>
       <r>   11.1907    0.0000 </r>
       <r>   12.5623    0.0000 </r>
       <r>   12.7999    0.0000 </r>
       <r>   13.1965    0.0000 </r>
       <r>   13.5603    0.0000 </r>
       <r>   13.8516    0.0000 </r>
       <r>   14.3140    0.0000 </r>
       <r>   14.5833    0.0000 </r>
       <r>   14.5965    0.0000 </r>
       <r>   15.3887    0.0000 </r>
       <r>   15.5667    0.0000 </r>
       <r>   15.5754    0.0000 </r>
       <r>   16.3910    0.0000 </r>
      </set>
      <set comment="kpoint 32">
       <r>  -15.4081    1.0000 </r>
       <r>  -15.4039    1.0000 </r>
       <r>  -15.3958    1.0000 </r>
       <r>  -15.3952    1.0000 </r>
       <r>  -15.3915    1.0000 </r>
       <r>  -15.3901    1.0000 </r>
       <r>  -15.3895    1.0000 </r>
       <r>  -15.3884    1.0000 </r>
       <r>  -15.3799    1.0000 </r>
       <r>  -15.3797    1.0000 </r>
       <r>  -15.3700    1.0000 </r>
       <r>  -15.3665    1.0000 </r>
       <r>  -15.3623    1.0000 </r>
       <r>  -15.3603    1.0000 </r>
       <r>  -15.3427    1.0000 </r>
       <r>  -15.3393    1.0000 </r>
       <r>  -15.3326    1.0000 </r>
       <r>  -15.3295    1.0000 </r>
       <r>  -15.3112    1.0000 </r>
       <r>  -15.3082    1.0000 </r>
       <r>   -7.5362    1.0000 </r>
       <r>   -7.3909    1.0000 </r>
       <r>   -6.9206    1.0000 </r>
       <r>   -6.7587    1.0000 </r>
       <r>   -2.4488    1.0000 </r>
       <r>   -2.1051    1.0000 </r>
       <r>   -1.0385    1.0000 </r>
       <r>   -0.7634    1.0000 </r>
       <r>    1.8755    1.0000 </r>
       <r>    2.8076    1.0000 </r>
       <r>    3.2926    1.0000 </r>
       <r>    3.3008    1.0000 </r>
       <r>    3.4946    1.0000 </r>
       <r>    3.9488    1.0000 </r>
       <r>    4.0800    1.0000 </r>
       <r>    4.2797    1.0000 </r>
       <r>    4.8122    1.0000 </r>
       <r>    4.9832    1.0000 </r>
       <r>    5.6207    1.0000 </r>
       <r>    5.8289    1.0000 </r>
       <r>    6.8901    0.0000 </r>
       <r>    7.3041    0.0000 </r>
       <r>    7.3844    0.0000 </r>
       <r>    7.7349    0.0000 </r>
       <r>    7.7635    0.0000 </r>
       <r>    8.1419    0.0000 </r>
       <r>    8.6000    0.0000 </r>
       <r>    9.0537    0.0000 </r>
       <r>    9.4192    0.0000 </r>
       <r>    9.4563    0.0000 </r>
       <r>   10.9234    0.0000 </r>
       <r>   11.1930    0.0000 </r>
       <r>   12.5559    0.0000 </r>
       <r>   12.8042    0.0000 </r>
       <r>   13.1943    0.0000 </r>
       <r>   13.5647    0.0000 </r>
       <r>   13.8683    0.0000 </r>
       <r>   14.3173    0.0000 </r>
       <r>   14.5695    0.0000 </r>
       <r>   14.5885    0.0000 </r>
       <r>   15.3748    0.0000 </r>
       <r>   15.5765    0.0000 </r>
       <r>   15.5939    0.0000 </r>
       <r>   16.3844    0.0000 </r>
      </set>
      <set comment="kpoint 33">
       <r>  -15.4061    1.0000 </r>
       <r>  -15.4042    1.0000 </r>
       <r>  -15.3970    1.0000 </r>
       <r>  -15.3960    1.0000 </r>
       <r>  -15.3911    1.0000 </r>
       <r>  -15.3902    1.0000 </r>
       <r>  -15.3898    1.0000 </r>
       <r>  -15.3889    1.0000 </r>
       <r>  -15.3804    1.0000 </r>
       <r>  -15.3795    1.0000 </r>
       <r>  -15.3677    1.0000 </r>
       <r>  -15.3657    1.0000 </r>
       <r>  -15.3622    1.0000 </r>
       <r>  -15.3599    1.0000 </r>
       <r>  -15.3418    1.0000 </r>
       <r>  -15.3398    1.0000 </r>
       <r>  -15.3323    1.0000 </r>
       <r>  -15.3298    1.0000 </r>
       <r>  -15.3109    1.0000 </r>
       <r>  -15.3086    1.0000 </r>
       <r>   -7.2963    1.0000 </r>
       <r>   -7.2760    1.0000 </r>
       <r>   -6.9458    1.0000 </r>
       <r>   -6.9225    1.0000 </r>
       <r>   -2.4498    1.0000 </r>
       <r>   -2.4287    1.0000 </r>
       <r>   -1.1274    1.0000 </r>
       <r>   -1.1084    1.0000 </r>
       <r>    2.4349    1.0000 </r>
       <r>    2.4536    1.0000 </r>
       <r>    3.5743    1.0000 </r>
       <r>    3.5984    1.0000 </r>
       <r>    3.6869    1.0000 </r>
       <r>    3.7177    1.0000 </r>
       <r>    4.0820    1.0000 </r>
       <r>    4.1213    1.0000 </r>
       <r>    5.3381    1.0000 </r>
       <r>    5.3511    1.0000 </r>
       <r>    5.7118    1.0000 </r>
       <r>    5.7148    1.0000 </r>
       <r>    6.9159    0.0000 </r>
       <r>    6.9240    0.0000 </r>
       <r>    7.2752    0.0000 </r>
       <r>    7.3084    0.0000 </r>
       <r>    7.5934    0.0000 </r>
       <r>    7.6004    0.0000 </r>
       <r>    8.8503    0.0000 </r>
       <r>    8.8694    0.0000 </r>
       <r>    8.8694    0.0000 </r>
       <r>    8.8996    0.0000 </r>
       <r>   11.2031    0.0000 </r>
       <r>   11.2146    0.0000 </r>
       <r>   13.4920    0.0000 </r>
       <r>   13.5015    0.0000 </r>
       <r>   14.1170    0.0000 </r>
       <r>   14.1225    0.0000 </r>
       <r>   14.1994    0.0000 </r>
       <r>   14.2177    0.0000 </r>
       <r>   14.5173    0.0000 </r>
       <r>   14.5190    0.0000 </r>
       <r>   15.7659    0.0000 </r>
       <r>   15.7836    0.0000 </r>
       <r>   15.7918    0.0000 </r>
       <r>   15.8004    0.0000 </r>
      </set>
      <set comment="kpoint 34">
       <r>  -15.4116    1.0000 </r>
       <r>  -15.4034    1.0000 </r>
       <r>  -15.3956    1.0000 </r>
       <r>  -15.3928    1.0000 </r>
       <r>  -15.3915    1.0000 </r>
       <r>  -15.3905    1.0000 </r>
       <r>  -15.3894    1.0000 </r>
       <r>  -15.3859    1.0000 </r>
       <r>  -15.3817    1.0000 </r>
       <r>  -15.3796    1.0000 </r>
       <r>  -15.3760    1.0000 </r>
       <r>  -15.3736    1.0000 </r>
       <r>  -15.3630    1.0000 </r>
       <r>  -15.3617    1.0000 </r>
       <r>  -15.3420    1.0000 </r>
       <r>  -15.3383    1.0000 </r>
       <r>  -15.3319    1.0000 </r>
       <r>  -15.3291    1.0000 </r>
       <r>  -15.3130    1.0000 </r>
       <r>  -15.3083    1.0000 </r>
       <r>   -8.0339    1.0000 </r>
       <r>   -7.8472    1.0000 </r>
       <r>   -6.8806    1.0000 </r>
       <r>   -6.6105    1.0000 </r>
       <r>   -1.4278    1.0000 </r>
       <r>   -0.9982    1.0000 </r>
       <r>    0.4381    1.0000 </r>
       <r>    0.4472    1.0000 </r>
       <r>    1.2332    1.0000 </r>
       <r>    2.1121    1.0000 </r>
       <r>    2.3367    1.0000 </r>
       <r>    2.6591    1.0000 </r>
       <r>    2.8599    1.0000 </r>
       <r>    3.1477    1.0000 </r>
       <r>    3.6636    1.0000 </r>
       <r>    3.7640    1.0000 </r>
       <r>    4.0641    1.0000 </r>
       <r>    4.1074    1.0000 </r>
       <r>    5.2619    1.0000 </r>
       <r>    5.2992    1.0000 </r>
       <r>    7.7323    0.0000 </r>
       <r>    8.4433    0.0000 </r>
       <r>    8.6720    0.0000 </r>
       <r>    8.9353    0.0000 </r>
       <r>    9.0937    0.0000 </r>
       <r>    9.4130    0.0000 </r>
       <r>    9.4382    0.0000 </r>
       <r>    9.9596    0.0000 </r>
       <r>   10.5490    0.0000 </r>
       <r>   11.0271    0.0000 </r>
       <r>   11.0314    0.0000 </r>
       <r>   11.3062    0.0000 </r>
       <r>   11.4956    0.0000 </r>
       <r>   11.6183    0.0000 </r>
       <r>   11.8240    0.0000 </r>
       <r>   12.2272    0.0000 </r>
       <r>   12.5744    0.0000 </r>
       <r>   13.5792    0.0000 </r>
       <r>   13.8623    0.0000 </r>
       <r>   14.3785    0.0000 </r>
       <r>   15.2777    0.0000 </r>
       <r>   15.2988    0.0000 </r>
       <r>   15.3391    0.0000 </r>
       <r>   15.4508    0.0000 </r>
      </set>
      <set comment="kpoint 35">
       <r>  -15.4108    1.0000 </r>
       <r>  -15.4031    1.0000 </r>
       <r>  -15.3946    1.0000 </r>
       <r>  -15.3930    1.0000 </r>
       <r>  -15.3916    1.0000 </r>
       <r>  -15.3907    1.0000 </r>
       <r>  -15.3901    1.0000 </r>
       <r>  -15.3862    1.0000 </r>
       <r>  -15.3823    1.0000 </r>
       <r>  -15.3801    1.0000 </r>
       <r>  -15.3748    1.0000 </r>
       <r>  -15.3720    1.0000 </r>
       <r>  -15.3627    1.0000 </r>
       <r>  -15.3613    1.0000 </r>
       <r>  -15.3420    1.0000 </r>
       <r>  -15.3383    1.0000 </r>
       <r>  -15.3322    1.0000 </r>
       <r>  -15.3295    1.0000 </r>
       <r>  -15.3128    1.0000 </r>
       <r>  -15.3084    1.0000 </r>
       <r>   -7.9623    1.0000 </r>
       <r>   -7.7788    1.0000 </r>
       <r>   -6.8657    1.0000 </r>
       <r>   -6.6095    1.0000 </r>
       <r>   -1.6268    1.0000 </r>
       <r>   -1.1560    1.0000 </r>
       <r>    0.0988    1.0000 </r>
       <r>    0.2647    1.0000 </r>
       <r>    1.2980    1.0000 </r>
       <r>    2.0353    1.0000 </r>
       <r>    2.2520    1.0000 </r>
       <r>    2.5833    1.0000 </r>
       <r>    3.0866    1.0000 </r>
       <r>    3.4242    1.0000 </r>
       <r>    3.5913    1.0000 </r>
       <r>    3.7382    1.0000 </r>
       <r>    4.4905    1.0000 </r>
       <r>    4.7387    1.0000 </r>
       <r>    5.1607    1.0000 </r>
       <r>    5.3227    1.0000 </r>
       <r>    7.6608    0.0000 </r>
       <r>    7.9253    0.0000 </r>
       <r>    8.3072    0.0000 </r>
       <r>    8.7455    0.0000 </r>
       <r>    8.9103    0.0000 </r>
       <r>    9.2023    0.0000 </r>
       <r>    9.6491    0.0000 </r>
       <r>    9.9707    0.0000 </r>
       <r>   10.3166    0.0000 </r>
       <r>   10.4885    0.0000 </r>
       <r>   10.8764    0.0000 </r>
       <r>   10.9938    0.0000 </r>
       <r>   11.7620    0.0000 </r>
       <r>   12.0079    0.0000 </r>
       <r>   12.1221    0.0000 </r>
       <r>   12.5212    0.0000 </r>
       <r>   12.9725    0.0000 </r>
       <r>   13.7302    0.0000 </r>
       <r>   14.0763    0.0000 </r>
       <r>   14.6220    0.0000 </r>
       <r>   14.8212    0.0000 </r>
       <r>   15.2149    0.0000 </r>
       <r>   15.5413    0.0000 </r>
       <r>   15.7706    0.0000 </r>
      </set>
      <set comment="kpoint 36">
       <r>  -15.4109    1.0000 </r>
       <r>  -15.4031    1.0000 </r>
       <r>  -15.3945    1.0000 </r>
       <r>  -15.3926    1.0000 </r>
       <r>  -15.3919    1.0000 </r>
       <r>  -15.3915    1.0000 </r>
       <r>  -15.3894    1.0000 </r>
       <r>  -15.3865    1.0000 </r>
       <r>  -15.3818    1.0000 </r>
       <r>  -15.3803    1.0000 </r>
       <r>  -15.3748    1.0000 </r>
       <r>  -15.3721    1.0000 </r>
       <r>  -15.3624    1.0000 </r>
       <r>  -15.3615    1.0000 </r>
       <r>  -15.3421    1.0000 </r>
       <r>  -15.3381    1.0000 </r>
       <r>  -15.3324    1.0000 </r>
       <r>  -15.3294    1.0000 </r>
       <r>  -15.3129    1.0000 </r>
       <r>  -15.3084    1.0000 </r>
       <r>   -7.9618    1.0000 </r>
       <r>   -7.7795    1.0000 </r>
       <r>   -6.8645    1.0000 </r>
       <r>   -6.6104    1.0000 </r>
       <r>   -1.6291    1.0000 </r>
       <r>   -1.1515    1.0000 </r>
       <r>    0.0954    1.0000 </r>
       <r>    0.2646    1.0000 </r>
       <r>    1.3007    1.0000 </r>
       <r>    2.0360    1.0000 </r>
       <r>    2.2506    1.0000 </r>
       <r>    2.5813    1.0000 </r>
       <r>    3.0740    1.0000 </r>
       <r>    3.4294    1.0000 </r>
       <r>    3.5901    1.0000 </r>
       <r>    3.7555    1.0000 </r>
       <r>    4.4878    1.0000 </r>
       <r>    4.7363    1.0000 </r>
       <r>    5.1650    1.0000 </r>
       <r>    5.3184    1.0000 </r>
       <r>    7.6549    0.0000 </r>
       <r>    7.9191    0.0000 </r>
       <r>    8.3080    0.0000 </r>
       <r>    8.7506    0.0000 </r>
       <r>    8.9146    0.0000 </r>
       <r>    9.2016    0.0000 </r>
       <r>    9.6504    0.0000 </r>
       <r>    9.9768    0.0000 </r>
       <r>   10.3066    0.0000 </r>
       <r>   10.4883    0.0000 </r>
       <r>   10.8818    0.0000 </r>
       <r>   10.9851    0.0000 </r>
       <r>   11.7539    0.0000 </r>
       <r>   12.0233    0.0000 </r>
       <r>   12.1417    0.0000 </r>
       <r>   12.5112    0.0000 </r>
       <r>   12.9614    0.0000 </r>
       <r>   13.7398    0.0000 </r>
       <r>   14.0776    0.0000 </r>
       <r>   14.6185    0.0000 </r>
       <r>   14.8171    0.0000 </r>
       <r>   15.2125    0.0000 </r>
       <r>   15.5524    0.0000 </r>
       <r>   15.7660    0.0000 </r>
      </set>
      <set comment="kpoint 37">
       <r>  -15.4088    1.0000 </r>
       <r>  -15.4024    1.0000 </r>
       <r>  -15.3961    1.0000 </r>
       <r>  -15.3942    1.0000 </r>
       <r>  -15.3914    1.0000 </r>
       <r>  -15.3908    1.0000 </r>
       <r>  -15.3893    1.0000 </r>
       <r>  -15.3871    1.0000 </r>
       <r>  -15.3830    1.0000 </r>
       <r>  -15.3809    1.0000 </r>
       <r>  -15.3721    1.0000 </r>
       <r>  -15.3683    1.0000 </r>
       <r>  -15.3624    1.0000 </r>
       <r>  -15.3598    1.0000 </r>
       <r>  -15.3418    1.0000 </r>
       <r>  -15.3383    1.0000 </r>
       <r>  -15.3328    1.0000 </r>
       <r>  -15.3302    1.0000 </r>
       <r>  -15.3124    1.0000 </r>
       <r>  -15.3087    1.0000 </r>
       <r>   -7.7612    1.0000 </r>
       <r>   -7.5884    1.0000 </r>
       <r>   -6.8487    1.0000 </r>
       <r>   -6.6310    1.0000 </r>
       <r>   -2.0468    1.0000 </r>
       <r>   -1.5744    1.0000 </r>
       <r>   -0.5091    1.0000 </r>
       <r>   -0.2115    1.0000 </r>
       <r>    1.5028    1.0000 </r>
       <r>    2.0508    1.0000 </r>
       <r>    2.2732    1.0000 </r>
       <r>    2.9139    1.0000 </r>
       <r>    3.0810    1.0000 </r>
       <r>    3.4502    1.0000 </r>
       <r>    4.0438    1.0000 </r>
       <r>    4.2133    1.0000 </r>
       <r>    4.9347    1.0000 </r>
       <r>    5.0722    1.0000 </r>
       <r>    5.1755    1.0000 </r>
       <r>    5.3831    1.0000 </r>
       <r>    7.2710    0.0000 </r>
       <r>    7.4246    0.0000 </r>
       <r>    7.8551    0.0000 </r>
       <r>    8.0369    0.0000 </r>
       <r>    8.6665    0.0000 </r>
       <r>    9.0165    0.0000 </r>
       <r>    9.3441    0.0000 </r>
       <r>    9.5094    0.0000 </r>
       <r>   10.1625    0.0000 </r>
       <r>   10.3043    0.0000 </r>
       <r>   10.8478    0.0000 </r>
       <r>   10.9405    0.0000 </r>
       <r>   12.0138    0.0000 </r>
       <r>   12.0937    0.0000 </r>
       <r>   12.8937    0.0000 </r>
       <r>   12.9855    0.0000 </r>
       <r>   13.4086    0.0000 </r>
       <r>   13.8785    0.0000 </r>
       <r>   14.1743    0.0000 </r>
       <r>   14.7427    0.0000 </r>
       <r>   14.9112    0.0000 </r>
       <r>   15.5224    0.0000 </r>
       <r>   15.8925    0.0000 </r>
       <r>   16.2292    0.0000 </r>
      </set>
      <set comment="kpoint 38">
       <r>  -15.4088    1.0000 </r>
       <r>  -15.4024    1.0000 </r>
       <r>  -15.3956    1.0000 </r>
       <r>  -15.3947    1.0000 </r>
       <r>  -15.3913    1.0000 </r>
       <r>  -15.3910    1.0000 </r>
       <r>  -15.3893    1.0000 </r>
       <r>  -15.3873    1.0000 </r>
       <r>  -15.3820    1.0000 </r>
       <r>  -15.3815    1.0000 </r>
       <r>  -15.3721    1.0000 </r>
       <r>  -15.3686    1.0000 </r>
       <r>  -15.3617    1.0000 </r>
       <r>  -15.3602    1.0000 </r>
       <r>  -15.3420    1.0000 </r>
       <r>  -15.3378    1.0000 </r>
       <r>  -15.3333    1.0000 </r>
       <r>  -15.3300    1.0000 </r>
       <r>  -15.3124    1.0000 </r>
       <r>  -15.3087    1.0000 </r>
       <r>   -7.7600    1.0000 </r>
       <r>   -7.5905    1.0000 </r>
       <r>   -6.8455    1.0000 </r>
       <r>   -6.6334    1.0000 </r>
       <r>   -2.0528    1.0000 </r>
       <r>   -1.5625    1.0000 </r>
       <r>   -0.5189    1.0000 </r>
       <r>   -0.2089    1.0000 </r>
       <r>    1.5038    1.0000 </r>
       <r>    2.0506    1.0000 </r>
       <r>    2.2713    1.0000 </r>
       <r>    2.9139    1.0000 </r>
       <r>    3.0855    1.0000 </r>
       <r>    3.4422    1.0000 </r>
       <r>    4.0574    1.0000 </r>
       <r>    4.2125    1.0000 </r>
       <r>    4.9383    1.0000 </r>
       <r>    5.0654    1.0000 </r>
       <r>    5.1773    1.0000 </r>
       <r>    5.3767    1.0000 </r>
       <r>    7.2659    0.0000 </r>
       <r>    7.4332    0.0000 </r>
       <r>    7.8576    0.0000 </r>
       <r>    8.0269    0.0000 </r>
       <r>    8.6646    0.0000 </r>
       <r>    9.0118    0.0000 </r>
       <r>    9.3451    0.0000 </r>
       <r>    9.5213    0.0000 </r>
       <r>   10.1577    0.0000 </r>
       <r>   10.3135    0.0000 </r>
       <r>   10.8444    0.0000 </r>
       <r>   10.9369    0.0000 </r>
       <r>   12.0037    0.0000 </r>
       <r>   12.1046    0.0000 </r>
       <r>   12.9028    0.0000 </r>
       <r>   12.9874    0.0000 </r>
       <r>   13.4022    0.0000 </r>
       <r>   13.8818    0.0000 </r>
       <r>   14.1713    0.0000 </r>
       <r>   14.7457    0.0000 </r>
       <r>   14.9028    0.0000 </r>
       <r>   15.5208    0.0000 </r>
       <r>   15.8920    0.0000 </r>
       <r>   16.2309    0.0000 </r>
      </set>
      <set comment="kpoint 39">
       <r>  -15.4062    1.0000 </r>
       <r>  -15.4019    1.0000 </r>
       <r>  -15.3993    1.0000 </r>
       <r>  -15.3970    1.0000 </r>
       <r>  -15.3916    1.0000 </r>
       <r>  -15.3906    1.0000 </r>
       <r>  -15.3885    1.0000 </r>
       <r>  -15.3868    1.0000 </r>
       <r>  -15.3833    1.0000 </r>
       <r>  -15.3816    1.0000 </r>
       <r>  -15.3690    1.0000 </r>
       <r>  -15.3655    1.0000 </r>
       <r>  -15.3615    1.0000 </r>
       <r>  -15.3583    1.0000 </r>
       <r>  -15.3409    1.0000 </r>
       <r>  -15.3384    1.0000 </r>
       <r>  -15.3331    1.0000 </r>
       <r>  -15.3308    1.0000 </r>
       <r>  -15.3119    1.0000 </r>
       <r>  -15.3091    1.0000 </r>
       <r>   -7.4798    1.0000 </r>
       <r>   -7.3300    1.0000 </r>
       <r>   -6.8937    1.0000 </r>
       <r>   -6.7270    1.0000 </r>
       <r>   -2.3535    1.0000 </r>
       <r>   -2.0435    1.0000 </r>
       <r>   -0.9666    1.0000 </r>
       <r>   -0.7368    1.0000 </r>
       <r>    1.8749    1.0000 </r>
       <r>    2.3420    1.0000 </r>
       <r>    2.6210    1.0000 </r>
       <r>    3.0219    1.0000 </r>
       <r>    3.3349    1.0000 </r>
       <r>    3.4517    1.0000 </r>
       <r>    3.8516    1.0000 </r>
       <r>    4.3351    1.0000 </r>
       <r>    4.9553    1.0000 </r>
       <r>    5.1361    1.0000 </r>
       <r>    5.2931    1.0000 </r>
       <r>    5.3907    1.0000 </r>
       <r>    7.0828    0.0000 </r>
       <r>    7.3481    0.0000 </r>
       <r>    7.5745    0.0000 </r>
       <r>    7.9329    0.0000 </r>
       <r>    8.2312    0.0000 </r>
       <r>    8.6532    0.0000 </r>
       <r>    8.7352    0.0000 </r>
       <r>    9.0305    0.0000 </r>
       <r>   10.0321    0.0000 </r>
       <r>   10.1941    0.0000 </r>
       <r>   10.8244    0.0000 </r>
       <r>   11.0819    0.0000 </r>
       <r>   12.6008    0.0000 </r>
       <r>   12.8844    0.0000 </r>
       <r>   13.1257    0.0000 </r>
       <r>   13.3874    0.0000 </r>
       <r>   13.9358    0.0000 </r>
       <r>   14.2793    0.0000 </r>
       <r>   14.4449    0.0000 </r>
       <r>   14.6432    0.0000 </r>
       <r>   15.3075    0.0000 </r>
       <r>   15.6939    0.0000 </r>
       <r>   15.9490    0.0000 </r>
       <r>   16.6436    0.0000 </r>
      </set>
      <set comment="kpoint 40">
       <r>  -15.4063    1.0000 </r>
       <r>  -15.4020    1.0000 </r>
       <r>  -15.3985    1.0000 </r>
       <r>  -15.3977    1.0000 </r>
       <r>  -15.3915    1.0000 </r>
       <r>  -15.3906    1.0000 </r>
       <r>  -15.3887    1.0000 </r>
       <r>  -15.3868    1.0000 </r>
       <r>  -15.3826    1.0000 </r>
       <r>  -15.3821    1.0000 </r>
       <r>  -15.3690    1.0000 </r>
       <r>  -15.3658    1.0000 </r>
       <r>  -15.3607    1.0000 </r>
       <r>  -15.3587    1.0000 </r>
       <r>  -15.3412    1.0000 </r>
       <r>  -15.3378    1.0000 </r>
       <r>  -15.3336    1.0000 </r>
       <r>  -15.3307    1.0000 </r>
       <r>  -15.3119    1.0000 </r>
       <r>  -15.3091    1.0000 </r>
       <r>   -7.4765    1.0000 </r>
       <r>   -7.3361    1.0000 </r>
       <r>   -6.8856    1.0000 </r>
       <r>   -6.7322    1.0000 </r>
       <r>   -2.3640    1.0000 </r>
       <r>   -2.0267    1.0000 </r>
       <r>   -0.9803    1.0000 </r>
       <r>   -0.7299    1.0000 </r>
       <r>    1.8731    1.0000 </r>
       <r>    2.3433    1.0000 </r>
       <r>    2.6212    1.0000 </r>
       <r>    3.0254    1.0000 </r>
       <r>    3.3329    1.0000 </r>
       <r>    3.4483    1.0000 </r>
       <r>    3.8631    1.0000 </r>
       <r>    4.3296    1.0000 </r>
       <r>    4.9483    1.0000 </r>
       <r>    5.1447    1.0000 </r>
       <r>    5.2926    1.0000 </r>
       <r>    5.3846    1.0000 </r>
       <r>    7.0911    0.0000 </r>
       <r>    7.3370    0.0000 </r>
       <r>    7.5857    0.0000 </r>
       <r>    7.9304    0.0000 </r>
       <r>    8.2206    0.0000 </r>
       <r>    8.6484    0.0000 </r>
       <r>    8.7336    0.0000 </r>
       <r>    9.0424    0.0000 </r>
       <r>   10.0449    0.0000 </r>
       <r>   10.1915    0.0000 </r>
       <r>   10.8119    0.0000 </r>
       <r>   11.0834    0.0000 </r>
       <r>   12.5985    0.0000 </r>
       <r>   12.8860    0.0000 </r>
       <r>   13.1302    0.0000 </r>
       <r>   13.3969    0.0000 </r>
       <r>   13.9235    0.0000 </r>
       <r>   14.2716    0.0000 </r>
       <r>   14.4594    0.0000 </r>
       <r>   14.6415    0.0000 </r>
       <r>   15.3102    0.0000 </r>
       <r>   15.6808    0.0000 </r>
       <r>   15.9451    0.0000 </r>
       <r>   16.6523    0.0000 </r>
      </set>
      <set comment="kpoint 41">
       <r>  -15.4042    1.0000 </r>
       <r>  -15.4029    1.0000 </r>
       <r>  -15.3997    1.0000 </r>
       <r>  -15.3989    1.0000 </r>
       <r>  -15.3919    1.0000 </r>
       <r>  -15.3910    1.0000 </r>
       <r>  -15.3880    1.0000 </r>
       <r>  -15.3866    1.0000 </r>
       <r>  -15.3831    1.0000 </r>
       <r>  -15.3820    1.0000 </r>
       <r>  -15.3672    1.0000 </r>
       <r>  -15.3652    1.0000 </r>
       <r>  -15.3603    1.0000 </r>
       <r>  -15.3580    1.0000 </r>
       <r>  -15.3403    1.0000 </r>
       <r>  -15.3383    1.0000 </r>
       <r>  -15.3334    1.0000 </r>
       <r>  -15.3310    1.0000 </r>
       <r>  -15.3116    1.0000 </r>
       <r>  -15.3093    1.0000 </r>
       <r>   -7.2440    1.0000 </r>
       <r>   -7.2243    1.0000 </r>
       <r>   -6.9087    1.0000 </r>
       <r>   -6.8862    1.0000 </r>
       <r>   -2.3584    1.0000 </r>
       <r>   -2.3383    1.0000 </r>
       <r>   -1.0555    1.0000 </r>
       <r>   -1.0376    1.0000 </r>
       <r>    2.3331    1.0000 </r>
       <r>    2.3541    1.0000 </r>
       <r>    2.9602    1.0000 </r>
       <r>    2.9890    1.0000 </r>
       <r>    3.3070    1.0000 </r>
       <r>    3.3414    1.0000 </r>
       <r>    3.9492    1.0000 </r>
       <r>    3.9767    1.0000 </r>
       <r>    5.0128    1.0000 </r>
       <r>    5.0317    1.0000 </r>
       <r>    5.3775    1.0000 </r>
       <r>    5.3797    1.0000 </r>
       <r>    7.2364    0.0000 </r>
       <r>    7.2415    0.0000 </r>
       <r>    7.6465    0.0000 </r>
       <r>    7.6556    0.0000 </r>
       <r>    8.2331    0.0000 </r>
       <r>    8.2457    0.0000 </r>
       <r>    8.8926    0.0000 </r>
       <r>    8.9145    0.0000 </r>
       <r>    9.7726    0.0000 </r>
       <r>    9.7910    0.0000 </r>
       <r>   11.0552    0.0000 </r>
       <r>   11.0650    0.0000 </r>
       <r>   12.8104    0.0000 </r>
       <r>   12.8229    0.0000 </r>
       <r>   13.9212    0.0000 </r>
       <r>   13.9346    0.0000 </r>
       <r>   14.3081    0.0000 </r>
       <r>   14.3169    0.0000 </r>
       <r>   15.2093    0.0000 </r>
       <r>   15.2199    0.0000 </r>
       <r>   15.7428    0.0000 </r>
       <r>   15.7516    0.0000 </r>
       <r>   15.9248    0.0000 </r>
       <r>   15.9459    0.0000 </r>
      </set>
      <set comment="kpoint 42">
       <r>  -15.4035    1.0000 </r>
       <r>  -15.3999    1.0000 </r>
       <r>  -15.3939    1.0000 </r>
       <r>  -15.3929    1.0000 </r>
       <r>  -15.3922    1.0000 </r>
       <r>  -15.3903    1.0000 </r>
       <r>  -15.3895    1.0000 </r>
       <r>  -15.3889    1.0000 </r>
       <r>  -15.3858    1.0000 </r>
       <r>  -15.3844    1.0000 </r>
       <r>  -15.3727    1.0000 </r>
       <r>  -15.3697    1.0000 </r>
       <r>  -15.3609    1.0000 </r>
       <r>  -15.3596    1.0000 </r>
       <r>  -15.3387    1.0000 </r>
       <r>  -15.3381    1.0000 </r>
       <r>  -15.3326    1.0000 </r>
       <r>  -15.3314    1.0000 </r>
       <r>  -15.3149    1.0000 </r>
       <r>  -15.3113    1.0000 </r>
       <r>   -7.8318    1.0000 </r>
       <r>   -7.6616    1.0000 </r>
       <r>   -6.8182    1.0000 </r>
       <r>   -6.6031    1.0000 </r>
       <r>   -1.7225    1.0000 </r>
       <r>   -1.3343    1.0000 </r>
       <r>   -0.3471    1.0000 </r>
       <r>   -0.1771    1.0000 </r>
       <r>    1.3746    1.0000 </r>
       <r>    2.3096    1.0000 </r>
       <r>    2.5042    1.0000 </r>
       <r>    2.7809    1.0000 </r>
       <r>    3.1991    1.0000 </r>
       <r>    3.3860    1.0000 </r>
       <r>    3.8034    1.0000 </r>
       <r>    3.9048    1.0000 </r>
       <r>    4.2000    1.0000 </r>
       <r>    4.5036    1.0000 </r>
       <r>    5.2561    1.0000 </r>
       <r>    5.3965    1.0000 </r>
       <r>    7.3197    0.0000 </r>
       <r>    8.0074    0.0000 </r>
       <r>    8.0464    0.0000 </r>
       <r>    8.4901    0.0000 </r>
       <r>    8.6488    0.0000 </r>
       <r>    9.1852    0.0000 </r>
       <r>    9.2816    0.0000 </r>
       <r>    9.8857    0.0000 </r>
       <r>   10.0593    0.0000 </r>
       <r>   10.4643    0.0000 </r>
       <r>   10.6007    0.0000 </r>
       <r>   10.6392    0.0000 </r>
       <r>   11.2831    0.0000 </r>
       <r>   11.4504    0.0000 </r>
       <r>   12.3674    0.0000 </r>
       <r>   12.3789    0.0000 </r>
       <r>   12.9032    0.0000 </r>
       <r>   13.4694    0.0000 </r>
       <r>   14.5343    0.0000 </r>
       <r>   14.7480    0.0000 </r>
       <r>   15.8062    0.0000 </r>
       <r>   15.9456    0.0000 </r>
       <r>   16.0218    0.0000 </r>
       <r>   16.4097    0.0000 </r>
      </set>
      <set comment="kpoint 43">
       <r>  -15.4042    1.0000 </r>
       <r>  -15.4004    1.0000 </r>
       <r>  -15.3956    1.0000 </r>
       <r>  -15.3928    1.0000 </r>
       <r>  -15.3920    1.0000 </r>
       <r>  -15.3903    1.0000 </r>
       <r>  -15.3895    1.0000 </r>
       <r>  -15.3878    1.0000 </r>
       <r>  -15.3866    1.0000 </r>
       <r>  -15.3841    1.0000 </r>
       <r>  -15.3719    1.0000 </r>
       <r>  -15.3683    1.0000 </r>
       <r>  -15.3612    1.0000 </r>
       <r>  -15.3585    1.0000 </r>
       <r>  -15.3388    1.0000 </r>
       <r>  -15.3376    1.0000 </r>
       <r>  -15.3329    1.0000 </r>
       <r>  -15.3319    1.0000 </r>
       <r>  -15.3147    1.0000 </r>
       <r>  -15.3113    1.0000 </r>
       <r>   -7.7635    1.0000 </r>
       <r>   -7.5967    1.0000 </r>
       <r>   -6.8017    1.0000 </r>
       <r>   -6.5971    1.0000 </r>
       <r>   -1.7782    1.0000 </r>
       <r>   -1.3503    1.0000 </r>
       <r>   -0.4094    1.0000 </r>
       <r>   -0.2865    1.0000 </r>
       <r>    1.4337    1.0000 </r>
       <r>    1.8165    1.0000 </r>
       <r>    2.1426    1.0000 </r>
       <r>    2.6527    1.0000 </r>
       <r>    3.0054    1.0000 </r>
       <r>    3.3757    1.0000 </r>
       <r>    3.9219    1.0000 </r>
       <r>    4.0141    1.0000 </r>
       <r>    4.7255    1.0000 </r>
       <r>    4.8823    1.0000 </r>
       <r>    5.2702    1.0000 </r>
       <r>    5.3758    1.0000 </r>
       <r>    7.1264    0.0000 </r>
       <r>    7.3789    0.0000 </r>
       <r>    8.0505    0.0000 </r>
       <r>    8.2645    0.0000 </r>
       <r>    8.7448    0.0000 </r>
       <r>    9.0487    0.0000 </r>
       <r>    9.4603    0.0000 </r>
       <r>    9.6288    0.0000 </r>
       <r>   10.0747    0.0000 </r>
       <r>   10.4223    0.0000 </r>
       <r>   10.6953    0.0000 </r>
       <r>   10.9851    0.0000 </r>
       <r>   11.8331    0.0000 </r>
       <r>   12.2766    0.0000 </r>
       <r>   12.7026    0.0000 </r>
       <r>   12.7189    0.0000 </r>
       <r>   13.1138    0.0000 </r>
       <r>   13.7704    0.0000 </r>
       <r>   14.3546    0.0000 </r>
       <r>   14.6460    0.0000 </r>
       <r>   15.1824    0.0000 </r>
       <r>   15.5775    0.0000 </r>
       <r>   15.7777    0.0000 </r>
       <r>   16.0085    0.0000 </r>
      </set>
      <set comment="kpoint 44">
       <r>  -15.4043    1.0000 </r>
       <r>  -15.4003    1.0000 </r>
       <r>  -15.3953    1.0000 </r>
       <r>  -15.3934    1.0000 </r>
       <r>  -15.3918    1.0000 </r>
       <r>  -15.3904    1.0000 </r>
       <r>  -15.3898    1.0000 </r>
       <r>  -15.3876    1.0000 </r>
       <r>  -15.3853    1.0000 </r>
       <r>  -15.3848    1.0000 </r>
       <r>  -15.3719    1.0000 </r>
       <r>  -15.3686    1.0000 </r>
       <r>  -15.3606    1.0000 </r>
       <r>  -15.3588    1.0000 </r>
       <r>  -15.3386    1.0000 </r>
       <r>  -15.3379    1.0000 </r>
       <r>  -15.3327    1.0000 </r>
       <r>  -15.3320    1.0000 </r>
       <r>  -15.3147    1.0000 </r>
       <r>  -15.3113    1.0000 </r>
       <r>   -7.7631    1.0000 </r>
       <r>   -7.5973    1.0000 </r>
       <r>   -6.8007    1.0000 </r>
       <r>   -6.5979    1.0000 </r>
       <r>   -1.7801    1.0000 </r>
       <r>   -1.3470    1.0000 </r>
       <r>   -0.4129    1.0000 </r>
       <r>   -0.2844    1.0000 </r>
       <r>    1.4337    1.0000 </r>
       <r>    1.8215    1.0000 </r>
       <r>    2.1419    1.0000 </r>
       <r>    2.6448    1.0000 </r>
       <r>    2.9966    1.0000 </r>
       <r>    3.3788    1.0000 </r>
       <r>    3.9299    1.0000 </r>
       <r>    4.0218    1.0000 </r>
       <r>    4.7187    1.0000 </r>
       <r>    4.8862    1.0000 </r>
       <r>    5.2728    1.0000 </r>
       <r>    5.3729    1.0000 </r>
       <r>    7.1236    0.0000 </r>
       <r>    7.3814    0.0000 </r>
       <r>    8.0487    0.0000 </r>
       <r>    8.2558    0.0000 </r>
       <r>    8.7440    0.0000 </r>
       <r>    9.0456    0.0000 </r>
       <r>    9.4592    0.0000 </r>
       <r>    9.6395    0.0000 </r>
       <r>   10.0698    0.0000 </r>
       <r>   10.4281    0.0000 </r>
       <r>   10.6958    0.0000 </r>
       <r>   10.9811    0.0000 </r>
       <r>   11.8524    0.0000 </r>
       <r>   12.2692    0.0000 </r>
       <r>   12.6972    0.0000 </r>
       <r>   12.7188    0.0000 </r>
       <r>   13.1207    0.0000 </r>
       <r>   13.7684    0.0000 </r>
       <r>   14.3612    0.0000 </r>
       <r>   14.6421    0.0000 </r>
       <r>   15.1719    0.0000 </r>
       <r>   15.5761    0.0000 </r>
       <r>   15.7775    0.0000 </r>
       <r>   16.0015    0.0000 </r>
      </set>
      <set comment="kpoint 45">
       <r>  -15.4060    1.0000 </r>
       <r>  -15.4022    1.0000 </r>
       <r>  -15.3991    1.0000 </r>
       <r>  -15.3960    1.0000 </r>
       <r>  -15.3909    1.0000 </r>
       <r>  -15.3901    1.0000 </r>
       <r>  -15.3885    1.0000 </r>
       <r>  -15.3866    1.0000 </r>
       <r>  -15.3854    1.0000 </r>
       <r>  -15.3837    1.0000 </r>
       <r>  -15.3701    1.0000 </r>
       <r>  -15.3661    1.0000 </r>
       <r>  -15.3600    1.0000 </r>
       <r>  -15.3564    1.0000 </r>
       <r>  -15.3385    1.0000 </r>
       <r>  -15.3369    1.0000 </r>
       <r>  -15.3334    1.0000 </r>
       <r>  -15.3329    1.0000 </r>
       <r>  -15.3142    1.0000 </r>
       <r>  -15.3112    1.0000 </r>
       <r>   -7.5734    1.0000 </r>
       <r>   -7.4179    1.0000 </r>
       <r>   -6.7776    1.0000 </r>
       <r>   -6.6020    1.0000 </r>
       <r>   -1.9470    1.0000 </r>
       <r>   -1.4947    1.0000 </r>
       <r>   -0.6387    1.0000 </r>
       <r>   -0.4674    1.0000 </r>
       <r>    1.3790    1.0000 </r>
       <r>    1.5029    1.0000 </r>
       <r>    1.9154    1.0000 </r>
       <r>    2.5325    1.0000 </r>
       <r>    2.5747    1.0000 </r>
       <r>    3.2045    1.0000 </r>
       <r>    4.1272    1.0000 </r>
       <r>    4.3903    1.0000 </r>
       <r>    4.4672    1.0000 </r>
       <r>    4.6184    1.0000 </r>
       <r>    5.2643    1.0000 </r>
       <r>    5.4179    1.0000 </r>
       <r>    7.2580    0.0000 </r>
       <r>    7.6638    0.0000 </r>
       <r>    7.7599    0.0000 </r>
       <r>    8.1870    0.0000 </r>
       <r>    8.4698    0.0000 </r>
       <r>    8.8925    0.0000 </r>
       <r>    9.3373    0.0000 </r>
       <r>    9.9054    0.0000 </r>
       <r>   10.4347    0.0000 </r>
       <r>   10.7784    0.0000 </r>
       <r>   11.0412    0.0000 </r>
       <r>   11.1733    0.0000 </r>
       <r>   12.2049    0.0000 </r>
       <r>   13.0081    0.0000 </r>
       <r>   13.3266    0.0000 </r>
       <r>   13.4047    0.0000 </r>
       <r>   13.6613    0.0000 </r>
       <r>   13.9270    0.0000 </r>
       <r>   14.2110    0.0000 </r>
       <r>   14.6580    0.0000 </r>
       <r>   14.8632    0.0000 </r>
       <r>   15.2753    0.0000 </r>
       <r>   15.9781    0.0000 </r>
       <r>   16.1213    0.0000 </r>
      </set>
      <set comment="kpoint 46">
       <r>  -15.4061    1.0000 </r>
       <r>  -15.4018    1.0000 </r>
       <r>  -15.3993    1.0000 </r>
       <r>  -15.3963    1.0000 </r>
       <r>  -15.3905    1.0000 </r>
       <r>  -15.3902    1.0000 </r>
       <r>  -15.3889    1.0000 </r>
       <r>  -15.3862    1.0000 </r>
       <r>  -15.3849    1.0000 </r>
       <r>  -15.3841    1.0000 </r>
       <r>  -15.3702    1.0000 </r>
       <r>  -15.3664    1.0000 </r>
       <r>  -15.3593    1.0000 </r>
       <r>  -15.3568    1.0000 </r>
       <r>  -15.3383    1.0000 </r>
       <r>  -15.3372    1.0000 </r>
       <r>  -15.3332    1.0000 </r>
       <r>  -15.3331    1.0000 </r>
       <r>  -15.3142    1.0000 </r>
       <r>  -15.3112    1.0000 </r>
       <r>   -7.5723    1.0000 </r>
       <r>   -7.4198    1.0000 </r>
       <r>   -6.7750    1.0000 </r>
       <r>   -6.6039    1.0000 </r>
       <r>   -1.9521    1.0000 </r>
       <r>   -1.4849    1.0000 </r>
       <r>   -0.6474    1.0000 </r>
       <r>   -0.4638    1.0000 </r>
       <r>    1.3811    1.0000 </r>
       <r>    1.5026    1.0000 </r>
       <r>    1.9155    1.0000 </r>
       <r>    2.5287    1.0000 </r>
       <r>    2.5717    1.0000 </r>
       <r>    3.2049    1.0000 </r>
       <r>    4.1364    1.0000 </r>
       <r>    4.3896    1.0000 </r>
       <r>    4.4670    1.0000 </r>
       <r>    4.6222    1.0000 </r>
       <r>    5.2681    1.0000 </r>
       <r>    5.4080    1.0000 </r>
       <r>    7.2784    0.0000 </r>
       <r>    7.6461    0.0000 </r>
       <r>    7.7467    0.0000 </r>
       <r>    8.1884    0.0000 </r>
       <r>    8.4597    0.0000 </r>
       <r>    8.9047    0.0000 </r>
       <r>    9.3340    0.0000 </r>
       <r>    9.9163    0.0000 </r>
       <r>   10.4259    0.0000 </r>
       <r>   10.7919    0.0000 </r>
       <r>   11.0404    0.0000 </r>
       <r>   11.1669    0.0000 </r>
       <r>   12.2219    0.0000 </r>
       <r>   12.9989    0.0000 </r>
       <r>   13.3276    0.0000 </r>
       <r>   13.4035    0.0000 </r>
       <r>   13.6510    0.0000 </r>
       <r>   13.9372    0.0000 </r>
       <r>   14.2037    0.0000 </r>
       <r>   14.6629    0.0000 </r>
       <r>   14.8664    0.0000 </r>
       <r>   15.2701    0.0000 </r>
       <r>   15.9829    0.0000 </r>
       <r>   16.1059    0.0000 </r>
      </set>
      <set comment="kpoint 47">
       <r>  -15.4077    1.0000 </r>
       <r>  -15.4053    1.0000 </r>
       <r>  -15.4016    1.0000 </r>
       <r>  -15.3996    1.0000 </r>
       <r>  -15.3906    1.0000 </r>
       <r>  -15.3895    1.0000 </r>
       <r>  -15.3881    1.0000 </r>
       <r>  -15.3863    1.0000 </r>
       <r>  -15.3835    1.0000 </r>
       <r>  -15.3828    1.0000 </r>
       <r>  -15.3681    1.0000 </r>
       <r>  -15.3652    1.0000 </r>
       <r>  -15.3573    1.0000 </r>
       <r>  -15.3544    1.0000 </r>
       <r>  -15.3376    1.0000 </r>
       <r>  -15.3362    1.0000 </r>
       <r>  -15.3339    1.0000 </r>
       <r>  -15.3337    1.0000 </r>
       <r>  -15.3136    1.0000 </r>
       <r>  -15.3112    1.0000 </r>
       <r>   -7.3128    1.0000 </r>
       <r>   -7.1803    1.0000 </r>
       <r>   -6.8054    1.0000 </r>
       <r>   -6.6678    1.0000 </r>
       <r>   -2.1125    1.0000 </r>
       <r>   -1.8215    1.0000 </r>
       <r>   -0.8352    1.0000 </r>
       <r>   -0.6886    1.0000 </r>
       <r>    1.4177    1.0000 </r>
       <r>    1.5556    1.0000 </r>
       <r>    2.1603    1.0000 </r>
       <r>    2.3090    1.0000 </r>
       <r>    2.5612    1.0000 </r>
       <r>    3.2768    1.0000 </r>
       <r>    3.6946    1.0000 </r>
       <r>    3.8857    1.0000 </r>
       <r>    4.1294    1.0000 </r>
       <r>    4.2142    1.0000 </r>
       <r>    4.9703    1.0000 </r>
       <r>    5.2066    1.0000 </r>
       <r>    7.4385    0.0000 </r>
       <r>    8.0053    0.0000 </r>
       <r>    8.2006    0.0000 </r>
       <r>    8.3781    0.0000 </r>
       <r>    8.9811    0.0000 </r>
       <r>    9.2167    0.0000 </r>
       <r>    9.4255    0.0000 </r>
       <r>    9.9283    0.0000 </r>
       <r>   10.4596    0.0000 </r>
       <r>   10.7823    0.0000 </r>
       <r>   11.1450    0.0000 </r>
       <r>   11.2900    0.0000 </r>
       <r>   12.1875    0.0000 </r>
       <r>   12.6604    0.0000 </r>
       <r>   13.2329    0.0000 </r>
       <r>   13.8112    0.0000 </r>
       <r>   14.0001    0.0000 </r>
       <r>   14.3774    0.0000 </r>
       <r>   14.9351    0.0000 </r>
       <r>   15.1310    0.0000 </r>
       <r>   15.4615    0.0000 </r>
       <r>   15.6172    0.0000 </r>
       <r>   16.5872    0.0000 </r>
       <r>   17.0014    0.0000 </r>
      </set>
      <set comment="kpoint 48">
       <r>  -15.4079    1.0000 </r>
       <r>  -15.4050    1.0000 </r>
       <r>  -15.4017    1.0000 </r>
       <r>  -15.3998    1.0000 </r>
       <r>  -15.3906    1.0000 </r>
       <r>  -15.3889    1.0000 </r>
       <r>  -15.3888    1.0000 </r>
       <r>  -15.3856    1.0000 </r>
       <r>  -15.3843    1.0000 </r>
       <r>  -15.3824    1.0000 </r>
       <r>  -15.3684    1.0000 </r>
       <r>  -15.3653    1.0000 </r>
       <r>  -15.3569    1.0000 </r>
       <r>  -15.3546    1.0000 </r>
       <r>  -15.3374    1.0000 </r>
       <r>  -15.3364    1.0000 </r>
       <r>  -15.3341    1.0000 </r>
       <r>  -15.3335    1.0000 </r>
       <r>  -15.3137    1.0000 </r>
       <r>  -15.3112    1.0000 </r>
       <r>   -7.3099    1.0000 </r>
       <r>   -7.1856    1.0000 </r>
       <r>   -6.7987    1.0000 </r>
       <r>   -6.6720    1.0000 </r>
       <r>   -2.1217    1.0000 </r>
       <r>   -1.8074    1.0000 </r>
       <r>   -0.8473    1.0000 </r>
       <r>   -0.6819    1.0000 </r>
       <r>    1.4142    1.0000 </r>
       <r>    1.5609    1.0000 </r>
       <r>    2.1617    1.0000 </r>
       <r>    2.3125    1.0000 </r>
       <r>    2.5501    1.0000 </r>
       <r>    3.2732    1.0000 </r>
       <r>    3.7052    1.0000 </r>
       <r>    3.8782    1.0000 </r>
       <r>    4.1467    1.0000 </r>
       <r>    4.2123    1.0000 </r>
       <r>    4.9638    1.0000 </r>
       <r>    5.2025    1.0000 </r>
       <r>    7.4395    0.0000 </r>
       <r>    8.0032    0.0000 </r>
       <r>    8.2087    0.0000 </r>
       <r>    8.3718    0.0000 </r>
       <r>    8.9758    0.0000 </r>
       <r>    9.2105    0.0000 </r>
       <r>    9.4272    0.0000 </r>
       <r>    9.9357    0.0000 </r>
       <r>   10.4599    0.0000 </r>
       <r>   10.7898    0.0000 </r>
       <r>   11.1474    0.0000 </r>
       <r>   11.2834    0.0000 </r>
       <r>   12.2030    0.0000 </r>
       <r>   12.6461    0.0000 </r>
       <r>   13.2230    0.0000 </r>
       <r>   13.8145    0.0000 </r>
       <r>   14.0087    0.0000 </r>
       <r>   14.3802    0.0000 </r>
       <r>   14.9455    0.0000 </r>
       <r>   15.1219    0.0000 </r>
       <r>   15.4605    0.0000 </r>
       <r>   15.6016    0.0000 </r>
       <r>   16.5800    0.0000 </r>
       <r>   17.0062    0.0000 </r>
      </set>
      <set comment="kpoint 49">
       <r>  -15.4080    1.0000 </r>
       <r>  -15.4073    1.0000 </r>
       <r>  -15.4020    1.0000 </r>
       <r>  -15.4015    1.0000 </r>
       <r>  -15.3905    1.0000 </r>
       <r>  -15.3892    1.0000 </r>
       <r>  -15.3876    1.0000 </r>
       <r>  -15.3866    1.0000 </r>
       <r>  -15.3832    1.0000 </r>
       <r>  -15.3820    1.0000 </r>
       <r>  -15.3672    1.0000 </r>
       <r>  -15.3652    1.0000 </r>
       <r>  -15.3560    1.0000 </r>
       <r>  -15.3536    1.0000 </r>
       <r>  -15.3367    1.0000 </r>
       <r>  -15.3362    1.0000 </r>
       <r>  -15.3343    1.0000 </r>
       <r>  -15.3337    1.0000 </r>
       <r>  -15.3134    1.0000 </r>
       <r>  -15.3112    1.0000 </r>
       <r>   -7.1017    1.0000 </r>
       <r>   -7.0835    1.0000 </r>
       <r>   -6.8147    1.0000 </r>
       <r>   -6.7944    1.0000 </r>
       <r>   -2.0917    1.0000 </r>
       <r>   -2.0755    1.0000 </r>
       <r>   -0.8675    1.0000 </r>
       <r>   -0.8539    1.0000 </r>
       <r>    1.7650    1.0000 </r>
       <r>    1.7904    1.0000 </r>
       <r>    1.9924    1.0000 </r>
       <r>    2.0197    1.0000 </r>
       <r>    2.9304    1.0000 </r>
       <r>    2.9561    1.0000 </r>
       <r>    3.6430    1.0000 </r>
       <r>    3.6673    1.0000 </r>
       <r>    4.0204    1.0000 </r>
       <r>    4.0347    1.0000 </r>
       <r>    4.8119    1.0000 </r>
       <r>    4.8244    1.0000 </r>
       <r>    7.7650    0.0000 </r>
       <r>    7.7838    0.0000 </r>
       <r>    8.7620    0.0000 </r>
       <r>    8.7751    0.0000 </r>
       <r>    9.0259    0.0000 </r>
       <r>    9.0308    0.0000 </r>
       <r>    9.9013    0.0000 </r>
       <r>    9.9056    0.0000 </r>
       <r>   10.6352    0.0000 </r>
       <r>   10.6487    0.0000 </r>
       <r>   10.9660    0.0000 </r>
       <r>   10.9751    0.0000 </r>
       <r>   12.2811    0.0000 </r>
       <r>   12.2955    0.0000 </r>
       <r>   13.4878    0.0000 </r>
       <r>   13.5033    0.0000 </r>
       <r>   14.6854    0.0000 </r>
       <r>   14.6953    0.0000 </r>
       <r>   15.8783    0.0000 </r>
       <r>   15.8893    0.0000 </r>
       <r>   16.0207    0.0000 </r>
       <r>   16.0307    0.0000 </r>
       <r>   16.6253    0.0000 </r>
       <r>   16.6306    0.0000 </r>
      </set>
      <set comment="kpoint 50">
       <r>  -15.4021    1.0000 </r>
       <r>  -15.4003    1.0000 </r>
       <r>  -15.3970    1.0000 </r>
       <r>  -15.3947    1.0000 </r>
       <r>  -15.3898    1.0000 </r>
       <r>  -15.3895    1.0000 </r>
       <r>  -15.3880    1.0000 </r>
       <r>  -15.3874    1.0000 </r>
       <r>  -15.3857    1.0000 </r>
       <r>  -15.3819    1.0000 </r>
       <r>  -15.3705    1.0000 </r>
       <r>  -15.3673    1.0000 </r>
       <r>  -15.3589    1.0000 </r>
       <r>  -15.3556    1.0000 </r>
       <r>  -15.3424    1.0000 </r>
       <r>  -15.3401    1.0000 </r>
       <r>  -15.3318    1.0000 </r>
       <r>  -15.3277    1.0000 </r>
       <r>  -15.3172    1.0000 </r>
       <r>  -15.3146    1.0000 </r>
       <r>   -7.5263    1.0000 </r>
       <r>   -7.3894    1.0000 </r>
       <r>   -6.7879    1.0000 </r>
       <r>   -6.6650    1.0000 </r>
       <r>   -2.0091    1.0000 </r>
       <r>   -1.6477    1.0000 </r>
       <r>   -1.1504    1.0000 </r>
       <r>   -0.8534    1.0000 </r>
       <r>    1.7227    1.0000 </r>
       <r>    2.6697    1.0000 </r>
       <r>    2.8498    1.0000 </r>
       <r>    3.0856    1.0000 </r>
       <r>    3.2941    1.0000 </r>
       <r>    3.7199    1.0000 </r>
       <r>    3.9665    1.0000 </r>
       <r>    4.0268    1.0000 </r>
       <r>    4.3131    1.0000 </r>
       <r>    4.5070    1.0000 </r>
       <r>    5.3055    1.0000 </r>
       <r>    5.6065    1.0000 </r>
       <r>    6.6010    0.0000 </r>
       <r>    7.1249    0.0000 </r>
       <r>    7.8340    0.0000 </r>
       <r>    7.8710    0.0000 </r>
       <r>    8.3342    0.0000 </r>
       <r>    8.5446    0.0000 </r>
       <r>    8.5651    0.0000 </r>
       <r>    9.1005    0.0000 </r>
       <r>    9.3359    0.0000 </r>
       <r>    9.9432    0.0000 </r>
       <r>   10.0616    0.0000 </r>
       <r>   10.4848    0.0000 </r>
       <r>   12.4122    0.0000 </r>
       <r>   12.7545    0.0000 </r>
       <r>   12.7569    0.0000 </r>
       <r>   13.4048    0.0000 </r>
       <r>   13.7990    0.0000 </r>
       <r>   14.1164    0.0000 </r>
       <r>   14.4917    0.0000 </r>
       <r>   15.1001    0.0000 </r>
       <r>   15.1881    0.0000 </r>
       <r>   15.4123    0.0000 </r>
       <r>   16.3707    0.0000 </r>
       <r>   16.4841    0.0000 </r>
      </set>
      <set comment="kpoint 51">
       <r>  -15.4045    1.0000 </r>
       <r>  -15.4019    1.0000 </r>
       <r>  -15.3993    1.0000 </r>
       <r>  -15.3964    1.0000 </r>
       <r>  -15.3904    1.0000 </r>
       <r>  -15.3884    1.0000 </r>
       <r>  -15.3869    1.0000 </r>
       <r>  -15.3867    1.0000 </r>
       <r>  -15.3846    1.0000 </r>
       <r>  -15.3813    1.0000 </r>
       <r>  -15.3701    1.0000 </r>
       <r>  -15.3668    1.0000 </r>
       <r>  -15.3582    1.0000 </r>
       <r>  -15.3547    1.0000 </r>
       <r>  -15.3419    1.0000 </r>
       <r>  -15.3398    1.0000 </r>
       <r>  -15.3319    1.0000 </r>
       <r>  -15.3279    1.0000 </r>
       <r>  -15.3171    1.0000 </r>
       <r>  -15.3145    1.0000 </r>
       <r>   -7.4649    1.0000 </r>
       <r>   -7.3316    1.0000 </r>
       <r>   -6.7664    1.0000 </r>
       <r>   -6.6484    1.0000 </r>
       <r>   -1.9556    1.0000 </r>
       <r>   -1.5778    1.0000 </r>
       <r>   -1.1015    1.0000 </r>
       <r>   -0.8579    1.0000 </r>
       <r>    1.7137    1.0000 </r>
       <r>    1.9060    1.0000 </r>
       <r>    2.3644    1.0000 </r>
       <r>    2.8290    1.0000 </r>
       <r>    3.1529    1.0000 </r>
       <r>    3.4072    1.0000 </r>
       <r>    3.8683    1.0000 </r>
       <r>    4.2303    1.0000 </r>
       <r>    4.6077    1.0000 </r>
       <r>    4.6529    1.0000 </r>
       <r>    5.0651    1.0000 </r>
       <r>    5.1869    1.0000 </r>
       <r>    7.1237    0.0000 </r>
       <r>    7.2178    0.0000 </r>
       <r>    7.5719    0.0000 </r>
       <r>    7.7671    0.0000 </r>
       <r>    8.5189    0.0000 </r>
       <r>    8.8076    0.0000 </r>
       <r>    8.9451    0.0000 </r>
       <r>    9.3696    0.0000 </r>
       <r>    9.7489    0.0000 </r>
       <r>   10.2058    0.0000 </r>
       <r>   10.5336    0.0000 </r>
       <r>   10.7520    0.0000 </r>
       <r>   12.2609    0.0000 </r>
       <r>   12.8873    0.0000 </r>
       <r>   13.1899    0.0000 </r>
       <r>   13.5482    0.0000 </r>
       <r>   13.8602    0.0000 </r>
       <r>   13.8975    0.0000 </r>
       <r>   14.2870    0.0000 </r>
       <r>   14.9418    0.0000 </r>
       <r>   15.3019    0.0000 </r>
       <r>   15.4541    0.0000 </r>
       <r>   16.5055    0.0000 </r>
       <r>   16.6881    0.0000 </r>
      </set>
      <set comment="kpoint 52">
       <r>  -15.4046    1.0000 </r>
       <r>  -15.4016    1.0000 </r>
       <r>  -15.3994    1.0000 </r>
       <r>  -15.3966    1.0000 </r>
       <r>  -15.3904    1.0000 </r>
       <r>  -15.3886    1.0000 </r>
       <r>  -15.3870    1.0000 </r>
       <r>  -15.3858    1.0000 </r>
       <r>  -15.3850    1.0000 </r>
       <r>  -15.3811    1.0000 </r>
       <r>  -15.3702    1.0000 </r>
       <r>  -15.3670    1.0000 </r>
       <r>  -15.3579    1.0000 </r>
       <r>  -15.3548    1.0000 </r>
       <r>  -15.3421    1.0000 </r>
       <r>  -15.3396    1.0000 </r>
       <r>  -15.3318    1.0000 </r>
       <r>  -15.3280    1.0000 </r>
       <r>  -15.3171    1.0000 </r>
       <r>  -15.3145    1.0000 </r>
       <r>   -7.4646    1.0000 </r>
       <r>   -7.3321    1.0000 </r>
       <r>   -6.7658    1.0000 </r>
       <r>   -6.6488    1.0000 </r>
       <r>   -1.9570    1.0000 </r>
       <r>   -1.5751    1.0000 </r>
       <r>   -1.1038    1.0000 </r>
       <r>   -0.8566    1.0000 </r>
       <r>    1.7106    1.0000 </r>
       <r>    1.9121    1.0000 </r>
       <r>    2.3675    1.0000 </r>
       <r>    2.8163    1.0000 </r>
       <r>    3.1508    1.0000 </r>
       <r>    3.4094    1.0000 </r>
       <r>    3.8774    1.0000 </r>
       <r>    4.2281    1.0000 </r>
       <r>    4.5985    1.0000 </r>
       <r>    4.6619    1.0000 </r>
       <r>    5.0653    1.0000 </r>
       <r>    5.1893    1.0000 </r>
       <r>    7.1497    0.0000 </r>
       <r>    7.2025    0.0000 </r>
       <r>    7.5467    0.0000 </r>
       <r>    7.7799    0.0000 </r>
       <r>    8.5176    0.0000 </r>
       <r>    8.8064    0.0000 </r>
       <r>    8.9331    0.0000 </r>
       <r>    9.3691    0.0000 </r>
       <r>    9.7569    0.0000 </r>
       <r>   10.2081    0.0000 </r>
       <r>   10.5393    0.0000 </r>
       <r>   10.7535    0.0000 </r>
       <r>   12.2643    0.0000 </r>
       <r>   12.8877    0.0000 </r>
       <r>   13.1877    0.0000 </r>
       <r>   13.5417    0.0000 </r>
       <r>   13.8612    0.0000 </r>
       <r>   13.8979    0.0000 </r>
       <r>   14.2888    0.0000 </r>
       <r>   14.9443    0.0000 </r>
       <r>   15.3033    0.0000 </r>
       <r>   15.4457    0.0000 </r>
       <r>   16.5058    0.0000 </r>
       <r>   16.6855    0.0000 </r>
      </set>
      <set comment="kpoint 53">
       <r>  -15.4094    1.0000 </r>
       <r>  -15.4064    1.0000 </r>
       <r>  -15.4035    1.0000 </r>
       <r>  -15.4007    1.0000 </r>
       <r>  -15.3910    1.0000 </r>
       <r>  -15.3882    1.0000 </r>
       <r>  -15.3849    1.0000 </r>
       <r>  -15.3839    1.0000 </r>
       <r>  -15.3823    1.0000 </r>
       <r>  -15.3800    1.0000 </r>
       <r>  -15.3693    1.0000 </r>
       <r>  -15.3663    1.0000 </r>
       <r>  -15.3555    1.0000 </r>
       <r>  -15.3524    1.0000 </r>
       <r>  -15.3408    1.0000 </r>
       <r>  -15.3389    1.0000 </r>
       <r>  -15.3320    1.0000 </r>
       <r>  -15.3286    1.0000 </r>
       <r>  -15.3167    1.0000 </r>
       <r>  -15.3142    1.0000 </r>
       <r>   -7.2974    1.0000 </r>
       <r>   -7.1759    1.0000 </r>
       <r>   -6.7243    1.0000 </r>
       <r>   -6.6197    1.0000 </r>
       <r>   -1.8416    1.0000 </r>
       <r>   -1.4486    1.0000 </r>
       <r>   -0.9747    1.0000 </r>
       <r>   -0.8629    1.0000 </r>
       <r>    1.1552    1.0000 </r>
       <r>    1.3697    1.0000 </r>
       <r>    2.1076    1.0000 </r>
       <r>    2.2423    1.0000 </r>
       <r>    2.4252    1.0000 </r>
       <r>    3.1096    1.0000 </r>
       <r>    3.6047    1.0000 </r>
       <r>    3.8479    1.0000 </r>
       <r>    3.9694    1.0000 </r>
       <r>    4.2988    1.0000 </r>
       <r>    4.7988    1.0000 </r>
       <r>    5.2132    1.0000 </r>
       <r>    7.3023    0.0000 </r>
       <r>    7.8856    0.0000 </r>
       <r>    8.2352    0.0000 </r>
       <r>    8.4299    0.0000 </r>
       <r>    8.7643    0.0000 </r>
       <r>    8.9483    0.0000 </r>
       <r>    9.7435    0.0000 </r>
       <r>    9.9975    0.0000 </r>
       <r>   10.2068    0.0000 </r>
       <r>   10.4778    0.0000 </r>
       <r>   11.4343    0.0000 </r>
       <r>   11.6649    0.0000 </r>
       <r>   12.1561    0.0000 </r>
       <r>   12.6645    0.0000 </r>
       <r>   13.3341    0.0000 </r>
       <r>   13.9447    0.0000 </r>
       <r>   14.1888    0.0000 </r>
       <r>   14.3006    0.0000 </r>
       <r>   14.6420    0.0000 </r>
       <r>   14.8899    0.0000 </r>
       <r>   15.4103    0.0000 </r>
       <r>   16.0044    0.0000 </r>
       <r>   16.1487    0.0000 </r>
       <r>   16.5303    0.0000 </r>
      </set>
      <set comment="kpoint 54">
       <r>  -15.4095    1.0000 </r>
       <r>  -15.4062    1.0000 </r>
       <r>  -15.4035    1.0000 </r>
       <r>  -15.4009    1.0000 </r>
       <r>  -15.3907    1.0000 </r>
       <r>  -15.3889    1.0000 </r>
       <r>  -15.3846    1.0000 </r>
       <r>  -15.3832    1.0000 </r>
       <r>  -15.3827    1.0000 </r>
       <r>  -15.3800    1.0000 </r>
       <r>  -15.3696    1.0000 </r>
       <r>  -15.3663    1.0000 </r>
       <r>  -15.3553    1.0000 </r>
       <r>  -15.3524    1.0000 </r>
       <r>  -15.3412    1.0000 </r>
       <r>  -15.3386    1.0000 </r>
       <r>  -15.3319    1.0000 </r>
       <r>  -15.3287    1.0000 </r>
       <r>  -15.3167    1.0000 </r>
       <r>  -15.3142    1.0000 </r>
       <r>   -7.2966    1.0000 </r>
       <r>   -7.1772    1.0000 </r>
       <r>   -6.7228    1.0000 </r>
       <r>   -6.6208    1.0000 </r>
       <r>   -1.8452    1.0000 </r>
       <r>   -1.4411    1.0000 </r>
       <r>   -0.9831    1.0000 </r>
       <r>   -0.8582    1.0000 </r>
       <r>    1.1591    1.0000 </r>
       <r>    1.3654    1.0000 </r>
       <r>    2.1158    1.0000 </r>
       <r>    2.2337    1.0000 </r>
       <r>    2.4248    1.0000 </r>
       <r>    3.0999    1.0000 </r>
       <r>    3.6083    1.0000 </r>
       <r>    3.8537    1.0000 </r>
       <r>    3.9783    1.0000 </r>
       <r>    4.2956    1.0000 </r>
       <r>    4.7920    1.0000 </r>
       <r>    5.2181    1.0000 </r>
       <r>    7.3097    0.0000 </r>
       <r>    7.8834    0.0000 </r>
       <r>    8.2233    0.0000 </r>
       <r>    8.4181    0.0000 </r>
       <r>    8.7646    0.0000 </r>
       <r>    8.9533    0.0000 </r>
       <r>    9.7405    0.0000 </r>
       <r>   10.0179    0.0000 </r>
       <r>   10.1944    0.0000 </r>
       <r>   10.4844    0.0000 </r>
       <r>   11.4380    0.0000 </r>
       <r>   11.6649    0.0000 </r>
       <r>   12.1680    0.0000 </r>
       <r>   12.6529    0.0000 </r>
       <r>   13.3223    0.0000 </r>
       <r>   13.9517    0.0000 </r>
       <r>   14.1948    0.0000 </r>
       <r>   14.2981    0.0000 </r>
       <r>   14.6427    0.0000 </r>
       <r>   14.8900    0.0000 </r>
       <r>   15.4075    0.0000 </r>
       <r>   16.0075    0.0000 </r>
       <r>   16.1414    0.0000 </r>
       <r>   16.5245    0.0000 </r>
      </set>
      <set comment="kpoint 55">
       <r>  -15.4135    1.0000 </r>
       <r>  -15.4116    1.0000 </r>
       <r>  -15.4071    1.0000 </r>
       <r>  -15.4053    1.0000 </r>
       <r>  -15.3912    1.0000 </r>
       <r>  -15.3887    1.0000 </r>
       <r>  -15.3831    1.0000 </r>
       <r>  -15.3817    1.0000 </r>
       <r>  -15.3803    1.0000 </r>
       <r>  -15.3792    1.0000 </r>
       <r>  -15.3684    1.0000 </r>
       <r>  -15.3662    1.0000 </r>
       <r>  -15.3524    1.0000 </r>
       <r>  -15.3499    1.0000 </r>
       <r>  -15.3397    1.0000 </r>
       <r>  -15.3377    1.0000 </r>
       <r>  -15.3318    1.0000 </r>
       <r>  -15.3291    1.0000 </r>
       <r>  -15.3162    1.0000 </r>
       <r>  -15.3139    1.0000 </r>
       <r>   -7.0777    1.0000 </r>
       <r>   -6.9782    1.0000 </r>
       <r>   -6.7163    1.0000 </r>
       <r>   -6.6293    1.0000 </r>
       <r>   -1.7600    1.0000 </r>
       <r>   -1.5136    1.0000 </r>
       <r>   -0.7866    1.0000 </r>
       <r>   -0.7693    1.0000 </r>
       <r>    0.8589    1.0000 </r>
       <r>    1.0939    1.0000 </r>
       <r>    1.6614    1.0000 </r>
       <r>    1.8906    1.0000 </r>
       <r>    2.1949    1.0000 </r>
       <r>    2.6330    1.0000 </r>
       <r>    2.8375    1.0000 </r>
       <r>    3.4520    1.0000 </r>
       <r>    3.7058    1.0000 </r>
       <r>    4.0709    1.0000 </r>
       <r>    4.4481    1.0000 </r>
       <r>    4.7791    1.0000 </r>
       <r>    7.6103    0.0000 </r>
       <r>    8.2391    0.0000 </r>
       <r>    8.8562    0.0000 </r>
       <r>    9.0660    0.0000 </r>
       <r>    9.1638    0.0000 </r>
       <r>    9.5636    0.0000 </r>
       <r>   10.5464    0.0000 </r>
       <r>   10.6295    0.0000 </r>
       <r>   10.7479    0.0000 </r>
       <r>   10.9116    0.0000 </r>
       <r>   11.9202    0.0000 </r>
       <r>   11.9905    0.0000 </r>
       <r>   12.1301    0.0000 </r>
       <r>   12.3607    0.0000 </r>
       <r>   13.1510    0.0000 </r>
       <r>   13.4790    0.0000 </r>
       <r>   14.9804    0.0000 </r>
       <r>   15.3672    0.0000 </r>
       <r>   15.5158    0.0000 </r>
       <r>   15.5392    0.0000 </r>
       <r>   16.0205    0.0000 </r>
       <r>   16.1833    0.0000 </r>
       <r>   16.4181    0.0000 </r>
       <r>   16.7503    0.0000 </r>
      </set>
      <set comment="kpoint 56">
       <r>  -15.4135    1.0000 </r>
       <r>  -15.4116    1.0000 </r>
       <r>  -15.4069    1.0000 </r>
       <r>  -15.4055    1.0000 </r>
       <r>  -15.3908    1.0000 </r>
       <r>  -15.3893    1.0000 </r>
       <r>  -15.3826    1.0000 </r>
       <r>  -15.3816    1.0000 </r>
       <r>  -15.3803    1.0000 </r>
       <r>  -15.3794    1.0000 </r>
       <r>  -15.3687    1.0000 </r>
       <r>  -15.3660    1.0000 </r>
       <r>  -15.3523    1.0000 </r>
       <r>  -15.3499    1.0000 </r>
       <r>  -15.3399    1.0000 </r>
       <r>  -15.3375    1.0000 </r>
       <r>  -15.3318    1.0000 </r>
       <r>  -15.3291    1.0000 </r>
       <r>  -15.3162    1.0000 </r>
       <r>  -15.3139    1.0000 </r>
       <r>   -7.0756    1.0000 </r>
       <r>   -6.9819    1.0000 </r>
       <r>   -6.7122    1.0000 </r>
       <r>   -6.6318    1.0000 </r>
       <r>   -1.7663    1.0000 </r>
       <r>   -1.5043    1.0000 </r>
       <r>   -0.7976    1.0000 </r>
       <r>   -0.7612    1.0000 </r>
       <r>    0.8624    1.0000 </r>
       <r>    1.0905    1.0000 </r>
       <r>    1.6582    1.0000 </r>
       <r>    1.8943    1.0000 </r>
       <r>    2.1993    1.0000 </r>
       <r>    2.6141    1.0000 </r>
       <r>    2.8465    1.0000 </r>
       <r>    3.4552    1.0000 </r>
       <r>    3.7131    1.0000 </r>
       <r>    4.0686    1.0000 </r>
       <r>    4.4413    1.0000 </r>
       <r>    4.7848    1.0000 </r>
       <r>    7.6004    0.0000 </r>
       <r>    8.2501    0.0000 </r>
       <r>    8.8594    0.0000 </r>
       <r>    9.0698    0.0000 </r>
       <r>    9.1492    0.0000 </r>
       <r>    9.5577    0.0000 </r>
       <r>   10.5476    0.0000 </r>
       <r>   10.6372    0.0000 </r>
       <r>   10.7485    0.0000 </r>
       <r>   10.9180    0.0000 </r>
       <r>   11.9201    0.0000 </r>
       <r>   11.9939    0.0000 </r>
       <r>   12.1314    0.0000 </r>
       <r>   12.3527    0.0000 </r>
       <r>   13.1427    0.0000 </r>
       <r>   13.4869    0.0000 </r>
       <r>   14.9857    0.0000 </r>
       <r>   15.3618    0.0000 </r>
       <r>   15.5192    0.0000 </r>
       <r>   15.5370    0.0000 </r>
       <r>   16.0092    0.0000 </r>
       <r>   16.1798    0.0000 </r>
       <r>   16.4159    0.0000 </r>
       <r>   16.7614    0.0000 </r>
      </set>
      <set comment="kpoint 57">
       <r>  -15.4148    1.0000 </r>
       <r>  -15.4141    1.0000 </r>
       <r>  -15.4082    1.0000 </r>
       <r>  -15.4075    1.0000 </r>
       <r>  -15.3910    1.0000 </r>
       <r>  -15.3893    1.0000 </r>
       <r>  -15.3822    1.0000 </r>
       <r>  -15.3809    1.0000 </r>
       <r>  -15.3797    1.0000 </r>
       <r>  -15.3791    1.0000 </r>
       <r>  -15.3680    1.0000 </r>
       <r>  -15.3662    1.0000 </r>
       <r>  -15.3510    1.0000 </r>
       <r>  -15.3488    1.0000 </r>
       <r>  -15.3393    1.0000 </r>
       <r>  -15.3371    1.0000 </r>
       <r>  -15.3316    1.0000 </r>
       <r>  -15.3292    1.0000 </r>
       <r>  -15.3160    1.0000 </r>
       <r>  -15.3138    1.0000 </r>
       <r>   -6.9136    1.0000 </r>
       <r>   -6.8976    1.0000 </r>
       <r>   -6.7140    1.0000 </r>
       <r>   -6.6971    1.0000 </r>
       <r>   -1.6807    1.0000 </r>
       <r>   -1.6719    1.0000 </r>
       <r>   -0.6938    1.0000 </r>
       <r>   -0.6845    1.0000 </r>
       <r>    1.0714    1.0000 </r>
       <r>    1.0778    1.0000 </r>
       <r>    1.3472    1.0000 </r>
       <r>    1.3614    1.0000 </r>
       <r>    2.3216    1.0000 </r>
       <r>    2.3305    1.0000 </r>
       <r>    2.9303    1.0000 </r>
       <r>    2.9415    1.0000 </r>
       <r>    3.7690    1.0000 </r>
       <r>    3.7797    1.0000 </r>
       <r>    4.5005    1.0000 </r>
       <r>    4.5165    1.0000 </r>
       <r>    7.8513    0.0000 </r>
       <r>    7.8676    0.0000 </r>
       <r>    9.1504    0.0000 </r>
       <r>    9.1543    0.0000 </r>
       <r>   10.0991    0.0000 </r>
       <r>   10.1137    0.0000 </r>
       <r>   10.3169    0.0000 </r>
       <r>   10.3294    0.0000 </r>
       <r>   11.4599    0.0000 </r>
       <r>   11.4664    0.0000 </r>
       <r>   11.8492    0.0000 </r>
       <r>   11.8641    0.0000 </r>
       <r>   12.2689    0.0000 </r>
       <r>   12.2835    0.0000 </r>
       <r>   13.1983    0.0000 </r>
       <r>   13.2101    0.0000 </r>
       <r>   15.1120    0.0000 </r>
       <r>   15.1210    0.0000 </r>
       <r>   16.3712    0.0000 </r>
       <r>   16.3822    0.0000 </r>
       <r>   16.6352    0.0000 </r>
       <r>   16.6384    0.0000 </r>
       <r>   17.1814    0.0000 </r>
       <r>   17.1953    0.0000 </r>
      </set>
      <set comment="kpoint 58">
       <r>  -15.4035    1.0000 </r>
       <r>  -15.4017    1.0000 </r>
       <r>  -15.4006    1.0000 </r>
       <r>  -15.3986    1.0000 </r>
       <r>  -15.3896    1.0000 </r>
       <r>  -15.3889    1.0000 </r>
       <r>  -15.3873    1.0000 </r>
       <r>  -15.3863    1.0000 </r>
       <r>  -15.3776    1.0000 </r>
       <r>  -15.3743    1.0000 </r>
       <r>  -15.3710    1.0000 </r>
       <r>  -15.3697    1.0000 </r>
       <r>  -15.3542    1.0000 </r>
       <r>  -15.3511    1.0000 </r>
       <r>  -15.3484    1.0000 </r>
       <r>  -15.3460    1.0000 </r>
       <r>  -15.3261    1.0000 </r>
       <r>  -15.3227    1.0000 </r>
       <r>  -15.3209    1.0000 </r>
       <r>  -15.3182    1.0000 </r>
       <r>   -7.1735    1.0000 </r>
       <r>   -7.0957    1.0000 </r>
       <r>   -6.8729    1.0000 </r>
       <r>   -6.8585    1.0000 </r>
       <r>   -2.0619    1.0000 </r>
       <r>   -1.7637    1.0000 </r>
       <r>   -1.6973    1.0000 </r>
       <r>   -1.4080    1.0000 </r>
       <r>    2.2395    1.0000 </r>
       <r>    2.7977    1.0000 </r>
       <r>    3.1716    1.0000 </r>
       <r>    3.4194    1.0000 </r>
       <r>    3.4248    1.0000 </r>
       <r>    3.8384    1.0000 </r>
       <r>    3.8519    1.0000 </r>
       <r>    3.8893    1.0000 </r>
       <r>    4.5584    1.0000 </r>
       <r>    4.7367    1.0000 </r>
       <r>    5.1124    1.0000 </r>
       <r>    5.2356    1.0000 </r>
       <r>    6.8297    0.0000 </r>
       <r>    7.0389    0.0000 </r>
       <r>    7.3325    0.0000 </r>
       <r>    7.5352    0.0000 </r>
       <r>    7.8303    0.0000 </r>
       <r>    8.0221    0.0000 </r>
       <r>    8.0281    0.0000 </r>
       <r>    8.3542    0.0000 </r>
       <r>    8.9638    0.0000 </r>
       <r>    9.3802    0.0000 </r>
       <r>   10.2048    0.0000 </r>
       <r>   10.3736    0.0000 </r>
       <r>   13.2154    0.0000 </r>
       <r>   13.5550    0.0000 </r>
       <r>   13.9524    0.0000 </r>
       <r>   14.0037    0.0000 </r>
       <r>   14.4504    0.0000 </r>
       <r>   14.5326    0.0000 </r>
       <r>   14.7290    0.0000 </r>
       <r>   15.1512    0.0000 </r>
       <r>   15.7869    0.0000 </r>
       <r>   15.8031    0.0000 </r>
       <r>   16.0402    0.0000 </r>
       <r>   16.3261    0.0000 </r>
      </set>
      <set comment="kpoint 59">
       <r>  -15.4060    1.0000 </r>
       <r>  -15.4044    1.0000 </r>
       <r>  -15.4023    1.0000 </r>
       <r>  -15.4006    1.0000 </r>
       <r>  -15.3896    1.0000 </r>
       <r>  -15.3884    1.0000 </r>
       <r>  -15.3866    1.0000 </r>
       <r>  -15.3855    1.0000 </r>
       <r>  -15.3768    1.0000 </r>
       <r>  -15.3741    1.0000 </r>
       <r>  -15.3706    1.0000 </r>
       <r>  -15.3694    1.0000 </r>
       <r>  -15.3532    1.0000 </r>
       <r>  -15.3506    1.0000 </r>
       <r>  -15.3471    1.0000 </r>
       <r>  -15.3454    1.0000 </r>
       <r>  -15.3262    1.0000 </r>
       <r>  -15.3229    1.0000 </r>
       <r>  -15.3207    1.0000 </r>
       <r>  -15.3181    1.0000 </r>
       <r>   -7.1241    1.0000 </r>
       <r>   -7.0496    1.0000 </r>
       <r>   -6.8404    1.0000 </r>
       <r>   -6.8258    1.0000 </r>
       <r>   -1.9665    1.0000 </r>
       <r>   -1.6820    1.0000 </r>
       <r>   -1.6012    1.0000 </r>
       <r>   -1.3465    1.0000 </r>
       <r>    2.1564    1.0000 </r>
       <r>    2.2941    1.0000 </r>
       <r>    2.6136    1.0000 </r>
       <r>    2.8694    1.0000 </r>
       <r>    3.0472    1.0000 </r>
       <r>    3.4548    1.0000 </r>
       <r>    3.6408    1.0000 </r>
       <r>    4.0241    1.0000 </r>
       <r>    4.4408    1.0000 </r>
       <r>    4.7249    1.0000 </r>
       <r>    4.7681    1.0000 </r>
       <r>    5.0269    1.0000 </r>
       <r>    7.1030    0.0000 </r>
       <r>    7.1675    0.0000 </r>
       <r>    7.3499    0.0000 </r>
       <r>    7.6074    0.0000 </r>
       <r>    8.4328    0.0000 </r>
       <r>    8.6936    0.0000 </r>
       <r>    8.8641    0.0000 </r>
       <r>    9.2403    0.0000 </r>
       <r>    9.3207    0.0000 </r>
       <r>    9.9280    0.0000 </r>
       <r>   10.2045    0.0000 </r>
       <r>   10.2911    0.0000 </r>
       <r>   12.4565    0.0000 </r>
       <r>   12.8403    0.0000 </r>
       <r>   13.8549    0.0000 </r>
       <r>   14.2585    0.0000 </r>
       <r>   14.6496    0.0000 </r>
       <r>   14.8534    0.0000 </r>
       <r>   14.9598    0.0000 </r>
       <r>   15.5030    0.0000 </r>
       <r>   15.8982    0.0000 </r>
       <r>   16.0179    0.0000 </r>
       <r>   16.4943    0.0000 </r>
       <r>   16.8082    0.0000 </r>
      </set>
      <set comment="kpoint 60">
       <r>  -15.4060    1.0000 </r>
       <r>  -15.4042    1.0000 </r>
       <r>  -15.4025    1.0000 </r>
       <r>  -15.4007    1.0000 </r>
       <r>  -15.3894    1.0000 </r>
       <r>  -15.3883    1.0000 </r>
       <r>  -15.3868    1.0000 </r>
       <r>  -15.3856    1.0000 </r>
       <r>  -15.3768    1.0000 </r>
       <r>  -15.3738    1.0000 </r>
       <r>  -15.3709    1.0000 </r>
       <r>  -15.3693    1.0000 </r>
       <r>  -15.3533    1.0000 </r>
       <r>  -15.3504    1.0000 </r>
       <r>  -15.3476    1.0000 </r>
       <r>  -15.3450    1.0000 </r>
       <r>  -15.3262    1.0000 </r>
       <r>  -15.3232    1.0000 </r>
       <r>  -15.3205    1.0000 </r>
       <r>  -15.3181    1.0000 </r>
       <r>   -7.1240    1.0000 </r>
       <r>   -7.0497    1.0000 </r>
       <r>   -6.8408    1.0000 </r>
       <r>   -6.8254    1.0000 </r>
       <r>   -1.9672    1.0000 </r>
       <r>   -1.6777    1.0000 </r>
       <r>   -1.6053    1.0000 </r>
       <r>   -1.3460    1.0000 </r>
       <r>    2.1519    1.0000 </r>
       <r>    2.3004    1.0000 </r>
       <r>    2.6095    1.0000 </r>
       <r>    2.8752    1.0000 </r>
       <r>    3.0459    1.0000 </r>
       <r>    3.4563    1.0000 </r>
       <r>    3.6398    1.0000 </r>
       <r>    4.0188    1.0000 </r>
       <r>    4.4343    1.0000 </r>
       <r>    4.7363    1.0000 </r>
       <r>    4.7589    1.0000 </r>
       <r>    5.0336    1.0000 </r>
       <r>    7.1192    0.0000 </r>
       <r>    7.1811    0.0000 </r>
       <r>    7.3314    0.0000 </r>
       <r>    7.6004    0.0000 </r>
       <r>    8.4219    0.0000 </r>
       <r>    8.6933    0.0000 </r>
       <r>    8.8628    0.0000 </r>
       <r>    9.2418    0.0000 </r>
       <r>    9.3211    0.0000 </r>
       <r>    9.9259    0.0000 </r>
       <r>   10.2081    0.0000 </r>
       <r>   10.2983    0.0000 </r>
       <r>   12.4542    0.0000 </r>
       <r>   12.8342    0.0000 </r>
       <r>   13.8603    0.0000 </r>
       <r>   14.2646    0.0000 </r>
       <r>   14.6485    0.0000 </r>
       <r>   14.8505    0.0000 </r>
       <r>   14.9577    0.0000 </r>
       <r>   15.5165    0.0000 </r>
       <r>   15.9012    0.0000 </r>
       <r>   16.0050    0.0000 </r>
       <r>   16.5004    0.0000 </r>
       <r>   16.8079    0.0000 </r>
      </set>
      <set comment="kpoint 61">
       <r>  -15.4116    1.0000 </r>
       <r>  -15.4102    1.0000 </r>
       <r>  -15.4069    1.0000 </r>
       <r>  -15.4056    1.0000 </r>
       <r>  -15.3896    1.0000 </r>
       <r>  -15.3876    1.0000 </r>
       <r>  -15.3855    1.0000 </r>
       <r>  -15.3838    1.0000 </r>
       <r>  -15.3752    1.0000 </r>
       <r>  -15.3730    1.0000 </r>
       <r>  -15.3700    1.0000 </r>
       <r>  -15.3687    1.0000 </r>
       <r>  -15.3507    1.0000 </r>
       <r>  -15.3488    1.0000 </r>
       <r>  -15.3447    1.0000 </r>
       <r>  -15.3434    1.0000 </r>
       <r>  -15.3263    1.0000 </r>
       <r>  -15.3235    1.0000 </r>
       <r>  -15.3201    1.0000 </r>
       <r>  -15.3178    1.0000 </r>
       <r>   -6.9948    1.0000 </r>
       <r>   -6.9303    1.0000 </r>
       <r>   -6.7639    1.0000 </r>
       <r>   -6.7476    1.0000 </r>
       <r>   -1.7048    1.0000 </r>
       <r>   -1.4587    1.0000 </r>
       <r>   -1.3388    1.0000 </r>
       <r>   -1.1864    1.0000 </r>
       <r>    1.3634    1.0000 </r>
       <r>    1.6208    1.0000 </r>
       <r>    1.9186    1.0000 </r>
       <r>    2.1132    1.0000 </r>
       <r>    2.4623    1.0000 </r>
       <r>    2.9407    1.0000 </r>
       <r>    3.1314    1.0000 </r>
       <r>    3.5715    1.0000 </r>
       <r>    3.7574    1.0000 </r>
       <r>    4.1386    1.0000 </r>
       <r>    4.3893    1.0000 </r>
       <r>    4.7822    1.0000 </r>
       <r>    7.5342    0.0000 </r>
       <r>    7.9084    0.0000 </r>
       <r>    8.4629    0.0000 </r>
       <r>    8.7507    0.0000 </r>
       <r>    9.0900    0.0000 </r>
       <r>    9.1846    0.0000 </r>
       <r>    9.6554    0.0000 </r>
       <r>    9.7751    0.0000 </r>
       <r>   10.3934    0.0000 </r>
       <r>   10.6491    0.0000 </r>
       <r>   11.0292    0.0000 </r>
       <r>   11.3978    0.0000 </r>
       <r>   12.0854    0.0000 </r>
       <r>   12.2582    0.0000 </r>
       <r>   13.5117    0.0000 </r>
       <r>   13.6117    0.0000 </r>
       <r>   14.9349    0.0000 </r>
       <r>   15.2728    0.0000 </r>
       <r>   15.4219    0.0000 </r>
       <r>   15.9931    0.0000 </r>
       <r>   16.3557    0.0000 </r>
       <r>   16.5249    0.0000 </r>
       <r>   16.9364    0.0000 </r>
       <r>   17.2079    0.0000 </r>
      </set>
      <set comment="kpoint 62">
       <r>  -15.4116    1.0000 </r>
       <r>  -15.4101    1.0000 </r>
       <r>  -15.4069    1.0000 </r>
       <r>  -15.4056    1.0000 </r>
       <r>  -15.3890    1.0000 </r>
       <r>  -15.3880    1.0000 </r>
       <r>  -15.3853    1.0000 </r>
       <r>  -15.3842    1.0000 </r>
       <r>  -15.3749    1.0000 </r>
       <r>  -15.3730    1.0000 </r>
       <r>  -15.3703    1.0000 </r>
       <r>  -15.3686    1.0000 </r>
       <r>  -15.3509    1.0000 </r>
       <r>  -15.3485    1.0000 </r>
       <r>  -15.3453    1.0000 </r>
       <r>  -15.3430    1.0000 </r>
       <r>  -15.3262    1.0000 </r>
       <r>  -15.3237    1.0000 </r>
       <r>  -15.3200    1.0000 </r>
       <r>  -15.3179    1.0000 </r>
       <r>   -6.9945    1.0000 </r>
       <r>   -6.9305    1.0000 </r>
       <r>   -6.7646    1.0000 </r>
       <r>   -6.7469    1.0000 </r>
       <r>   -1.7066    1.0000 </r>
       <r>   -1.4504    1.0000 </r>
       <r>   -1.3473    1.0000 </r>
       <r>   -1.1846    1.0000 </r>
       <r>    1.3652    1.0000 </r>
       <r>    1.6185    1.0000 </r>
       <r>    1.9220    1.0000 </r>
       <r>    2.1080    1.0000 </r>
       <r>    2.4693    1.0000 </r>
       <r>    2.9418    1.0000 </r>
       <r>    3.1250    1.0000 </r>
       <r>    3.5699    1.0000 </r>
       <r>    3.7556    1.0000 </r>
       <r>    4.1295    1.0000 </r>
       <r>    4.3955    1.0000 </r>
       <r>    4.7924    1.0000 </r>
       <r>    7.5366    0.0000 </r>
       <r>    7.9092    0.0000 </r>
       <r>    8.4597    0.0000 </r>
       <r>    8.7413    0.0000 </r>
       <r>    9.0827    0.0000 </r>
       <r>    9.1931    0.0000 </r>
       <r>    9.6413    0.0000 </r>
       <r>    9.7787    0.0000 </r>
       <r>   10.4101    0.0000 </r>
       <r>   10.6452    0.0000 </r>
       <r>   11.0432    0.0000 </r>
       <r>   11.3935    0.0000 </r>
       <r>   12.0850    0.0000 </r>
       <r>   12.2488    0.0000 </r>
       <r>   13.5121    0.0000 </r>
       <r>   13.6177    0.0000 </r>
       <r>   14.9319    0.0000 </r>
       <r>   15.2688    0.0000 </r>
       <r>   15.4226    0.0000 </r>
       <r>   16.0039    0.0000 </r>
       <r>   16.3521    0.0000 </r>
       <r>   16.5273    0.0000 </r>
       <r>   16.9246    0.0000 </r>
       <r>   17.2122    0.0000 </r>
      </set>
      <set comment="kpoint 63">
       <r>  -15.4168    1.0000 </r>
       <r>  -15.4159    1.0000 </r>
       <r>  -15.4114    1.0000 </r>
       <r>  -15.4106    1.0000 </r>
       <r>  -15.3895    1.0000 </r>
       <r>  -15.3876    1.0000 </r>
       <r>  -15.3845    1.0000 </r>
       <r>  -15.3828    1.0000 </r>
       <r>  -15.3738    1.0000 </r>
       <r>  -15.3720    1.0000 </r>
       <r>  -15.3694    1.0000 </r>
       <r>  -15.3679    1.0000 </r>
       <r>  -15.3480    1.0000 </r>
       <r>  -15.3465    1.0000 </r>
       <r>  -15.3425    1.0000 </r>
       <r>  -15.3412    1.0000 </r>
       <r>  -15.3261    1.0000 </r>
       <r>  -15.3238    1.0000 </r>
       <r>  -15.3197    1.0000 </r>
       <r>  -15.3176    1.0000 </r>
       <r>   -6.8408    1.0000 </r>
       <r>   -6.7934    1.0000 </r>
       <r>   -6.6972    1.0000 </r>
       <r>   -6.6771    1.0000 </r>
       <r>   -1.3854    1.0000 </r>
       <r>   -1.2287    1.0000 </r>
       <r>   -1.0134    1.0000 </r>
       <r>   -0.9447    1.0000 </r>
       <r>    0.7857    1.0000 </r>
       <r>    1.1397    1.0000 </r>
       <r>    1.1954    1.0000 </r>
       <r>    1.6164    1.0000 </r>
       <r>    1.8375    1.0000 </r>
       <r>    2.2151    1.0000 </r>
       <r>    2.3676    1.0000 </r>
       <r>    2.8476    1.0000 </r>
       <r>    3.6698    1.0000 </r>
       <r>    3.9829    1.0000 </r>
       <r>    4.3644    1.0000 </r>
       <r>    4.5281    1.0000 </r>
       <r>    7.8541    0.0000 </r>
       <r>    8.1761    0.0000 </r>
       <r>    8.5919    0.0000 </r>
       <r>    8.8934    0.0000 </r>
       <r>    9.9810    0.0000 </r>
       <r>   10.0308    0.0000 </r>
       <r>   10.4550    0.0000 </r>
       <r>   10.5753    0.0000 </r>
       <r>   11.5482    0.0000 </r>
       <r>   11.8207    0.0000 </r>
       <r>   12.1375    0.0000 </r>
       <r>   12.1488    0.0000 </r>
       <r>   12.2497    0.0000 </r>
       <r>   12.4993    0.0000 </r>
       <r>   13.1565    0.0000 </r>
       <r>   13.2834    0.0000 </r>
       <r>   15.1639    0.0000 </r>
       <r>   15.3738    0.0000 </r>
       <r>   16.1619    0.0000 </r>
       <r>   16.3601    0.0000 </r>
       <r>   16.8158    0.0000 </r>
       <r>   16.9210    0.0000 </r>
       <r>   17.1118    0.0000 </r>
       <r>   17.1617    0.0000 </r>
      </set>
      <set comment="kpoint 64">
       <r>  -15.4168    1.0000 </r>
       <r>  -15.4159    1.0000 </r>
       <r>  -15.4114    1.0000 </r>
       <r>  -15.4107    1.0000 </r>
       <r>  -15.3891    1.0000 </r>
       <r>  -15.3880    1.0000 </r>
       <r>  -15.3842    1.0000 </r>
       <r>  -15.3832    1.0000 </r>
       <r>  -15.3734    1.0000 </r>
       <r>  -15.3722    1.0000 </r>
       <r>  -15.3694    1.0000 </r>
       <r>  -15.3679    1.0000 </r>
       <r>  -15.3482    1.0000 </r>
       <r>  -15.3463    1.0000 </r>
       <r>  -15.3428    1.0000 </r>
       <r>  -15.3409    1.0000 </r>
       <r>  -15.3261    1.0000 </r>
       <r>  -15.3239    1.0000 </r>
       <r>  -15.3196    1.0000 </r>
       <r>  -15.3176    1.0000 </r>
       <r>   -6.8403    1.0000 </r>
       <r>   -6.7940    1.0000 </r>
       <r>   -6.6978    1.0000 </r>
       <r>   -6.6764    1.0000 </r>
       <r>   -1.3881    1.0000 </r>
       <r>   -1.2230    1.0000 </r>
       <r>   -1.0169    1.0000 </r>
       <r>   -0.9445    1.0000 </r>
       <r>    0.7881    1.0000 </r>
       <r>    1.1340    1.0000 </r>
       <r>    1.1967    1.0000 </r>
       <r>    1.6244    1.0000 </r>
       <r>    1.8371    1.0000 </r>
       <r>    2.2133    1.0000 </r>
       <r>    2.3616    1.0000 </r>
       <r>    2.8488    1.0000 </r>
       <r>    3.6679    1.0000 </r>
       <r>    3.9790    1.0000 </r>
       <r>    4.3654    1.0000 </r>
       <r>    4.5373    1.0000 </r>
       <r>    7.8462    0.0000 </r>
       <r>    8.1766    0.0000 </r>
       <r>    8.5967    0.0000 </r>
       <r>    8.8915    0.0000 </r>
       <r>    9.9764    0.0000 </r>
       <r>   10.0321    0.0000 </r>
       <r>   10.4503    0.0000 </r>
       <r>   10.5821    0.0000 </r>
       <r>   11.5655    0.0000 </r>
       <r>   11.8139    0.0000 </r>
       <r>   12.1285    0.0000 </r>
       <r>   12.1623    0.0000 </r>
       <r>   12.2399    0.0000 </r>
       <r>   12.4927    0.0000 </r>
       <r>   13.1587    0.0000 </r>
       <r>   13.2883    0.0000 </r>
       <r>   15.1618    0.0000 </r>
       <r>   15.3644    0.0000 </r>
       <r>   16.1664    0.0000 </r>
       <r>   16.3719    0.0000 </r>
       <r>   16.8114    0.0000 </r>
       <r>   16.9373    0.0000 </r>
       <r>   17.1084    0.0000 </r>
       <r>   17.1515    0.0000 </r>
      </set>
      <set comment="kpoint 65">
       <r>  -15.4187    1.0000 </r>
       <r>  -15.4184    1.0000 </r>
       <r>  -15.4131    1.0000 </r>
       <r>  -15.4128    1.0000 </r>
       <r>  -15.3893    1.0000 </r>
       <r>  -15.3879    1.0000 </r>
       <r>  -15.3840    1.0000 </r>
       <r>  -15.3827    1.0000 </r>
       <r>  -15.3730    1.0000 </r>
       <r>  -15.3718    1.0000 </r>
       <r>  -15.3691    1.0000 </r>
       <r>  -15.3677    1.0000 </r>
       <r>  -15.3469    1.0000 </r>
       <r>  -15.3454    1.0000 </r>
       <r>  -15.3416    1.0000 </r>
       <r>  -15.3401    1.0000 </r>
       <r>  -15.3260    1.0000 </r>
       <r>  -15.3239    1.0000 </r>
       <r>  -15.3195    1.0000 </r>
       <r>  -15.3175    1.0000 </r>
       <r>   -6.7491    1.0000 </r>
       <r>   -6.7353    1.0000 </r>
       <r>   -6.6763    1.0000 </r>
       <r>   -6.6623    1.0000 </r>
       <r>   -1.2090    1.0000 </r>
       <r>   -1.1986    1.0000 </r>
       <r>   -0.8062    1.0000 </r>
       <r>   -0.7869    1.0000 </r>
       <r>    0.7401    1.0000 </r>
       <r>    0.7446    1.0000 </r>
       <r>    1.1619    1.0000 </r>
       <r>    1.1684    1.0000 </r>
       <r>    1.7320    1.0000 </r>
       <r>    1.7355    1.0000 </r>
       <r>    2.2667    1.0000 </r>
       <r>    2.2786    1.0000 </r>
       <r>    3.8689    1.0000 </r>
       <r>    3.8753    1.0000 </r>
       <r>    4.4051    1.0000 </r>
       <r>    4.4136    1.0000 </r>
       <r>    8.0333    0.0000 </r>
       <r>    8.0414    0.0000 </r>
       <r>    8.5857    0.0000 </r>
       <r>    8.5863    0.0000 </r>
       <r>   10.6208    0.0000 </r>
       <r>   10.6359    0.0000 </r>
       <r>   10.8016    0.0000 </r>
       <r>   10.8167    0.0000 </r>
       <r>   12.2052    0.0000 </r>
       <r>   12.2074    0.0000 </r>
       <r>   12.4866    0.0000 </r>
       <r>   12.4933    0.0000 </r>
       <r>   12.5977    0.0000 </r>
       <r>   12.6074    0.0000 </r>
       <r>   13.1767    0.0000 </r>
       <r>   13.1802    0.0000 </r>
       <r>   15.4311    0.0000 </r>
       <r>   15.4341    0.0000 </r>
       <r>   16.3633    0.0000 </r>
       <r>   16.3686    0.0000 </r>
       <r>   16.9459    0.0000 </r>
       <r>   16.9491    0.0000 </r>
       <r>   17.1580    0.0000 </r>
       <r>   17.1655    0.0000 </r>
      </set>
     </set>
    </set>
   </array>
  </eigenvalues>
  <separator name="orbital magnetization" >
   <v name="MAGDIPOLOUT">      0.00000000      0.00000000      0.00000000</v>
  </separator>
  <dos>
   <i name="efermi">      5.97392511 </i>
   <total>
    <array>
     <dimension dim="1">gridpoints</dimension>
     <dimension dim="2">spin</dimension>
     <field>energy</field>
     <field>total</field>
     <field>integrated</field>
     <set>
      <set comment="spin 1">
       <r>   -17.0824     0.0000     0.0000 </r>
       <r>   -16.9605     0.0000     0.0000 </r>
       <r>   -16.8387     0.0000     0.0000 </r>
       <r>   -16.7169     0.0000     0.0000 </r>
       <r>   -16.5950     0.0000     0.0000 </r>
       <r>   -16.4732     0.0000     0.0000 </r>
       <r>   -16.3514     0.0000     0.0000 </r>
       <r>   -16.2295     0.0000     0.0000 </r>
       <r>   -16.1077     0.0000     0.0000 </r>
       <r>   -15.9859     0.0000     0.0000 </r>
       <r>   -15.8641     0.0000     0.0000 </r>
       <r>   -15.7422     0.0000     0.0000 </r>
       <r>   -15.6204     0.0000     0.0000 </r>
       <r>   -15.4986     0.0000     0.0000 </r>
       <r>   -15.3767   155.0216    18.8862 </r>
       <r>   -15.2549    65.5134    40.0000 </r>
       <r>   -15.1331     0.0000    40.0000 </r>
       <r>   -15.0112     0.0000    40.0000 </r>
       <r>   -14.8894     0.0000    40.0000 </r>
       <r>   -14.7676     0.0000    40.0000 </r>
       <r>   -14.6458     0.0000    40.0000 </r>
       <r>   -14.5239     0.0000    40.0000 </r>
       <r>   -14.4021     0.0000    40.0000 </r>
       <r>   -14.2803     0.0000    40.0000 </r>
       <r>   -14.1584     0.0000    40.0000 </r>
       <r>   -14.0366     0.0000    40.0000 </r>
       <r>   -13.9148     0.0000    40.0000 </r>
       <r>   -13.7930     0.0000    40.0000 </r>
       <r>   -13.6711     0.0000    40.0000 </r>
       <r>   -13.5493     0.0000    40.0000 </r>
       <r>   -13.4275     0.0000    40.0000 </r>
       <r>   -13.3056     0.0000    40.0000 </r>
       <r>   -13.1838     0.0000    40.0000 </r>
       <r>   -13.0620     0.0000    40.0000 </r>
       <r>   -12.9401     0.0000    40.0000 </r>
       <r>   -12.8183     0.0000    40.0000 </r>
       <r>   -12.6965     0.0000    40.0000 </r>
       <r>   -12.5747     0.0000    40.0000 </r>
       <r>   -12.4528     0.0000    40.0000 </r>
       <r>   -12.3310     0.0000    40.0000 </r>
       <r>   -12.2092     0.0000    40.0000 </r>
       <r>   -12.0873     0.0000    40.0000 </r>
       <r>   -11.9655     0.0000    40.0000 </r>
       <r>   -11.8437     0.0000    40.0000 </r>
       <r>   -11.7218     0.0000    40.0000 </r>
       <r>   -11.6000     0.0000    40.0000 </r>
       <r>   -11.4782     0.0000    40.0000 </r>
       <r>   -11.3564     0.0000    40.0000 </r>
       <r>   -11.2345     0.0000    40.0000 </r>
       <r>   -11.1127     0.0000    40.0000 </r>
       <r>   -10.9909     0.0000    40.0000 </r>
       <r>   -10.8690     0.0000    40.0000 </r>
       <r>   -10.7472     0.0000    40.0000 </r>
       <r>   -10.6254     0.0000    40.0000 </r>
       <r>   -10.5035     0.0000    40.0000 </r>
       <r>   -10.3817     0.0000    40.0000 </r>
       <r>   -10.2599     0.0000    40.0000 </r>
       <r>   -10.1381     0.0000    40.0000 </r>
       <r>   -10.0162     0.0000    40.0000 </r>
       <r>    -9.8944     0.0000    40.0000 </r>
       <r>    -9.7726     0.0000    40.0000 </r>
       <r>    -9.6507     0.0000    40.0000 </r>
       <r>    -9.5289     0.0000    40.0000 </r>
       <r>    -9.4071     0.0000    40.0000 </r>
       <r>    -9.2853     0.0000    40.0000 </r>
       <r>    -9.1634     0.0000    40.0000 </r>
       <r>    -9.0416     0.0000    40.0000 </r>
       <r>    -8.9198     0.0000    40.0000 </r>
       <r>    -8.7979     0.0000    40.0000 </r>
       <r>    -8.6761     0.0000    40.0000 </r>
       <r>    -8.5543     0.0000    40.0000 </r>
       <r>    -8.4324     0.0000    40.0000 </r>
       <r>    -8.3106     0.0000    40.0000 </r>
       <r>    -8.1888     0.0033    40.0004 </r>
       <r>    -8.0670     0.4560    40.0648 </r>
       <r>    -7.9451     0.6030    40.2494 </r>
       <r>    -7.8233     1.7795    40.4853 </r>
       <r>    -7.7015     1.9933    40.7706 </r>
       <r>    -7.5796     2.4009    41.1258 </r>
       <r>    -7.4578     2.7886    41.5620 </r>
       <r>    -7.3360     1.5599    41.8752 </r>
       <r>    -7.2141     2.0393    42.4059 </r>
       <r>    -7.0923     2.1150    42.9058 </r>
       <r>    -6.9705     3.9922    43.6067 </r>
       <r>    -6.8487     7.6716    44.7494 </r>
       <r>    -6.7268     8.1230    46.1656 </r>
       <r>    -6.6050     8.0453    47.5265 </r>
       <r>    -6.4832     1.8958    47.9995 </r>
       <r>    -6.3613     0.0000    48.0000 </r>
       <r>    -6.2395     0.0000    48.0000 </r>
       <r>    -6.1177     0.0000    48.0000 </r>
       <r>    -5.9958     0.0000    48.0000 </r>
       <r>    -5.8740     0.0000    48.0000 </r>
       <r>    -5.7522     0.0000    48.0000 </r>
       <r>    -5.6304     0.0000    48.0000 </r>
       <r>    -5.5085     0.0000    48.0000 </r>
       <r>    -5.3867     0.0000    48.0000 </r>
       <r>    -5.2649     0.0000    48.0000 </r>
       <r>    -5.1430     0.0000    48.0000 </r>
       <r>    -5.0212     0.0000    48.0000 </r>
       <r>    -4.8994     0.0000    48.0000 </r>
       <r>    -4.7776     0.0000    48.0000 </r>
       <r>    -4.6557     0.0000    48.0000 </r>
       <r>    -4.5339     0.0000    48.0000 </r>
       <r>    -4.4121     0.0000    48.0000 </r>
       <r>    -4.2902     0.0000    48.0000 </r>
       <r>    -4.1684     0.0000    48.0000 </r>
       <r>    -4.0466     0.0000    48.0000 </r>
       <r>    -3.9247     0.0000    48.0000 </r>
       <r>    -3.8029     0.0000    48.0000 </r>
       <r>    -3.6811     0.0000    48.0000 </r>
       <r>    -3.5593     0.0000    48.0000 </r>
       <r>    -3.4374     0.0000    48.0000 </r>
       <r>    -3.3156     0.0000    48.0000 </r>
       <r>    -3.1938     0.0000    48.0000 </r>
       <r>    -3.0719     0.0000    48.0000 </r>
       <r>    -2.9501     0.0000    48.0000 </r>
       <r>    -2.8283     0.0000    48.0000 </r>
       <r>    -2.7064     0.0000    48.0000 </r>
       <r>    -2.5846     0.1386    48.0169 </r>
       <r>    -2.4628     0.4648    48.0751 </r>
       <r>    -2.3410     1.3094    48.3077 </r>
       <r>    -2.2191     0.6974    48.4183 </r>
       <r>    -2.0973     2.2885    48.7233 </r>
       <r>    -1.9755     1.8964    49.1014 </r>
       <r>    -1.8536     1.2253    49.4826 </r>
       <r>    -1.7318     2.2828    49.9448 </r>
       <r>    -1.6100     2.6499    50.4525 </r>
       <r>    -1.4881     1.7540    50.8989 </r>
       <r>    -1.3663     2.2448    51.3753 </r>
       <r>    -1.2445     0.6162    51.7140 </r>
       <r>    -1.1227     3.0351    52.3049 </r>
       <r>    -1.0008     2.6902    52.8185 </r>
       <r>    -0.8790     1.5469    53.2533 </r>
       <r>    -0.7572     3.6765    54.0868 </r>
       <r>    -0.6353     2.3171    54.5693 </r>
       <r>    -0.5135     1.6899    54.8077 </r>
       <r>    -0.3917     1.6736    55.0835 </r>
       <r>    -0.2698     1.4293    55.2945 </r>
       <r>    -0.1480     1.2315    55.4741 </r>
       <r>    -0.0262     0.3040    55.5370 </r>
       <r>     0.0956     0.6367    55.6146 </r>
       <r>     0.2175     0.0000    55.6574 </r>
       <r>     0.3393     1.2160    55.8056 </r>
       <r>     0.4611     0.7626    55.8985 </r>
       <r>     0.5830     0.3040    55.9907 </r>
       <r>     0.7048     0.0082    56.0288 </r>
       <r>     0.8266     0.9515    56.2733 </r>
       <r>     0.9484     0.6147    56.4638 </r>
       <r>     1.0703     1.0887    56.6604 </r>
       <r>     1.1921     2.8260    57.1313 </r>
       <r>     1.3139     1.9136    57.5016 </r>
       <r>     1.4358     4.2937    58.1064 </r>
       <r>     1.5576     2.4738    58.5143 </r>
       <r>     1.6794     1.8415    58.8818 </r>
       <r>     1.8013     2.5915    59.3065 </r>
       <r>     1.9231     3.6209    59.9689 </r>
       <r>     2.0449     2.7479    60.3996 </r>
       <r>     2.1667     3.8029    60.9911 </r>
       <r>     2.2886     4.9081    61.7924 </r>
       <r>     2.4104     3.7875    62.5077 </r>
       <r>     2.5322     2.7304    63.0178 </r>
       <r>     2.6541     4.0842    63.7383 </r>
       <r>     2.7759     1.4402    64.0643 </r>
       <r>     2.8977     3.6316    64.7202 </r>
       <r>     3.0196     4.4077    65.5555 </r>
       <r>     3.1414     3.1466    66.0871 </r>
       <r>     3.2632     2.9026    66.6684 </r>
       <r>     3.3850     3.6941    67.4315 </r>
       <r>     3.5069     5.5589    68.4643 </r>
       <r>     3.6287     4.1611    68.9977 </r>
       <r>     3.7505     3.7117    69.8318 </r>
       <r>     3.8724     3.1118    70.4995 </r>
       <r>     3.9942     4.3576    71.3087 </r>
       <r>     4.1160     5.4074    72.2699 </r>
       <r>     4.2379     2.8065    72.9345 </r>
       <r>     4.3597     4.0033    73.5525 </r>
       <r>     4.4815     2.9685    74.2228 </r>
       <r>     4.6033     2.0620    74.8346 </r>
       <r>     4.7252     2.3130    75.2818 </r>
       <r>     4.8470     4.9751    76.1987 </r>
       <r>     4.9688     2.4754    76.5793 </r>
       <r>     5.0907     4.3057    77.2838 </r>
       <r>     5.2125     4.1105    78.0286 </r>
       <r>     5.3343     5.6845    79.0351 </r>
       <r>     5.4561     3.8529    79.6546 </r>
       <r>     5.5780     0.6438    79.7636 </r>
       <r>     5.6998     0.6174    79.8900 </r>
       <r>     5.8216     0.2205    79.9528 </r>
       <r>     5.9435     0.1520    80.0000 </r>
       <r>     6.0653     0.0000    80.0000 </r>
       <r>     6.1871     0.0000    80.0000 </r>
       <r>     6.3090     0.0381    80.0046 </r>
       <r>     6.4308     0.3058    80.0835 </r>
       <r>     6.5526     0.3040    80.1759 </r>
       <r>     6.6744     1.1814    80.3199 </r>
       <r>     6.7963     1.3851    80.4928 </r>
       <r>     6.9181     1.2188    80.7318 </r>
       <r>     7.0399     0.6267    80.8634 </r>
       <r>     7.1618     3.4179    81.4442 </r>
       <r>     7.2836     2.7265    81.9711 </r>
       <r>     7.4054     2.5619    82.5621 </r>
       <r>     7.5273     1.6657    82.9715 </r>
       <r>     7.6491     4.3045    83.6633 </r>
       <r>     7.7709     1.9654    84.1376 </r>
       <r>     7.8927     4.0352    84.8712 </r>
       <r>     8.0146     0.9647    85.2935 </r>
       <r>     8.1364     0.4916    85.6988 </r>
       <r>     8.2582     4.7676    86.3864 </r>
       <r>     8.3801     2.8847    86.8792 </r>
       <r>     8.5019     3.6704    87.5120 </r>
       <r>     8.6237     3.0201    88.1550 </r>
       <r>     8.7456     3.0804    88.7549 </r>
       <r>     8.8674     3.8691    89.5640 </r>
       <r>     8.9892     5.5716    90.5584 </r>
       <r>     9.1110     4.7229    91.4643 </r>
       <r>     9.2329     3.6442    92.0366 </r>
       <r>     9.3547     5.2847    92.7457 </r>
       <r>     9.4765     3.5339    93.3379 </r>
       <r>     9.5984     1.4472    93.6763 </r>
       <r>     9.7202     2.1288    94.1112 </r>
       <r>     9.8420     1.9659    94.5173 </r>
       <r>     9.9638     5.3268    95.2416 </r>
       <r>    10.0857     3.3534    95.8715 </r>
       <r>    10.2075     3.2848    96.3724 </r>
       <r>    10.3293     4.3179    97.0538 </r>
       <r>    10.4512     3.4455    97.7068 </r>
       <r>    10.5730     2.6669    98.4360 </r>
       <r>    10.6948     4.5217    99.2453 </r>
       <r>    10.8167     5.1611    99.9899 </r>
       <r>    10.9385     2.9902   100.6976 </r>
       <r>    11.0603     4.8658   101.5372 </r>
       <r>    11.1821     1.5102   101.9062 </r>
       <r>    11.3040     2.0212   102.2277 </r>
       <r>    11.4258     3.0769   102.7267 </r>
       <r>    11.5476     2.2041   103.2963 </r>
       <r>    11.6695     1.8310   103.6953 </r>
       <r>    11.7913     2.1386   104.1587 </r>
       <r>    11.9131     2.2180   104.6406 </r>
       <r>    12.0350     2.9242   105.0970 </r>
       <r>    12.1568     4.7379   105.7161 </r>
       <r>    12.2786     5.1190   106.5588 </r>
       <r>    12.4004     1.9985   106.9194 </r>
       <r>    12.5223     2.7370   107.3797 </r>
       <r>    12.6441     2.4043   107.7281 </r>
       <r>    12.7659     3.6722   108.4381 </r>
       <r>    12.8878     2.6502   108.8877 </r>
       <r>    13.0096     3.3060   109.5417 </r>
       <r>    13.1314     2.4859   109.8862 </r>
       <r>    13.2533     4.2497   110.6011 </r>
       <r>    13.3751     2.1898   110.9983 </r>
       <r>    13.4969     2.1276   111.5462 </r>
       <r>    13.6187     2.7799   112.0146 </r>
       <r>    13.7406     0.8926   112.2569 </r>
       <r>    13.8624     2.7505   112.7518 </r>
       <r>    13.9842     4.0990   113.6105 </r>
       <r>    14.1061     1.6005   114.0839 </r>
       <r>    14.2279     4.3596   114.7533 </r>
       <r>    14.3497     3.5251   115.2628 </r>
       <r>    14.4715     1.6999   115.7441 </r>
       <r>    14.5934     2.5088   116.1575 </r>
       <r>    14.7152     4.7925   116.8339 </r>
       <r>    14.8370     1.7283   117.2661 </r>
       <r>    14.9589     4.2431   117.9984 </r>
       <r>    15.0807     1.0654   118.2409 </r>
       <r>    15.2025     3.4969   118.8520 </r>
       <r>    15.3244     5.2267   119.6738 </r>
       <r>    15.4462     5.2701   120.5309 </r>
       <r>    15.5680     4.7231   121.2606 </r>
       <r>    15.6898     2.0015   121.7253 </r>
       <r>    15.8117     4.9033   122.4863 </r>
       <r>    15.9335     3.3868   122.9497 </r>
       <r>    16.0553     5.6883   123.8597 </r>
       <r>    16.1772     2.7256   124.2950 </r>
       <r>    16.2990     1.7315   124.6369 </r>
       <r>    16.4208     4.5427   125.2386 </r>
       <r>    16.5427     3.4523   125.7724 </r>
       <r>    16.6645     2.5745   126.2766 </r>
       <r>    16.7863     1.5636   126.6535 </r>
       <r>    16.9081     0.9250   126.9275 </r>
       <r>    17.0300     1.0895   127.3364 </r>
       <r>    17.1518     1.1457   127.5099 </r>
       <r>    17.2736     0.9120   127.8519 </r>
       <r>    17.3955     0.0000   127.8889 </r>
       <r>    17.5173     0.0000   127.8889 </r>
       <r>    17.6391     0.4753   127.9468 </r>
       <r>    17.7610     0.0000   127.9630 </r>
       <r>    17.8828     0.1520   128.0000 </r>
       <r>    18.0046     0.0000   128.0000 </r>
       <r>    18.1264     0.0000   128.0000 </r>
       <r>    18.2483     0.0000   128.0000 </r>
       <r>    18.3701     0.0000   128.0000 </r>
       <r>    18.4919     0.0000   128.0000 </r>
       <r>    18.6138     0.0000   128.0000 </r>
       <r>    18.7356     0.0000   128.0000 </r>
       <r>    18.8574     0.0000   128.0000 </r>
       <r>    18.9793     0.0000   128.0000 </r>
       <r>    19.1011     0.0000   128.0000 </r>
       <r>    19.2229     0.0000   128.0000 </r>
       <r>    19.3447     0.0000   128.0000 </r>
       <r>    19.4666     0.0000   128.0000 </r>
      </set>
     </set>
    </array>
   </total>
  </dos>
 </calculation>
 <structure name="finalpos" >
  <crystal>
   <varray name="basis" >
    <v>       4.34539863       0.00000000       0.00000000 </v>
    <v>       0.00000000       4.11936655       0.00000000 </v>
    <v>       0.00000000       0.00000000      11.35478920 </v>
   </varray>
   <i name="volume">    203.25401695 </i>
   <varray name="rec_basis" >
    <v>       0.23012848       0.00000000       0.00000000 </v>
    <v>       0.00000000       0.24275577       0.00000000 </v>
    <v>       0.00000000       0.00000000       0.08806857 </v>
   </varray>
  </crystal>
  <varray name="positions" >
   <v>       0.09950946       0.25000000       0.11536932 </v>
   <v>       0.40143685       0.25000000       0.61542490 </v>
   <v>       0.59856315       0.75000000       0.38457510 </v>
   <v>       0.90049054       0.75000000       0.88463068 </v>
   <v>       0.02716720       0.25000000       0.35686642 </v>
   <v>       0.47506616       0.25000000       0.85664290 </v>
   <v>       0.52493384       0.75000000       0.14335710 </v>
   <v>       0.97283280       0.75000000       0.64313358 </v>
  </varray>
 </structure>
</modeling>
