<?xml version="1.0" encoding="ISO-8859-1"?>
<modeling>
 <generator>
  <i name="program" type="string">vasp </i>
  <i name="version" type="string">6.2.0  </i>
  <i name="subversion" type="string">18Jan21 (build Mar  1 2021 20:13:55) complex                          parallel </i>
  <i name="platform" type="string">HPECrayEX_GCC </i>
  <i name="date" type="string">2026 03 07 </i>
  <i name="time" type="string">08:02:02 </i>
 </generator>
 <incar>
  <i type="string" name="SYSTEM">Pnma SnSe</i>
  <i type="string" name="PREC">Accurate</i>
  <i type="string" name="ALGO">Normal</i>
  <i type="logical" name="ADDGRID"> T  </i>
  <i type="int" name="NELM">   250</i>
  <i type="int" name="NELMIN">     5</i>
  <i name="EDIFF">      0.00000001</i>
  <i type="int" name="NSW">     0</i>
  <i type="int" name="ISIF">     2</i>
  <i name="ENCUT">    700.00000000</i>
  <i type="logical" name="LREAL"> F  </i>
  <i type="int" name="ISMEAR">     0</i>
  <i name="SIGMA">      0.01000000</i>
  <i type="logical" name="LWAVE"> F  </i>
  <i type="logical" name="LCHARG"> F  </i>
  <i type="logical" name="LASPH"> T  </i>
  <i type="string" name="GGA">PS</i>
  <i type="logical" name="LEPSILON"> T  </i>
  <i type="int" name="IVDW">    11</i>
 </incar>
 <primitive_cell>
  <structure name="primitive_cell" >
   <crystal>
    <varray name="basis" >
     <v>       4.34539863       0.00000000       0.00000000 </v>
     <v>       0.00000000       4.11936655       0.00000000 </v>
     <v>       0.00000000       0.00000000      11.35478920 </v>
    </varray>
    <i name="volume">    203.25401695 </i>
    <varray name="rec_basis" >
     <v>       0.23012848       0.00000000       0.00000000 </v>
     <v>       0.00000000       0.24275577       0.00000000 </v>
     <v>       0.00000000       0.00000000       0.08806857 </v>
    </varray>
   </crystal>
   <varray name="positions" >
    <v>       0.09903631       0.25086880       0.11539711 </v>
    <v>       0.40096369       0.24913120       0.61539711 </v>
    <v>       0.59903631       0.75086880       0.38460289 </v>
    <v>       0.90096369       0.74913120       0.88460289 </v>
    <v>       0.02605052       0.25085501       0.35675466 </v>
    <v>       0.47394948       0.24914499       0.85675466 </v>
    <v>       0.52605052       0.75085501       0.14324534 </v>
    <v>       0.97394948       0.74914499       0.64324534 </v>
   </varray>
  </structure>
  <varray name="primitive_index" >
   <v type="int" >        1 </v>
   <v type="int" >        2 </v>
   <v type="int" >        3 </v>
   <v type="int" >        4 </v>
   <v type="int" >        5 </v>
   <v type="int" >        6 </v>
   <v type="int" >        7 </v>
   <v type="int" >        8 </v>
  </varray>
 </primitive_cell>
 <kpoints>
  <generation param="Gamma">
   <v type="int" name="divisions">       8        9        3 </v>
   <v name="usershift">      0.00000000       0.00000000       0.00000000 </v>
   <v name="genvec1">      0.12500000       0.00000000       0.00000000 </v>
   <v name="genvec2">      0.00000000       0.11111111       0.00000000 </v>
   <v name="genvec3">      0.00000000       0.00000000       0.33333333 </v>
   <v name="shift">      0.00000000       0.00000000       0.00000000 </v>
  </generation>
  <varray name="kpointlist" >
   <v>       0.00000000       0.00000000       0.00000000 </v>
   <v>       0.12500000       0.00000000       0.00000000 </v>
   <v>       0.25000000       0.00000000       0.00000000 </v>
   <v>       0.37500000       0.00000000       0.00000000 </v>
   <v>       0.50000000       0.00000000       0.00000000 </v>
   <v>       0.00000000       0.11111111       0.00000000 </v>
   <v>       0.12500000       0.11111111       0.00000000 </v>
   <v>      -0.12500000       0.11111111       0.00000000 </v>
   <v>       0.25000000       0.11111111       0.00000000 </v>
   <v>      -0.25000000       0.11111111       0.00000000 </v>
   <v>       0.37500000       0.11111111       0.00000000 </v>
   <v>      -0.37500000       0.11111111       0.00000000 </v>
   <v>       0.50000000       0.11111111       0.00000000 </v>
   <v>       0.00000000       0.22222222       0.00000000 </v>
   <v>       0.12500000       0.22222222       0.00000000 </v>
   <v>      -0.12500000       0.22222222       0.00000000 </v>
   <v>       0.25000000       0.22222222       0.00000000 </v>
   <v>      -0.25000000       0.22222222       0.00000000 </v>
   <v>       0.37500000       0.22222222       0.00000000 </v>
   <v>      -0.37500000       0.22222222       0.00000000 </v>
   <v>       0.50000000       0.22222222       0.00000000 </v>
   <v>       0.00000000       0.33333333       0.00000000 </v>
   <v>       0.12500000       0.33333333       0.00000000 </v>
   <v>      -0.12500000       0.33333333       0.00000000 </v>
   <v>       0.25000000       0.33333333       0.00000000 </v>
   <v>      -0.25000000       0.33333333       0.00000000 </v>
   <v>       0.37500000       0.33333333       0.00000000 </v>
   <v>      -0.37500000       0.33333333       0.00000000 </v>
   <v>       0.50000000       0.33333333       0.00000000 </v>
   <v>       0.00000000       0.44444444       0.00000000 </v>
   <v>       0.12500000       0.44444444       0.00000000 </v>
   <v>      -0.12500000       0.44444444       0.00000000 </v>
   <v>       0.25000000       0.44444444       0.00000000 </v>
   <v>      -0.25000000       0.44444444       0.00000000 </v>
   <v>       0.37500000       0.44444444       0.00000000 </v>
   <v>      -0.37500000       0.44444444       0.00000000 </v>
   <v>       0.50000000       0.44444444       0.00000000 </v>
   <v>       0.00000000       0.00000000       0.33333333 </v>
   <v>       0.12500000       0.00000000       0.33333333 </v>
   <v>       0.25000000       0.00000000       0.33333333 </v>
   <v>       0.37500000       0.00000000       0.33333333 </v>
   <v>       0.50000000       0.00000000       0.33333333 </v>
   <v>       0.00000000       0.11111111       0.33333333 </v>
   <v>       0.12500000       0.11111111       0.33333333 </v>
   <v>      -0.12500000       0.11111111      -0.33333333 </v>
   <v>       0.25000000       0.11111111       0.33333333 </v>
   <v>      -0.25000000       0.11111111      -0.33333333 </v>
   <v>       0.37500000       0.11111111       0.33333333 </v>
   <v>      -0.37500000       0.11111111      -0.33333333 </v>
   <v>       0.50000000       0.11111111       0.33333333 </v>
   <v>       0.00000000       0.22222222       0.33333333 </v>
   <v>       0.12500000       0.22222222       0.33333333 </v>
   <v>      -0.12500000       0.22222222      -0.33333333 </v>
   <v>       0.25000000       0.22222222       0.33333333 </v>
   <v>      -0.25000000       0.22222222      -0.33333333 </v>
   <v>       0.37500000       0.22222222       0.33333333 </v>
   <v>      -0.37500000       0.22222222      -0.33333333 </v>
   <v>       0.50000000       0.22222222       0.33333333 </v>
   <v>       0.00000000       0.33333333       0.33333333 </v>
   <v>       0.12500000       0.33333333       0.33333333 </v>
   <v>      -0.12500000       0.33333333      -0.33333333 </v>
   <v>       0.25000000       0.33333333       0.33333333 </v>
   <v>      -0.25000000       0.33333333      -0.33333333 </v>
   <v>       0.37500000       0.33333333       0.33333333 </v>
   <v>      -0.37500000       0.33333333      -0.33333333 </v>
   <v>       0.50000000       0.33333333       0.33333333 </v>
   <v>       0.00000000       0.44444444       0.33333333 </v>
   <v>       0.12500000       0.44444444       0.33333333 </v>
   <v>      -0.12500000       0.44444444      -0.33333333 </v>
   <v>       0.25000000       0.44444444       0.33333333 </v>
   <v>      -0.25000000       0.44444444      -0.33333333 </v>
   <v>       0.37500000       0.44444444       0.33333333 </v>
   <v>      -0.37500000       0.44444444      -0.33333333 </v>
   <v>       0.50000000       0.44444444       0.33333333 </v>
  </varray>
  <varray name="weights" >
   <v>       0.00462963 </v>
   <v>       0.00925926 </v>
   <v>       0.00925926 </v>
   <v>       0.00925926 </v>
   <v>       0.00462963 </v>
   <v>       0.00925926 </v>
   <v>       0.00925926 </v>
   <v>       0.00925926 </v>
   <v>       0.00925926 </v>
   <v>       0.00925926 </v>
   <v>       0.00925926 </v>
   <v>       0.00925926 </v>
   <v>       0.00925926 </v>
   <v>       0.00925926 </v>
   <v>       0.00925926 </v>
   <v>       0.00925926 </v>
   <v>       0.00925926 </v>
   <v>       0.00925926 </v>
   <v>       0.00925926 </v>
   <v>       0.00925926 </v>
   <v>       0.00925926 </v>
   <v>       0.00925926 </v>
   <v>       0.00925926 </v>
   <v>       0.00925926 </v>
   <v>       0.00925926 </v>
   <v>       0.00925926 </v>
   <v>       0.00925926 </v>
   <v>       0.00925926 </v>
   <v>       0.00925926 </v>
   <v>       0.00925926 </v>
   <v>       0.00925926 </v>
   <v>       0.00925926 </v>
   <v>       0.00925926 </v>
   <v>       0.00925926 </v>
   <v>       0.00925926 </v>
   <v>       0.00925926 </v>
   <v>       0.00925926 </v>
   <v>       0.00925926 </v>
   <v>       0.01851852 </v>
   <v>       0.01851852 </v>
   <v>       0.01851852 </v>
   <v>       0.00925926 </v>
   <v>       0.01851852 </v>
   <v>       0.01851852 </v>
   <v>       0.01851852 </v>
   <v>       0.01851852 </v>
   <v>       0.01851852 </v>
   <v>       0.01851852 </v>
   <v>       0.01851852 </v>
   <v>       0.01851852 </v>
   <v>       0.01851852 </v>
   <v>       0.01851852 </v>
   <v>       0.01851852 </v>
   <v>       0.01851852 </v>
   <v>       0.01851852 </v>
   <v>       0.01851852 </v>
   <v>       0.01851852 </v>
   <v>       0.01851852 </v>
   <v>       0.01851852 </v>
   <v>       0.01851852 </v>
   <v>       0.01851852 </v>
   <v>       0.01851852 </v>
   <v>       0.01851852 </v>
   <v>       0.01851852 </v>
   <v>       0.01851852 </v>
   <v>       0.01851852 </v>
   <v>       0.01851852 </v>
   <v>       0.01851852 </v>
   <v>       0.01851852 </v>
   <v>       0.01851852 </v>
   <v>       0.01851852 </v>
   <v>       0.01851852 </v>
   <v>       0.01851852 </v>
   <v>       0.01851852 </v>
  </varray>
 </kpoints>
 <parameters>
  <separator name="general" >
   <i type="string" name="SYSTEM">Pnma SnSe</i>
   <i type="logical" name="LCOMPAT"> F  </i>
  </separator>
  <separator name="electronic" >
   <i type="string" name="PREC">accura</i>
   <i name="ENMAX">    700.00000000</i>
   <i name="ENAUG">    446.84200000</i>
   <i name="EDIFF">      0.00000001</i>
   <i type="int" name="IALGO">    38</i>
   <i type="int" name="IWAVPR">    10</i>
   <i type="int" name="NBANDS">    64</i>
   <i type="int" name="NBANDSLOW">    -1</i>
   <i type="int" name="NBANDSHIGH">    -1</i>
   <i name="NELECT">     80.00000000</i>
   <i type="int" name="TURBO">     0</i>
   <i type="int" name="IRESTART">     0</i>
   <i type="int" name="NREBOOT">     0</i>
   <i type="int" name="NMIN">     0</i>
   <i name="EREF">      0.00000000</i>
   <separator name="electronic smearing" >
    <i type="int" name="ISMEAR">     0</i>
    <i name="SIGMA">      0.01000000</i>
    <i name="KSPACING">      0.50000000</i>
    <i type="logical" name="KGAMMA"> T  </i>
    <i type="logical" name="KBLOWUP"> T  </i>
   </separator>
   <separator name="electronic projectors" >
    <i type="logical" name="LREAL"> F  </i>
    <v name="ROPT">      0.00000000      0.00000000</v>
    <i type="int" name="LMAXPAW">  -100</i>
    <i type="int" name="LMAXMIX">     2</i>
    <i type="logical" name="NLSPLINE"> F  </i>
   </separator>
   <separator name="electronic startup" >
    <i type="int" name="ISTART">     0</i>
    <i type="int" name="ICHARG">     2</i>
    <i type="int" name="INIWAV">     1</i>
   </separator>
   <separator name="electronic spin" >
    <i type="int" name="ISPIN">     1</i>
    <i type="logical" name="LNONCOLLINEAR"> F  </i>
    <v name="MAGMOM">      1.00000000      1.00000000      1.00000000      1.00000000      1.00000000      1.00000000      1.00000000      1.00000000</v>
    <i name="NUPDOWN">     -1.00000000</i>
    <i type="logical" name="LSORBIT"> F  </i>
    <v name="SAXIS">      0.00000000      0.00000000      1.00000000</v>
    <i type="logical" name="LSPIRAL"> F  </i>
    <v name="QSPIRAL">      0.00000000      0.00000000      0.00000000</v>
    <i type="logical" name="LZEROZ"> F  </i>
   </separator>
   <separator name="electronic exchange-correlation" >
    <i type="logical" name="LASPH"> T  </i>
    <i type="logical" name="LMETAGGA"> F  </i>
   </separator>
   <separator name="electronic convergence" >
    <i type="int" name="NELM">   250</i>
    <i type="int" name="NELMDL">    -5</i>
    <i type="int" name="NELMIN">     5</i>
    <i name="ENINI">    700.00000000</i>
    <separator name="electronic convergence detail" >
     <i type="logical" name="LDIAG"> T  </i>
     <i type="logical" name="LSUBROT"> F  </i>
     <i name="WEIMIN">      0.00000000</i>
     <i name="EBREAK">      0.00000000</i>
     <i name="DEPER">      0.30000000</i>
     <i type="int" name="NRMM">     4</i>
     <i name="TIME">      0.40000000</i>
    </separator>
   </separator>
   <separator name="electronic mixer" >
    <i name="AMIX">      0.40000000</i>
    <i name="BMIX">      1.00000000</i>
    <i name="AMIN">      0.10000000</i>
    <i name="AMIX_MAG">      1.60000000</i>
    <i name="BMIX_MAG">      1.00000000</i>
    <separator name="electronic mixer details" >
     <i type="int" name="IMIX">     4</i>
     <i type="logical" name="MIXFIRST"> F  </i>
     <i type="int" name="MAXMIX">   -45</i>
     <i name="WC">    100.00000000</i>
     <i type="int" name="INIMIX">     1</i>
     <i type="int" name="MIXPRE">     1</i>
     <i type="int" name="MREMOVE">     5</i>
    </separator>
   </separator>
   <separator name="electronic dipolcorrection" >
    <i type="logical" name="LDIPOL"> F  </i>
    <i type="logical" name="LMONO"> F  </i>
    <i type="int" name="IDIPOL">     0</i>
    <i name="EPSILON">      1.00000000</i>
    <v name="DIPOL">   -100.00000000   -100.00000000   -100.00000000</v>
    <i name="EFIELD">      0.00000000</i>
   </separator>
  </separator>
  <separator name="grids" >
   <i type="int" name="NGX">    40</i>
   <i type="int" name="NGY">    36</i>
   <i type="int" name="NGZ">    98</i>
   <i type="int" name="NGXF">    80</i>
   <i type="int" name="NGYF">    72</i>
   <i type="int" name="NGZF">   196</i>
   <i type="logical" name="ADDGRID"> T  </i>
  </separator>
  <separator name="ionic" >
   <i type="int" name="NSW">     0</i>
   <i type="int" name="IBRION">    -1</i>
   <i type="int" name="MDALGO">     0</i>
   <i type="int" name="ISIF">     2</i>
   <i name="PSTRESS">      0.00000000</i>
   <i name="EDIFFG">      0.00000010</i>
   <i type="int" name="NFREE">     0</i>
   <i name="POTIM">      0.50000000</i>
   <i name="SMASS">     -3.00000000</i>
   <i name="SCALEE">      1.00000000</i>
  </separator>
  <separator name="ionic md" >
   <i name="TEBEG">      0.00010000</i>
   <i name="TEEND">      0.00010000</i>
   <i type="int" name="NBLOCK">     1</i>
   <i type="int" name="KBLOCK">     1</i>
   <i type="int" name="NPACO">   256</i>
   <i name="APACO">     16.00000000</i>
  </separator>
  <separator name="symmetry" >
   <i type="int" name="ISYM">     2</i>
   <i name="SYMPREC">      0.00001000</i>
  </separator>
  <separator name="dos" >
   <i type="int" name="LORBIT">     0</i>
   <v name="RWIGS">     -1.00000000     -1.00000000</v>
   <i type="int" name="NEDOS">   301</i>
   <i name="EMIN">     10.00000000</i>
   <i name="EMAX">    -10.00000000</i>
   <i name="EFERMI">      0.00000000</i>
  </separator>
  <separator name="writing" >
   <i type="int" name="NWRITE">     2</i>
   <i type="logical" name="LWAVE"> F  </i>
   <i type="logical" name="LDOWNSAMPLE"> F  </i>
   <i type="logical" name="LCHARG"> F  </i>
   <i type="logical" name="LPARD"> F  </i>
   <i type="logical" name="LVTOT"> F  </i>
   <i type="logical" name="LVHAR"> F  </i>
   <i type="logical" name="LELF"> F  </i>
   <i type="logical" name="LOPTICS"> F  </i>
   <v name="STM">      0.00000000      0.00000000      0.00000000      0.00000000      0.00000000      0.00000000      0.00000000</v>
  </separator>
  <separator name="performance" >
   <i type="int" name="NPAR">    32</i>
   <i type="int" name="NSIM">     4</i>
   <i type="int" name="NBLK">    -1</i>
   <i type="logical" name="LPLANE"> T  </i>
   <i type="logical" name="LSCALAPACK"> T  </i>
   <i type="logical" name="LSCAAWARE"> F  </i>
   <i type="logical" name="LSCALU"> F  </i>
   <i type="logical" name="LASYNC"> F  </i>
   <i type="logical" name="LORBITALREAL"> F  </i>
  </separator>
  <separator name="miscellaneous" >
   <i type="int" name="IDIOT">     3</i>
   <i type="int" name="PHON_NSTRUCT">    -1</i>
   <i type="logical" name="LMUSIC"> F  </i>
   <v name="POMASS">    118.71000000     78.96000000</v>
   <v name="DARWINR">      0.00000000      0.00000000</v>
   <v name="DARWINV">      1.00000000      1.00000000</v>
   <i type="logical" name="LCORR"> T  </i>
  </separator>
  <i type="logical" name="GGA_COMPAT"> T  </i>
  <i type="logical" name="LBERRY"> F  </i>
  <i type="int" name="ICORELEVEL">     0</i>
  <i type="logical" name="LDAU"> F  </i>
  <i type="int" name="I_CONSTRAINED_M">     0</i>
  <separator name="electronic exchange-correlation" >
   <i type="string" name="GGA">PS</i>
   <i type="int" name="VOSKOWN">     0</i>
   <i type="logical" name="LHFCALC"> F  </i>
   <i type="string" name="PRECFOCK"></i>
   <i type="logical" name="LSYMGRAD"> F  </i>
   <i type="logical" name="LHFONE"> F  </i>
   <i type="logical" name="LRHFCALC"> F  </i>
   <i type="logical" name="LTHOMAS"> F  </i>
   <i type="logical" name="LMODELHF"> F  </i>
   <i type="logical" name="LFOCKACE"> F  </i>
   <i name="ENCUT4O">     -1.00000000</i>
   <i type="int" name="EXXOEP">     0</i>
   <i type="int" name="FOURORBIT">     0</i>
   <i name="AEXX">      0.00000000</i>
   <i name="HFALPHA">      0.00000000</i>
   <i name="MCALPHA">      0.00000000</i>
   <i name="ALDAX">      1.00000000</i>
   <i name="AGGAX">      1.00000000</i>
   <i name="ALDAC">      1.00000000</i>
   <i name="AGGAC">      1.00000000</i>
   <i type="int" name="NKREDX">     1</i>
   <i type="int" name="NKREDY">     1</i>
   <i type="int" name="NKREDZ">     1</i>
   <i type="logical" name="SHIFTRED"> F  </i>
   <i type="logical" name="ODDONLY"> F  </i>
   <i type="logical" name="EVENONLY"> F  </i>
   <i type="int" name="LMAXFOCK">     0</i>
   <i type="int" name="NMAXFOCKAE">     0</i>
   <i type="logical" name="LFOCKAEDFT"> F  </i>
   <i name="HFSCREEN">      0.00000000</i>
   <i name="HFSCREENC">      0.00000000</i>
   <i type="int" name="NBANDSGWLOW">     0</i>
  </separator>
  <separator name="vdW DFT" >
   <i type="logical" name="LUSE_VDW"> F  </i>
   <i name="Zab_VDW">     -0.84910000</i>
   <i name="PARAM1">      0.12340000</i>
   <i name="PARAM2">      1.00000000</i>
   <i name="PARAM3">      0.00000000</i>
  </separator>
  <separator name="model GW" >
   <i type="int" name="MODEL_GW">     0</i>
   <i name="MODEL_EPS0">     15.24405127</i>
   <i name="MODEL_ALPHA">      1.00000000</i>
  </separator>
  <separator name="linear response parameters" >
   <i type="logical" name="LEPSILON"> T  </i>
   <i type="logical" name="LRPA"> F  </i>
   <i type="logical" name="LNABLA"> F  </i>
   <i type="logical" name="LVEL"> F  </i>
   <i type="int" name="KINTER">     0</i>
   <i name="CSHIFT">      0.10000000</i>
   <i name="OMEGAMAX">     -1.00000000</i>
   <i name="DEG_THRESHOLD">      0.00200000</i>
   <i name="RTIME">     -0.10000000</i>
   <i name="WPLASMAI">      0.00000000</i>
   <v name="DFIELD">      0.00000000      0.00000000      0.00000000</v>
   <v name="WPLASMA">      0.00000000      0.00000000      0.00000000      0.00000000      0.00000000      0.00000000      0.00000000      0.00000000      0.00000000</v>
  </separator>
  <separator name="orbital magnetization" >
   <i type="logical" name="NUCIND"> F  </i>
   <v name="MAGPOS">      0.00000000      0.00000000      0.00000000</v>
   <i type="logical" name="LNICSALL"> T  </i>
   <i type="logical" name="ORBITALMAG"> F  </i>
   <i type="logical" name="LMAGBLOCH"> F  </i>
   <i type="logical" name="LCHIMAG"> F  </i>
   <i type="logical" name="LGAUGE"> T  </i>
   <i type="int" name="MAGATOM">     0</i>
   <v name="MAGDIPOL">      0.00000000      0.00000000      0.00000000</v>
   <v name="AVECCONST">      0.00000000      0.00000000      0.00000000</v>
  </separator>
  <separator name="response functions" >
   <i type="logical" name="LFINITE_TEMPERATURE"> F  </i>
   <i type="logical" name="LADDER"> F  </i>
   <i type="logical" name="LRPAFORCE"> F  </i>
   <i type="logical" name="LFXC"> F  </i>
   <i type="logical" name="LHARTREE"> T  </i>
   <i type="int" name="IBSE">     0</i>
   <v type="int" name="KPOINT">    -1     0     0     0</v>
   <i type="logical" name="LTCTC"> F  </i>
   <i type="logical" name="LTCTE"> F  </i>
   <i type="logical" name="LTETE"> F  </i>
   <i type="logical" name="LTRIPLET"> F  </i>
   <i type="logical" name="LFXCEPS"> F  </i>
   <i type="logical" name="LFXHEG"> F  </i>
   <i type="int" name="NATURALO">     2</i>
   <i type="logical" name="LHOLEGF"> F  </i>
   <i type="logical" name="L2ORDER"> F  </i>
   <i type="logical" name="LDMP1"> F  </i>
   <i type="logical" name="LMP2LT"> F  </i>
   <i type="logical" name="LSMP2LT"> F  </i>
   <i type="logical" name="LGWLF"> F  </i>
   <i name="ENCUTGW">     -2.00000000</i>
   <i name="ENCUTGWSOFT">     -2.00000000</i>
   <i name="ENCUTLF">     -1.00000000</i>
   <i type="logical" name="LESF_SPLINES"> F  </i>
   <i type="int" name="LMAXMP2">    -1</i>
   <i name="SCISSOR">      0.00000000</i>
   <i type="int" name="NOMEGA">     0</i>
   <i type="int" name="NOMEGAR">     0</i>
   <i type="int" name="NBANDSGW">    -1</i>
   <i type="int" name="NBANDSO">    -1</i>
   <i type="int" name="NBANDSV">    -1</i>
   <i type="int" name="NELM">   250</i>
   <i type="int" name="NELMHF">     1</i>
   <i type="int" name="DIM">     3</i>
   <i type="int" name="IESPILON">     4</i>
   <i type="int" name="ANTIRES">     0</i>
   <i name="OMEGAMAX">    -30.00000000</i>
   <i name="OMEGAMIN">    -30.00000000</i>
   <i name="OMEGATL">   -200.00000000</i>
   <i type="int" name="OMEGAGRID">     0</i>
   <i name="CSHIFT">     -0.10000000</i>
   <i type="logical" name="LSELFENERGY"> F  </i>
   <i type="logical" name="LSPECTRAL"> F  </i>
   <i type="logical" name="LSPECTRALGW"> F  </i>
   <i type="logical" name="LSINGLES"> F  </i>
   <i type="logical" name="LFERMIGW"> F  </i>
   <i type="logical" name="ODDONLYGW"> F  </i>
   <i type="logical" name="EVENONLYGW"> F  </i>
   <i type="int" name="NKREDLFX">     1</i>
   <i type="int" name="NKREDLFY">     1</i>
   <i type="int" name="NKREDLFZ">     1</i>
   <i type="int" name="MAXMEM">  2800</i>
   <i type="int" name="TELESCOPE">     0</i>
   <i type="int" name="NTAUPAR">    -1</i>
   <i type="int" name="NOMEGAPAR">    -1</i>
   <i name="DAMP_NEWTON">      0.80000001</i>
   <i name="LAMBDA">      1.00000000</i>
  </separator>
  <separator name="External order field" >
   <i name="OFIELD_KAPPA">      0.00000000</i>
   <v name="OFIELD_K">      0.00000000      0.00000000      0.00000000</v>
   <i name="OFIELD_Q6_NEAR">      0.00000000</i>
   <i name="OFIELD_Q6_FAR">      0.00000000</i>
   <i name="OFIELD_A">      0.00000000</i>
  </separator>
 </parameters>
 <atominfo>
  <atoms>       8 </atoms>
  <types>       2 </types>
  <array name="atoms" >
   <dimension dim="1">ion</dimension>
   <field type="string">element</field>
   <field type="int">atomtype</field>
   <set>
    <rc><c>Sn</c><c>   1</c></rc>
    <rc><c>Sn</c><c>   1</c></rc>
    <rc><c>Sn</c><c>   1</c></rc>
    <rc><c>Sn</c><c>   1</c></rc>
    <rc><c>Se</c><c>   2</c></rc>
    <rc><c>Se</c><c>   2</c></rc>
    <rc><c>Se</c><c>   2</c></rc>
    <rc><c>Se</c><c>   2</c></rc>
   </set>
  </array>
  <array name="atomtypes" >
   <dimension dim="1">type</dimension>
   <field type="int">atomspertype</field>
   <field type="string">element</field>
   <field>mass</field>
   <field>valence</field>
   <field type="string">pseudopotential</field>
   <set>
    <rc><c>   4</c><c>Sn</c><c>    118.71000000</c><c>     14.00000000</c><c>  PAW_PBE Sn_d 06Sep2000                </c></rc>
    <rc><c>   4</c><c>Se</c><c>     78.96000000</c><c>      6.00000000</c><c>  PAW_PBE Se 06Sep2000                  </c></rc>
   </set>
  </array>
 </atominfo>
 <structure name="initialpos" >
  <crystal>
   <varray name="basis" >
    <v>       4.34539863       0.00000000       0.00000000 </v>
    <v>       0.00000000       4.11936655       0.00000000 </v>
    <v>       0.00000000       0.00000000      11.35478920 </v>
   </varray>
   <i name="volume">    203.25401695 </i>
   <varray name="rec_basis" >
    <v>       0.23012848       0.00000000       0.00000000 </v>
    <v>       0.00000000       0.24275577       0.00000000 </v>
    <v>       0.00000000       0.00000000       0.08806857 </v>
   </varray>
  </crystal>
  <varray name="positions" >
   <v>       0.09903631       0.25086880       0.11539711 </v>
   <v>       0.40096369       0.24913120       0.61539711 </v>
   <v>       0.59903631       0.75086880       0.38460289 </v>
   <v>       0.90096369       0.74913120       0.88460289 </v>
   <v>       0.02605052       0.25085501       0.35675466 </v>
   <v>       0.47394948       0.24914499       0.85675466 </v>
   <v>       0.52605052       0.75085501       0.14324534 </v>
   <v>       0.97394948       0.74914499       0.64324534 </v>
  </varray>
 </structure>
 <calculation>
  <scstep>
   <time name="dav">   12.27   11.11</time>
   <time name="total">   12.55   11.37</time>
   <energy>
    <i name="alphaZ">    217.43841536 </i>
    <i name="ewald">  -6082.72801629 </i>
    <i name="hartreedc">  -2322.10709853 </i>
    <i name="XCdc">    230.11261357 </i>
    <i name="pawpsdc">   7112.06264409 </i>
    <i name="pawaedc">  -7207.42447429 </i>
    <i name="eentropy">     -0.00014444 </i>
    <i name="bandstr">     40.64713033 </i>
    <i name="atom">   8598.20158228 </i>
    <i name="e_fr_energy">    586.20265207 </i>
    <i name="e_wo_entrp">    586.20279651 </i>
    <i name="e_0_energy">    586.20272429 </i>
   </energy>
  </scstep>
  <scstep>
   <time name="dav">    1.99    1.00</time>
   <time name="total">    1.99    1.00</time>
   <energy>
    <i name="e_fr_energy">     16.64410726 </i>
    <i name="e_wo_entrp">     16.64424402 </i>
    <i name="e_0_energy">     16.64417564 </i>
   </energy>
  </scstep>
  <scstep>
   <time name="dav">    3.22    1.62</time>
   <time name="total">    3.22    1.63</time>
   <energy>
    <i name="e_fr_energy">    -35.43899379 </i>
    <i name="e_wo_entrp">    -35.43899379 </i>
    <i name="e_0_energy">    -35.43899379 </i>
   </energy>
  </scstep>
  <scstep>
   <time name="dav">    2.27    1.20</time>
   <time name="total">    2.27    1.20</time>
   <energy>
    <i name="e_fr_energy">    -36.55549146 </i>
    <i name="e_wo_entrp">    -36.55549146 </i>
    <i name="e_0_energy">    -36.55549146 </i>
   </energy>
  </scstep>
  <scstep>
   <time name="dav">    3.62    1.83</time>
   <time name="total">    3.90    1.99</time>
   <energy>
    <i name="e_fr_energy">    -36.58349971 </i>
    <i name="e_wo_entrp">    -36.58349971 </i>
    <i name="e_0_energy">    -36.58349971 </i>
   </energy>
  </scstep>
  <scstep>
   <time name="dav">    3.18    1.59</time>
   <time name="total">    3.66    2.00</time>
   <energy>
    <i name="e_fr_energy">    -35.95366660 </i>
    <i name="e_wo_entrp">    -35.95366660 </i>
    <i name="e_0_energy">    -35.95366660 </i>
   </energy>
  </scstep>
  <scstep>
   <time name="dav">    3.16    1.59</time>
   <time name="total">    3.56    1.96</time>
   <energy>
    <i name="e_fr_energy">    -35.91904075 </i>
    <i name="e_wo_entrp">    -35.91904075 </i>
    <i name="e_0_energy">    -35.91904075 </i>
   </energy>
  </scstep>
  <scstep>
   <time name="dav">    2.40    1.21</time>
   <time name="total">    2.84    1.58</time>
   <energy>
    <i name="e_fr_energy">    -35.91397567 </i>
    <i name="e_wo_entrp">    -35.91397567 </i>
    <i name="e_0_energy">    -35.91397567 </i>
   </energy>
  </scstep>
  <scstep>
   <time name="dav">    3.23    1.62</time>
   <time name="total">    3.72    1.99</time>
   <energy>
    <i name="e_fr_energy">    -35.91400867 </i>
    <i name="e_wo_entrp">    -35.91400867 </i>
    <i name="e_0_energy">    -35.91400867 </i>
   </energy>
  </scstep>
  <scstep>
   <time name="dav">    2.36    1.19</time>
   <time name="total">    2.77    1.56</time>
   <energy>
    <i name="e_fr_energy">    -35.91401216 </i>
    <i name="e_wo_entrp">    -35.91401216 </i>
    <i name="e_0_energy">    -35.91401216 </i>
   </energy>
  </scstep>
  <scstep>
   <time name="dav">    3.24    1.63</time>
   <time name="total">    3.74    2.00</time>
   <energy>
    <i name="e_fr_energy">    -35.91402542 </i>
    <i name="e_wo_entrp">    -35.91402542 </i>
    <i name="e_0_energy">    -35.91402542 </i>
   </energy>
  </scstep>
  <scstep>
   <time name="dav">    2.46    1.23</time>
   <time name="total">    2.84    1.60</time>
   <energy>
    <i name="e_fr_energy">    -35.91402374 </i>
    <i name="e_wo_entrp">    -35.91402374 </i>
    <i name="e_0_energy">    -35.91402374 </i>
   </energy>
  </scstep>
  <scstep>
   <time name="dav">    3.09    1.55</time>
   <time name="total">    3.56    1.92</time>
   <energy>
    <i name="e_fr_energy">    -35.91402370 </i>
    <i name="e_wo_entrp">    -35.91402370 </i>
    <i name="e_0_energy">    -35.91402370 </i>
   </energy>
  </scstep>
  <scstep>
   <time name="dav">    2.61    1.31</time>
   <time name="total">    2.99    1.68</time>
   <energy>
    <i name="e_fr_energy">    -35.91402371 </i>
    <i name="e_wo_entrp">    -35.91402371 </i>
    <i name="e_0_energy">    -35.91402371 </i>
   </energy>
  </scstep>
  <scstep>
   <time name="dav">    2.59    1.30</time>
   <time name="total">    3.02    1.67</time>
   <energy>
    <i name="e_fr_energy">    -35.91402365 </i>
    <i name="e_wo_entrp">    -35.91402365 </i>
    <i name="e_0_energy">    -35.91402365 </i>
   </energy>
  </scstep>
  <scstep>
   <time name="dav">    1.73    0.87</time>
   <time name="total">    2.14    1.25</time>
   <energy>
    <i name="e_fr_energy">    -35.91402364 </i>
    <i name="e_wo_entrp">    -35.91402364 </i>
    <i name="e_0_energy">    -35.91402364 </i>
   </energy>
  </scstep>
  <scstep>
   <time name="dav">    1.97    0.99</time>
   <time name="total">    2.22    1.24</time>
   <energy>
    <i name="alphaZ">    217.43841536 </i>
    <i name="ewald">  -6082.72801629 </i>
    <i name="hartreedc">  -2303.86147971 </i>
    <i name="XCdc">    230.43066448 </i>
    <i name="pawpsdc">   8471.55702704 </i>
    <i name="pawaedc">  -8567.45571709 </i>
    <i name="eentropy">     -0.00000000 </i>
    <i name="bandstr">   -599.49649971 </i>
    <i name="atom">   8598.20158228 </i>
    <i name="e_fr_energy">    -35.91402364 </i>
    <i name="e_wo_entrp">    -35.91402364 </i>
    <i name="e_0_energy">    -35.91402364 </i>
   </energy>
  </scstep>
  <structure>
   <crystal>
    <varray name="basis" >
     <v>       4.34539863       0.00000000       0.00000000 </v>
     <v>       0.00000000       4.11936655       0.00000000 </v>
     <v>       0.00000000       0.00000000      11.35478920 </v>
    </varray>
    <i name="volume">    203.25401695 </i>
    <varray name="rec_basis" >
     <v>       0.23012848       0.00000000       0.00000000 </v>
     <v>       0.00000000       0.24275577       0.00000000 </v>
     <v>       0.00000000       0.00000000       0.08806857 </v>
    </varray>
   </crystal>
   <varray name="positions" >
    <v>       0.09903631       0.25086880       0.11539711 </v>
    <v>       0.40096369       0.24913120       0.61539711 </v>
    <v>       0.59903631       0.75086880       0.38460289 </v>
    <v>       0.90096369       0.74913120       0.88460289 </v>
    <v>       0.02605052       0.25085501       0.35675466 </v>
    <v>       0.47394948       0.24914499       0.85675466 </v>
    <v>       0.52605052       0.75085501       0.14324534 </v>
    <v>       0.97394948       0.74914499       0.64324534 </v>
   </varray>
  </structure>
  <varray name="forces" >
   <v>      -0.00771013      -0.00217061       0.00380198 </v>
   <v>       0.00771013       0.00217061       0.00380198 </v>
   <v>      -0.00771013      -0.00217061      -0.00380198 </v>
   <v>       0.00771013       0.00217061      -0.00380198 </v>
   <v>      -0.00352614      -0.00141815      -0.00284743 </v>
   <v>       0.00352614       0.00141815      -0.00284743 </v>
   <v>      -0.00352614      -0.00141815       0.00284743 </v>
   <v>       0.00352614       0.00141815       0.00284743 </v>
  </varray>
  <varray name="stress" >
   <v>       0.00253056      -0.07597731       0.00000000 </v>
   <v>      -0.07597715       0.03119589       0.00000000 </v>
   <v>       0.00000000       0.00000000      -0.51297549 </v>
  </varray>
  <energy>
   <i name="e_fr_energy">    -37.43190344 </i>
   <i name="e_wo_entrp">    -37.43190344 </i>
   <i name="e_0_energy">    -37.43190344 </i>
  </energy>
  <scstep>
   <time name="total">    1.55    0.88</time>
   <energy>
    <i name="e_fr_energy">   -132.61297600 </i>
    <i name="e_wo_entrp">   -132.61297600 </i>
    <i name="e_0_energy">   -132.61297600 </i>
   </energy>
  </scstep>
  <scstep>
   <time name="total">    1.79    0.93</time>
   <energy>
    <i name="e_fr_energy">   -259.13681929 </i>
    <i name="e_wo_entrp">   -259.13681929 </i>
    <i name="e_0_energy">   -259.13681929 </i>
   </energy>
  </scstep>
  <scstep>
   <time name="total">    1.80    0.98</time>
   <energy>
    <i name="e_fr_energy">   -259.95815419 </i>
    <i name="e_wo_entrp">   -259.95815419 </i>
    <i name="e_0_energy">   -259.95815419 </i>
   </energy>
  </scstep>
  <scstep>
   <time name="total">    1.50    0.82</time>
   <energy>
    <i name="e_fr_energy">   -260.10247565 </i>
    <i name="e_wo_entrp">   -260.10247565 </i>
    <i name="e_0_energy">   -260.10247565 </i>
   </energy>
  </scstep>
  <scstep>
   <time name="total">    1.53    0.83</time>
   <energy>
    <i name="e_fr_energy">   -260.10771531 </i>
    <i name="e_wo_entrp">   -260.10771531 </i>
    <i name="e_0_energy">   -260.10771531 </i>
   </energy>
  </scstep>
  <scstep>
   <time name="total">    1.59    0.84</time>
   <energy>
    <i name="e_fr_energy">   -260.10906713 </i>
    <i name="e_wo_entrp">   -260.10906713 </i>
    <i name="e_0_energy">   -260.10906713 </i>
   </energy>
  </scstep>
  <scstep>
   <time name="total">    1.66    0.87</time>
   <energy>
    <i name="e_fr_energy">   -260.10967600 </i>
    <i name="e_wo_entrp">   -260.10967600 </i>
    <i name="e_0_energy">   -260.10967600 </i>
   </energy>
  </scstep>
  <scstep>
   <time name="total">    1.81    0.91</time>
   <energy>
    <i name="e_fr_energy">   -260.10914506 </i>
    <i name="e_wo_entrp">   -260.10914506 </i>
    <i name="e_0_energy">   -260.10914506 </i>
   </energy>
  </scstep>
  <scstep>
   <time name="total">    1.84    0.93</time>
   <energy>
    <i name="e_fr_energy">   -260.10893489 </i>
    <i name="e_wo_entrp">   -260.10893489 </i>
    <i name="e_0_energy">   -260.10893489 </i>
   </energy>
  </scstep>
  <scstep>
   <time name="total">    1.82    0.91</time>
   <energy>
    <i name="e_fr_energy">   -260.10933405 </i>
    <i name="e_wo_entrp">   -260.10933405 </i>
    <i name="e_0_energy">   -260.10933405 </i>
   </energy>
  </scstep>
  <scstep>
   <time name="total">    1.73    0.89</time>
   <energy>
    <i name="e_fr_energy">   -260.10935801 </i>
    <i name="e_wo_entrp">   -260.10935801 </i>
    <i name="e_0_energy">   -260.10935801 </i>
   </energy>
  </scstep>
  <scstep>
   <time name="total">    1.69    0.86</time>
   <energy>
    <i name="e_fr_energy">   -260.10890829 </i>
    <i name="e_wo_entrp">   -260.10890829 </i>
    <i name="e_0_energy">   -260.10890829 </i>
   </energy>
  </scstep>
  <scstep>
   <time name="total">    1.69    0.87</time>
   <energy>
    <i name="e_fr_energy">   -260.10976921 </i>
    <i name="e_wo_entrp">   -260.10976921 </i>
    <i name="e_0_energy">   -260.10976921 </i>
   </energy>
  </scstep>
  <scstep>
   <time name="total">    1.29    0.65</time>
   <energy>
    <i name="e_fr_energy">   -129.99499163 </i>
    <i name="e_wo_entrp">   -129.99499163 </i>
    <i name="e_0_energy">   -129.99499163 </i>
   </energy>
  </scstep>
  <scstep>
   <time name="total">    1.80    0.94</time>
   <energy>
    <i name="e_fr_energy">   -258.99591124 </i>
    <i name="e_wo_entrp">   -258.99591124 </i>
    <i name="e_0_energy">   -258.99591124 </i>
   </energy>
  </scstep>
  <scstep>
   <time name="total">    1.77    1.05</time>
   <energy>
    <i name="e_fr_energy">   -259.82083983 </i>
    <i name="e_wo_entrp">   -259.82083983 </i>
    <i name="e_0_energy">   -259.82083983 </i>
   </energy>
  </scstep>
  <scstep>
   <time name="total">    1.48    0.80</time>
   <energy>
    <i name="e_fr_energy">   -259.95771323 </i>
    <i name="e_wo_entrp">   -259.95771323 </i>
    <i name="e_0_energy">   -259.95771323 </i>
   </energy>
  </scstep>
  <scstep>
   <time name="total">    1.54    0.84</time>
   <energy>
    <i name="e_fr_energy">   -259.96860887 </i>
    <i name="e_wo_entrp">   -259.96860887 </i>
    <i name="e_0_energy">   -259.96860887 </i>
   </energy>
  </scstep>
  <scstep>
   <time name="total">    1.65    0.83</time>
   <energy>
    <i name="e_fr_energy">   -259.97174705 </i>
    <i name="e_wo_entrp">   -259.97174705 </i>
    <i name="e_0_energy">   -259.97174705 </i>
   </energy>
  </scstep>
  <scstep>
   <time name="total">    1.77    0.89</time>
   <energy>
    <i name="e_fr_energy">   -259.97193883 </i>
    <i name="e_wo_entrp">   -259.97193883 </i>
    <i name="e_0_energy">   -259.97193883 </i>
   </energy>
  </scstep>
  <scstep>
   <time name="total">    1.78    0.89</time>
   <energy>
    <i name="e_fr_energy">   -259.97189788 </i>
    <i name="e_wo_entrp">   -259.97189788 </i>
    <i name="e_0_energy">   -259.97189788 </i>
   </energy>
  </scstep>
  <scstep>
   <time name="total">    1.81    0.91</time>
   <energy>
    <i name="e_fr_energy">   -259.97186297 </i>
    <i name="e_wo_entrp">   -259.97186297 </i>
    <i name="e_0_energy">   -259.97186297 </i>
   </energy>
  </scstep>
  <scstep>
   <time name="total">    1.79    0.90</time>
   <energy>
    <i name="e_fr_energy">   -259.97188839 </i>
    <i name="e_wo_entrp">   -259.97188839 </i>
    <i name="e_0_energy">   -259.97188839 </i>
   </energy>
  </scstep>
  <scstep>
   <time name="total">    1.73    0.88</time>
   <energy>
    <i name="e_fr_energy">   -259.97187967 </i>
    <i name="e_wo_entrp">   -259.97187967 </i>
    <i name="e_0_energy">   -259.97187967 </i>
   </energy>
  </scstep>
  <scstep>
   <time name="total">    1.68    0.86</time>
   <energy>
    <i name="e_fr_energy">   -259.97189150 </i>
    <i name="e_wo_entrp">   -259.97189150 </i>
    <i name="e_0_energy">   -259.97189150 </i>
   </energy>
  </scstep>
  <scstep>
   <time name="total">    1.67    0.85</time>
   <energy>
    <i name="e_fr_energy">   -259.97190012 </i>
    <i name="e_wo_entrp">   -259.97190012 </i>
    <i name="e_0_energy">   -259.97190012 </i>
   </energy>
  </scstep>
  <scstep>
   <time name="total">    1.30    0.66</time>
   <energy>
    <i name="e_fr_energy">   -129.18987427 </i>
    <i name="e_wo_entrp">   -129.18987427 </i>
    <i name="e_0_energy">   -129.18987427 </i>
   </energy>
  </scstep>
  <scstep>
   <time name="total">    1.77    0.95</time>
   <energy>
    <i name="e_fr_energy">   -263.66045647 </i>
    <i name="e_wo_entrp">   -263.66045647 </i>
    <i name="e_0_energy">   -263.66045647 </i>
   </energy>
  </scstep>
  <scstep>
   <time name="total">    1.76    0.98</time>
   <energy>
    <i name="e_fr_energy">   -264.69141456 </i>
    <i name="e_wo_entrp">   -264.69141456 </i>
    <i name="e_0_energy">   -264.69141456 </i>
   </energy>
  </scstep>
  <scstep>
   <time name="total">    1.45    0.80</time>
   <energy>
    <i name="e_fr_energy">   -264.98665893 </i>
    <i name="e_wo_entrp">   -264.98665893 </i>
    <i name="e_0_energy">   -264.98665893 </i>
   </energy>
  </scstep>
  <scstep>
   <time name="total">    1.56    0.87</time>
   <energy>
    <i name="e_fr_energy">   -264.98715370 </i>
    <i name="e_wo_entrp">   -264.98715370 </i>
    <i name="e_0_energy">   -264.98715370 </i>
   </energy>
  </scstep>
  <scstep>
   <time name="total">    1.57    0.86</time>
   <energy>
    <i name="e_fr_energy">   -264.99107440 </i>
    <i name="e_wo_entrp">   -264.99107440 </i>
    <i name="e_0_energy">   -264.99107440 </i>
   </energy>
  </scstep>
  <scstep>
   <time name="total">    1.74    0.88</time>
   <energy>
    <i name="e_fr_energy">   -264.99125688 </i>
    <i name="e_wo_entrp">   -264.99125688 </i>
    <i name="e_0_energy">   -264.99125688 </i>
   </energy>
  </scstep>
  <scstep>
   <time name="total">    1.80    0.90</time>
   <energy>
    <i name="e_fr_energy">   -264.99124681 </i>
    <i name="e_wo_entrp">   -264.99124681 </i>
    <i name="e_0_energy">   -264.99124681 </i>
   </energy>
  </scstep>
  <scstep>
   <time name="total">    1.84    0.92</time>
   <energy>
    <i name="e_fr_energy">   -264.99124781 </i>
    <i name="e_wo_entrp">   -264.99124781 </i>
    <i name="e_0_energy">   -264.99124781 </i>
   </energy>
  </scstep>
  <scstep>
   <time name="total">    1.83    0.94</time>
   <energy>
    <i name="e_fr_energy">   -264.99124288 </i>
    <i name="e_wo_entrp">   -264.99124288 </i>
    <i name="e_0_energy">   -264.99124288 </i>
   </energy>
  </scstep>
  <scstep>
   <time name="total">    1.74    0.89</time>
   <energy>
    <i name="e_fr_energy">   -264.99124988 </i>
    <i name="e_wo_entrp">   -264.99124988 </i>
    <i name="e_0_energy">   -264.99124988 </i>
   </energy>
  </scstep>
  <scstep>
   <time name="total">    1.70    0.89</time>
   <energy>
    <i name="e_fr_energy">   -264.99124261 </i>
    <i name="e_wo_entrp">   -264.99124261 </i>
    <i name="e_0_energy">   -264.99124261 </i>
   </energy>
  </scstep>
  <scstep>
   <time name="total">    1.72    0.90</time>
   <energy>
    <i name="e_fr_energy">   -264.99125738 </i>
    <i name="e_wo_entrp">   -264.99125738 </i>
    <i name="e_0_energy">   -264.99125738 </i>
   </energy>
  </scstep>
  <scstep>
   <time name="total">    2.02    1.31</time>
   <energy>
    <i name="e_fr_energy">     -2.28473123 </i>
    <i name="e_wo_entrp">     -2.28473123 </i>
    <i name="e_0_energy">     -2.28473123 </i>
   </energy>
  </scstep>
  <scstep>
   <time name="total">    2.50    1.50</time>
   <energy>
    <i name="e_fr_energy">    -13.86968776 </i>
    <i name="e_wo_entrp">    -13.86968776 </i>
    <i name="e_0_energy">    -13.86968776 </i>
   </energy>
  </scstep>
  <scstep>
   <time name="total">    2.59    1.56</time>
   <energy>
    <i name="e_fr_energy">    -13.94347566 </i>
    <i name="e_wo_entrp">    -13.94347566 </i>
    <i name="e_0_energy">    -13.94347566 </i>
   </energy>
  </scstep>
  <scstep>
   <time name="total">    2.61    1.58</time>
   <energy>
    <i name="e_fr_energy">    -13.94390395 </i>
    <i name="e_wo_entrp">    -13.94390395 </i>
    <i name="e_0_energy">    -13.94390395 </i>
   </energy>
  </scstep>
  <scstep>
   <time name="total">    2.60    1.57</time>
   <energy>
    <i name="e_fr_energy">    -13.94399449 </i>
    <i name="e_wo_entrp">    -13.94399449 </i>
    <i name="e_0_energy">    -13.94399449 </i>
   </energy>
  </scstep>
  <scstep>
   <time name="total">    2.58    1.57</time>
   <energy>
    <i name="e_fr_energy">    -13.94399850 </i>
    <i name="e_wo_entrp">    -13.94399850 </i>
    <i name="e_0_energy">    -13.94399850 </i>
   </energy>
  </scstep>
  <scstep>
   <time name="total">    2.68    1.60</time>
   <energy>
    <i name="e_fr_energy">    -13.94399982 </i>
    <i name="e_wo_entrp">    -13.94399982 </i>
    <i name="e_0_energy">    -13.94399982 </i>
   </energy>
  </scstep>
  <scstep>
   <time name="total">    2.74    1.59</time>
   <energy>
    <i name="e_fr_energy">    -13.94399993 </i>
    <i name="e_wo_entrp">    -13.94399993 </i>
    <i name="e_0_energy">    -13.94399993 </i>
   </energy>
  </scstep>
  <scstep>
   <time name="total">    2.73    1.58</time>
   <energy>
    <i name="e_fr_energy">    -13.94399995 </i>
    <i name="e_wo_entrp">    -13.94399995 </i>
    <i name="e_0_energy">    -13.94399995 </i>
   </energy>
  </scstep>
  <scstep>
   <time name="total">    2.70    1.56</time>
   <energy>
    <i name="e_fr_energy">    -13.94399995 </i>
    <i name="e_wo_entrp">    -13.94399995 </i>
    <i name="e_0_energy">    -13.94399995 </i>
   </energy>
  </scstep>
  <scstep>
   <time name="total">    2.61    1.52</time>
   <energy>
    <i name="e_fr_energy">    -13.94399995 </i>
    <i name="e_wo_entrp">    -13.94399995 </i>
    <i name="e_0_energy">    -13.94399995 </i>
   </energy>
  </scstep>
  <scstep>
   <time name="total">    2.64    1.53</time>
   <energy>
    <i name="e_fr_energy">    -13.94399995 </i>
    <i name="e_wo_entrp">    -13.94399995 </i>
    <i name="e_0_energy">    -13.94399995 </i>
   </energy>
  </scstep>
  <scstep>
   <time name="total">    2.58    1.52</time>
   <energy>
    <i name="e_fr_energy">    -13.94399995 </i>
    <i name="e_wo_entrp">    -13.94399995 </i>
    <i name="e_0_energy">    -13.94399995 </i>
   </energy>
  </scstep>
  <scstep>
   <time name="total">    2.56    1.51</time>
   <energy>
    <i name="e_fr_energy">    -13.94399995 </i>
    <i name="e_wo_entrp">    -13.94399995 </i>
    <i name="e_0_energy">    -13.94399995 </i>
   </energy>
  </scstep>
  <scstep>
   <time name="total">    2.56    1.50</time>
   <energy>
    <i name="e_fr_energy">    -13.94399995 </i>
    <i name="e_wo_entrp">    -13.94399995 </i>
    <i name="e_0_energy">    -13.94399995 </i>
   </energy>
  </scstep>
  <scstep>
   <time name="total">    2.57    1.52</time>
   <energy>
    <i name="e_fr_energy">    -13.94399995 </i>
    <i name="e_wo_entrp">    -13.94399995 </i>
    <i name="e_0_energy">    -13.94399995 </i>
   </energy>
  </scstep>
  <scstep>
   <time name="total">    2.00    1.29</time>
   <energy>
    <i name="e_fr_energy">     -3.84568253 </i>
    <i name="e_wo_entrp">     -3.84568253 </i>
    <i name="e_0_energy">     -3.84568253 </i>
   </energy>
  </scstep>
  <scstep>
   <time name="total">    2.53    1.53</time>
   <energy>
    <i name="e_fr_energy">    -16.77415197 </i>
    <i name="e_wo_entrp">    -16.77415197 </i>
    <i name="e_0_energy">    -16.77415197 </i>
   </energy>
  </scstep>
  <scstep>
   <time name="total">    2.58    1.55</time>
   <energy>
    <i name="e_fr_energy">    -16.86033284 </i>
    <i name="e_wo_entrp">    -16.86033284 </i>
    <i name="e_0_energy">    -16.86033284 </i>
   </energy>
  </scstep>
  <scstep>
   <time name="total">    2.59    1.56</time>
   <energy>
    <i name="e_fr_energy">    -16.86077118 </i>
    <i name="e_wo_entrp">    -16.86077118 </i>
    <i name="e_0_energy">    -16.86077118 </i>
   </energy>
  </scstep>
  <scstep>
   <time name="total">    2.61    1.59</time>
   <energy>
    <i name="e_fr_energy">    -16.86084984 </i>
    <i name="e_wo_entrp">    -16.86084984 </i>
    <i name="e_0_energy">    -16.86084984 </i>
   </energy>
  </scstep>
  <scstep>
   <time name="total">    2.54    1.56</time>
   <energy>
    <i name="e_fr_energy">    -16.86085317 </i>
    <i name="e_wo_entrp">    -16.86085317 </i>
    <i name="e_0_energy">    -16.86085317 </i>
   </energy>
  </scstep>
  <scstep>
   <time name="total">    2.62    1.60</time>
   <energy>
    <i name="e_fr_energy">    -16.86085453 </i>
    <i name="e_wo_entrp">    -16.86085453 </i>
    <i name="e_0_energy">    -16.86085453 </i>
   </energy>
  </scstep>
  <scstep>
   <time name="total">    2.65    1.55</time>
   <energy>
    <i name="e_fr_energy">    -16.86085464 </i>
    <i name="e_wo_entrp">    -16.86085464 </i>
    <i name="e_0_energy">    -16.86085464 </i>
   </energy>
  </scstep>
  <scstep>
   <time name="total">    2.70    1.56</time>
   <energy>
    <i name="e_fr_energy">    -16.86085466 </i>
    <i name="e_wo_entrp">    -16.86085466 </i>
    <i name="e_0_energy">    -16.86085466 </i>
   </energy>
  </scstep>
  <scstep>
   <time name="total">    2.69    1.56</time>
   <energy>
    <i name="e_fr_energy">    -16.86085467 </i>
    <i name="e_wo_entrp">    -16.86085467 </i>
    <i name="e_0_energy">    -16.86085467 </i>
   </energy>
  </scstep>
  <scstep>
   <time name="total">    2.63    1.53</time>
   <energy>
    <i name="e_fr_energy">    -16.86085466 </i>
    <i name="e_wo_entrp">    -16.86085466 </i>
    <i name="e_0_energy">    -16.86085466 </i>
   </energy>
  </scstep>
  <scstep>
   <time name="total">    2.56    1.49</time>
   <energy>
    <i name="e_fr_energy">    -16.86085466 </i>
    <i name="e_wo_entrp">    -16.86085466 </i>
    <i name="e_0_energy">    -16.86085466 </i>
   </energy>
  </scstep>
  <scstep>
   <time name="total">    2.54    1.48</time>
   <energy>
    <i name="e_fr_energy">    -16.86085466 </i>
    <i name="e_wo_entrp">    -16.86085466 </i>
    <i name="e_0_energy">    -16.86085466 </i>
   </energy>
  </scstep>
  <scstep>
   <time name="total">    2.53    1.48</time>
   <energy>
    <i name="e_fr_energy">    -16.86085466 </i>
    <i name="e_wo_entrp">    -16.86085466 </i>
    <i name="e_0_energy">    -16.86085466 </i>
   </energy>
  </scstep>
  <scstep>
   <time name="total">    2.57    1.50</time>
   <energy>
    <i name="e_fr_energy">    -16.86085466 </i>
    <i name="e_wo_entrp">    -16.86085466 </i>
    <i name="e_0_energy">    -16.86085466 </i>
   </energy>
  </scstep>
  <scstep>
   <time name="total">    2.13    1.38</time>
   <energy>
    <i name="e_fr_energy">     -4.14674012 </i>
    <i name="e_wo_entrp">     -4.14674012 </i>
    <i name="e_0_energy">     -4.14674012 </i>
   </energy>
  </scstep>
  <scstep>
   <time name="total">    2.50    1.53</time>
   <energy>
    <i name="e_fr_energy">    -15.58058826 </i>
    <i name="e_wo_entrp">    -15.58058826 </i>
    <i name="e_0_energy">    -15.58058826 </i>
   </energy>
  </scstep>
  <scstep>
   <time name="total">    2.57    1.57</time>
   <energy>
    <i name="e_fr_energy">    -15.64390719 </i>
    <i name="e_wo_entrp">    -15.64390719 </i>
    <i name="e_0_energy">    -15.64390719 </i>
   </energy>
  </scstep>
  <scstep>
   <time name="total">    2.61    1.57</time>
   <energy>
    <i name="e_fr_energy">    -15.64431259 </i>
    <i name="e_wo_entrp">    -15.64431259 </i>
    <i name="e_0_energy">    -15.64431259 </i>
   </energy>
  </scstep>
  <scstep>
   <time name="total">    2.55    1.55</time>
   <energy>
    <i name="e_fr_energy">    -15.64441186 </i>
    <i name="e_wo_entrp">    -15.64441186 </i>
    <i name="e_0_energy">    -15.64441186 </i>
   </energy>
  </scstep>
  <scstep>
   <time name="total">    2.58    1.57</time>
   <energy>
    <i name="e_fr_energy">    -15.64441560 </i>
    <i name="e_wo_entrp">    -15.64441560 </i>
    <i name="e_0_energy">    -15.64441560 </i>
   </energy>
  </scstep>
  <scstep>
   <time name="total">    2.64    1.58</time>
   <energy>
    <i name="e_fr_energy">    -15.64441728 </i>
    <i name="e_wo_entrp">    -15.64441728 </i>
    <i name="e_0_energy">    -15.64441728 </i>
   </energy>
  </scstep>
  <scstep>
   <time name="total">    2.73    1.60</time>
   <energy>
    <i name="e_fr_energy">    -15.64441742 </i>
    <i name="e_wo_entrp">    -15.64441742 </i>
    <i name="e_0_energy">    -15.64441742 </i>
   </energy>
  </scstep>
  <scstep>
   <time name="total">    2.75    1.59</time>
   <energy>
    <i name="e_fr_energy">    -15.64441745 </i>
    <i name="e_wo_entrp">    -15.64441745 </i>
    <i name="e_0_energy">    -15.64441745 </i>
   </energy>
  </scstep>
  <scstep>
   <time name="total">    2.68    1.56</time>
   <energy>
    <i name="e_fr_energy">    -15.64441743 </i>
    <i name="e_wo_entrp">    -15.64441743 </i>
    <i name="e_0_energy">    -15.64441743 </i>
   </energy>
  </scstep>
  <scstep>
   <time name="total">    2.59    1.51</time>
   <energy>
    <i name="e_fr_energy">    -15.64441739 </i>
    <i name="e_wo_entrp">    -15.64441739 </i>
    <i name="e_0_energy">    -15.64441739 </i>
   </energy>
  </scstep>
  <scstep>
   <time name="total">    2.55    1.49</time>
   <energy>
    <i name="e_fr_energy">    -15.64441735 </i>
    <i name="e_wo_entrp">    -15.64441735 </i>
    <i name="e_0_energy">    -15.64441735 </i>
   </energy>
  </scstep>
  <scstep>
   <time name="total">    2.50    1.47</time>
   <energy>
    <i name="e_fr_energy">    -15.64441733 </i>
    <i name="e_wo_entrp">    -15.64441733 </i>
    <i name="e_0_energy">    -15.64441733 </i>
   </energy>
  </scstep>
  <scstep>
   <time name="total">    2.50    1.47</time>
   <energy>
    <i name="e_fr_energy">    -15.64441739 </i>
    <i name="e_wo_entrp">    -15.64441739 </i>
    <i name="e_0_energy">    -15.64441739 </i>
   </energy>
  </scstep>
  <scstep>
   <time name="total">    2.50    1.46</time>
   <energy>
    <i name="e_fr_energy">    -15.64441738 </i>
    <i name="e_wo_entrp">    -15.64441738 </i>
    <i name="e_0_energy">    -15.64441738 </i>
   </energy>
  </scstep>
  <scstep>
   <time name="total">    2.57    1.50</time>
   <energy>
    <i name="e_fr_energy">    -15.64441740 </i>
    <i name="e_wo_entrp">    -15.64441740 </i>
    <i name="e_0_energy">    -15.64441740 </i>
   </energy>
  </scstep>
  <varray name="dielectric_ipa" >
   <v>      25.82814020      -0.01397204       0.00000000 </v>
   <v>      -0.01404326      31.02177933       0.00000000 </v>
   <v>       0.00000000       0.00000000      28.85583628 </v>
  </varray>
  <kpoints>
   <generation param="Gamma">
    <v type="int" name="divisions">       8        9        3 </v>
    <v name="usershift">      0.00000000       0.00000000       0.00000000 </v>
    <v name="genvec1">      0.12500000       0.00000000       0.00000000 </v>
    <v name="genvec2">      0.00000000       0.11111111       0.00000000 </v>
    <v name="genvec3">      0.00000000       0.00000000       0.33333333 </v>
    <v name="shift">      0.00000000       0.00000000       0.00000000 </v>
   </generation>
   <varray name="kpointlist" >
    <v>       0.00000000       0.00000000       0.00000000 </v>
    <v>       0.12500000       0.00000000       0.00000000 </v>
    <v>       0.25000000       0.00000000       0.00000000 </v>
    <v>       0.37500000       0.00000000       0.00000000 </v>
    <v>       0.50000000       0.00000000       0.00000000 </v>
    <v>       0.00000000       0.11111111       0.00000000 </v>
    <v>       0.12500000       0.11111111       0.00000000 </v>
    <v>      -0.12500000       0.11111111       0.00000000 </v>
    <v>       0.25000000       0.11111111       0.00000000 </v>
    <v>      -0.25000000       0.11111111       0.00000000 </v>
    <v>       0.37500000       0.11111111       0.00000000 </v>
    <v>      -0.37500000       0.11111111       0.00000000 </v>
    <v>       0.50000000       0.11111111       0.00000000 </v>
    <v>       0.00000000       0.22222222       0.00000000 </v>
    <v>       0.12500000       0.22222222       0.00000000 </v>
    <v>      -0.12500000       0.22222222       0.00000000 </v>
    <v>       0.25000000       0.22222222       0.00000000 </v>
    <v>      -0.25000000       0.22222222       0.00000000 </v>
    <v>       0.37500000       0.22222222       0.00000000 </v>
    <v>      -0.37500000       0.22222222       0.00000000 </v>
    <v>       0.50000000       0.22222222       0.00000000 </v>
    <v>       0.00000000       0.33333333       0.00000000 </v>
    <v>       0.12500000       0.33333333       0.00000000 </v>
    <v>      -0.12500000       0.33333333       0.00000000 </v>
    <v>       0.25000000       0.33333333       0.00000000 </v>
    <v>      -0.25000000       0.33333333       0.00000000 </v>
    <v>       0.37500000       0.33333333       0.00000000 </v>
    <v>      -0.37500000       0.33333333       0.00000000 </v>
    <v>       0.50000000       0.33333333       0.00000000 </v>
    <v>       0.00000000       0.44444444       0.00000000 </v>
    <v>       0.12500000       0.44444444       0.00000000 </v>
    <v>      -0.12500000       0.44444444       0.00000000 </v>
    <v>       0.25000000       0.44444444       0.00000000 </v>
    <v>      -0.25000000       0.44444444       0.00000000 </v>
    <v>       0.37500000       0.44444444       0.00000000 </v>
    <v>      -0.37500000       0.44444444       0.00000000 </v>
    <v>       0.50000000       0.44444444       0.00000000 </v>
    <v>       0.00000000       0.00000000       0.33333333 </v>
    <v>       0.12500000       0.00000000       0.33333333 </v>
    <v>       0.25000000       0.00000000       0.33333333 </v>
    <v>       0.37500000       0.00000000       0.33333333 </v>
    <v>       0.50000000       0.00000000       0.33333333 </v>
    <v>       0.00000000       0.11111111       0.33333333 </v>
    <v>       0.12500000       0.11111111       0.33333333 </v>
    <v>      -0.12500000       0.11111111      -0.33333333 </v>
    <v>       0.25000000       0.11111111       0.33333333 </v>
    <v>      -0.25000000       0.11111111      -0.33333333 </v>
    <v>       0.37500000       0.11111111       0.33333333 </v>
    <v>      -0.37500000       0.11111111      -0.33333333 </v>
    <v>       0.50000000       0.11111111       0.33333333 </v>
    <v>       0.00000000       0.22222222       0.33333333 </v>
    <v>       0.12500000       0.22222222       0.33333333 </v>
    <v>      -0.12500000       0.22222222      -0.33333333 </v>
    <v>       0.25000000       0.22222222       0.33333333 </v>
    <v>      -0.25000000       0.22222222      -0.33333333 </v>
    <v>       0.37500000       0.22222222       0.33333333 </v>
    <v>      -0.37500000       0.22222222      -0.33333333 </v>
    <v>       0.50000000       0.22222222       0.33333333 </v>
    <v>       0.00000000       0.33333333       0.33333333 </v>
    <v>       0.12500000       0.33333333       0.33333333 </v>
    <v>      -0.12500000       0.33333333      -0.33333333 </v>
    <v>       0.25000000       0.33333333       0.33333333 </v>
    <v>      -0.25000000       0.33333333      -0.33333333 </v>
    <v>       0.37500000       0.33333333       0.33333333 </v>
    <v>      -0.37500000       0.33333333      -0.33333333 </v>
    <v>       0.50000000       0.33333333       0.33333333 </v>
    <v>       0.00000000       0.44444444       0.33333333 </v>
    <v>       0.12500000       0.44444444       0.33333333 </v>
    <v>      -0.12500000       0.44444444      -0.33333333 </v>
    <v>       0.25000000       0.44444444       0.33333333 </v>
    <v>      -0.25000000       0.44444444      -0.33333333 </v>
    <v>       0.37500000       0.44444444       0.33333333 </v>
    <v>      -0.37500000       0.44444444      -0.33333333 </v>
    <v>       0.50000000       0.44444444       0.33333333 </v>
   </varray>
   <varray name="weights" >
    <v>       0.00462963 </v>
    <v>       0.00925926 </v>
    <v>       0.00925926 </v>
    <v>       0.00925926 </v>
    <v>       0.00462963 </v>
    <v>       0.00925926 </v>
    <v>       0.00925926 </v>
    <v>       0.00925926 </v>
    <v>       0.00925926 </v>
    <v>       0.00925926 </v>
    <v>       0.00925926 </v>
    <v>       0.00925926 </v>
    <v>       0.00925926 </v>
    <v>       0.00925926 </v>
    <v>       0.00925926 </v>
    <v>       0.00925926 </v>
    <v>       0.00925926 </v>
    <v>       0.00925926 </v>
    <v>       0.00925926 </v>
    <v>       0.00925926 </v>
    <v>       0.00925926 </v>
    <v>       0.00925926 </v>
    <v>       0.00925926 </v>
    <v>       0.00925926 </v>
    <v>       0.00925926 </v>
    <v>       0.00925926 </v>
    <v>       0.00925926 </v>
    <v>       0.00925926 </v>
    <v>       0.00925926 </v>
    <v>       0.00925926 </v>
    <v>       0.00925926 </v>
    <v>       0.00925926 </v>
    <v>       0.00925926 </v>
    <v>       0.00925926 </v>
    <v>       0.00925926 </v>
    <v>       0.00925926 </v>
    <v>       0.00925926 </v>
    <v>       0.00925926 </v>
    <v>       0.01851852 </v>
    <v>       0.01851852 </v>
    <v>       0.01851852 </v>
    <v>       0.00925926 </v>
    <v>       0.01851852 </v>
    <v>       0.01851852 </v>
    <v>       0.01851852 </v>
    <v>       0.01851852 </v>
    <v>       0.01851852 </v>
    <v>       0.01851852 </v>
    <v>       0.01851852 </v>
    <v>       0.01851852 </v>
    <v>       0.01851852 </v>
    <v>       0.01851852 </v>
    <v>       0.01851852 </v>
    <v>       0.01851852 </v>
    <v>       0.01851852 </v>
    <v>       0.01851852 </v>
    <v>       0.01851852 </v>
    <v>       0.01851852 </v>
    <v>       0.01851852 </v>
    <v>       0.01851852 </v>
    <v>       0.01851852 </v>
    <v>       0.01851852 </v>
    <v>       0.01851852 </v>
    <v>       0.01851852 </v>
    <v>       0.01851852 </v>
    <v>       0.01851852 </v>
    <v>       0.01851852 </v>
    <v>       0.01851852 </v>
    <v>       0.01851852 </v>
    <v>       0.01851852 </v>
    <v>       0.01851852 </v>
    <v>       0.01851852 </v>
    <v>       0.01851852 </v>
    <v>       0.01851852 </v>
   </varray>
  </kpoints>
  <scstep>
   <time name="total">    2.06    1.33</time>
   <energy>
    <i name="e_fr_energy">     -2.28473123 </i>
    <i name="e_wo_entrp">     -2.28473123 </i>
    <i name="e_0_energy">     -2.28473123 </i>
   </energy>
  </scstep>
  <scstep>
   <time name="total">    2.79    1.69</time>
   <energy>
    <i name="e_fr_energy">    -13.86968777 </i>
    <i name="e_wo_entrp">    -13.86968777 </i>
    <i name="e_0_energy">    -13.86968777 </i>
   </energy>
  </scstep>
  <scstep>
   <time name="total">    2.73    1.73</time>
   <energy>
    <i name="e_fr_energy">    -13.37334115 </i>
    <i name="e_wo_entrp">    -13.37334115 </i>
    <i name="e_0_energy">    -13.37334115 </i>
   </energy>
  </scstep>
  <scstep>
   <time name="total">    2.69    1.73</time>
   <energy>
    <i name="e_fr_energy">    -13.55609683 </i>
    <i name="e_wo_entrp">    -13.55609683 </i>
    <i name="e_0_energy">    -13.55609683 </i>
   </energy>
  </scstep>
  <scstep>
   <time name="total">    2.79    1.75</time>
   <energy>
    <i name="e_fr_energy">    -13.76905388 </i>
    <i name="e_wo_entrp">    -13.76905388 </i>
    <i name="e_0_energy">    -13.76905388 </i>
   </energy>
  </scstep>
  <scstep>
   <time name="total">    2.83    1.73</time>
   <energy>
    <i name="e_fr_energy">    -13.81861931 </i>
    <i name="e_wo_entrp">    -13.81861931 </i>
    <i name="e_0_energy">    -13.81861931 </i>
   </energy>
  </scstep>
  <scstep>
   <time name="total">    2.95    1.78</time>
   <energy>
    <i name="e_fr_energy">    -13.83292012 </i>
    <i name="e_wo_entrp">    -13.83292012 </i>
    <i name="e_0_energy">    -13.83292012 </i>
   </energy>
  </scstep>
  <scstep>
   <time name="total">    2.88    1.74</time>
   <energy>
    <i name="e_fr_energy">    -13.82860494 </i>
    <i name="e_wo_entrp">    -13.82860494 </i>
    <i name="e_0_energy">    -13.82860494 </i>
   </energy>
  </scstep>
  <scstep>
   <time name="total">    3.01    1.80</time>
   <energy>
    <i name="e_fr_energy">    -13.83531203 </i>
    <i name="e_wo_entrp">    -13.83531203 </i>
    <i name="e_0_energy">    -13.83531203 </i>
   </energy>
  </scstep>
  <scstep>
   <time name="total">    2.99    1.79</time>
   <energy>
    <i name="e_fr_energy">    -13.83183377 </i>
    <i name="e_wo_entrp">    -13.83183377 </i>
    <i name="e_0_energy">    -13.83183377 </i>
   </energy>
  </scstep>
  <scstep>
   <time name="total">    3.00    1.80</time>
   <energy>
    <i name="e_fr_energy">    -13.83457415 </i>
    <i name="e_wo_entrp">    -13.83457415 </i>
    <i name="e_0_energy">    -13.83457415 </i>
   </energy>
  </scstep>
  <scstep>
   <time name="total">    2.98    1.79</time>
   <energy>
    <i name="e_fr_energy">    -13.83293114 </i>
    <i name="e_wo_entrp">    -13.83293114 </i>
    <i name="e_0_energy">    -13.83293114 </i>
   </energy>
  </scstep>
  <scstep>
   <time name="total">    2.96    1.80</time>
   <energy>
    <i name="e_fr_energy">    -13.83258051 </i>
    <i name="e_wo_entrp">    -13.83258051 </i>
    <i name="e_0_energy">    -13.83258051 </i>
   </energy>
  </scstep>
  <scstep>
   <time name="total">    2.92    1.77</time>
   <energy>
    <i name="e_fr_energy">    -13.83545411 </i>
    <i name="e_wo_entrp">    -13.83545411 </i>
    <i name="e_0_energy">    -13.83545411 </i>
   </energy>
  </scstep>
  <scstep>
   <time name="total">    2.89    1.74</time>
   <energy>
    <i name="e_fr_energy">    -13.83254542 </i>
    <i name="e_wo_entrp">    -13.83254542 </i>
    <i name="e_0_energy">    -13.83254542 </i>
   </energy>
  </scstep>
  <scstep>
   <time name="total">    2.94    1.79</time>
   <energy>
    <i name="e_fr_energy">    -13.83582464 </i>
    <i name="e_wo_entrp">    -13.83582464 </i>
    <i name="e_0_energy">    -13.83582464 </i>
   </energy>
  </scstep>
  <scstep>
   <time name="total">    2.89    1.75</time>
   <energy>
    <i name="e_fr_energy">    -13.83339953 </i>
    <i name="e_wo_entrp">    -13.83339953 </i>
    <i name="e_0_energy">    -13.83339953 </i>
   </energy>
  </scstep>
  <scstep>
   <time name="total">    2.85    1.73</time>
   <energy>
    <i name="e_fr_energy">    -13.83527200 </i>
    <i name="e_wo_entrp">    -13.83527200 </i>
    <i name="e_0_energy">    -13.83527200 </i>
   </energy>
  </scstep>
  <scstep>
   <time name="total">    2.87    1.73</time>
   <energy>
    <i name="e_fr_energy">    -13.83452025 </i>
    <i name="e_wo_entrp">    -13.83452025 </i>
    <i name="e_0_energy">    -13.83452025 </i>
   </energy>
  </scstep>
  <scstep>
   <time name="total">    2.85    1.72</time>
   <energy>
    <i name="e_fr_energy">    -13.83470214 </i>
    <i name="e_wo_entrp">    -13.83470214 </i>
    <i name="e_0_energy">    -13.83470214 </i>
   </energy>
  </scstep>
  <scstep>
   <time name="total">    2.88    1.74</time>
   <energy>
    <i name="e_fr_energy">    -13.83378730 </i>
    <i name="e_wo_entrp">    -13.83378730 </i>
    <i name="e_0_energy">    -13.83378730 </i>
   </energy>
  </scstep>
  <scstep>
   <time name="total">    2.84    1.72</time>
   <energy>
    <i name="e_fr_energy">    -13.83375706 </i>
    <i name="e_wo_entrp">    -13.83375706 </i>
    <i name="e_0_energy">    -13.83375706 </i>
   </energy>
  </scstep>
  <scstep>
   <time name="total">    2.87    1.73</time>
   <energy>
    <i name="e_fr_energy">    -13.83366807 </i>
    <i name="e_wo_entrp">    -13.83366807 </i>
    <i name="e_0_energy">    -13.83366807 </i>
   </energy>
  </scstep>
  <scstep>
   <time name="total">    2.88    1.74</time>
   <energy>
    <i name="e_fr_energy">    -13.83337967 </i>
    <i name="e_wo_entrp">    -13.83337967 </i>
    <i name="e_0_energy">    -13.83337967 </i>
   </energy>
  </scstep>
  <scstep>
   <time name="total">    2.87    1.73</time>
   <energy>
    <i name="e_fr_energy">    -13.83294788 </i>
    <i name="e_wo_entrp">    -13.83294788 </i>
    <i name="e_0_energy">    -13.83294788 </i>
   </energy>
  </scstep>
  <scstep>
   <time name="total">    2.86    1.74</time>
   <energy>
    <i name="e_fr_energy">    -13.83540714 </i>
    <i name="e_wo_entrp">    -13.83540714 </i>
    <i name="e_0_energy">    -13.83540714 </i>
   </energy>
  </scstep>
  <scstep>
   <time name="total">    2.87    1.73</time>
   <energy>
    <i name="e_fr_energy">    -13.83449484 </i>
    <i name="e_wo_entrp">    -13.83449484 </i>
    <i name="e_0_energy">    -13.83449484 </i>
   </energy>
  </scstep>
  <scstep>
   <time name="total">    2.84    1.72</time>
   <energy>
    <i name="e_fr_energy">    -13.83496972 </i>
    <i name="e_wo_entrp">    -13.83496972 </i>
    <i name="e_0_energy">    -13.83496972 </i>
   </energy>
  </scstep>
  <scstep>
   <time name="total">    2.87    1.73</time>
   <energy>
    <i name="e_fr_energy">    -13.83431546 </i>
    <i name="e_wo_entrp">    -13.83431546 </i>
    <i name="e_0_energy">    -13.83431546 </i>
   </energy>
  </scstep>
  <scstep>
   <time name="total">    2.87    1.73</time>
   <energy>
    <i name="e_fr_energy">    -13.83513970 </i>
    <i name="e_wo_entrp">    -13.83513970 </i>
    <i name="e_0_energy">    -13.83513970 </i>
   </energy>
  </scstep>
  <scstep>
   <time name="total">    2.89    1.74</time>
   <energy>
    <i name="e_fr_energy">    -13.83304267 </i>
    <i name="e_wo_entrp">    -13.83304267 </i>
    <i name="e_0_energy">    -13.83304267 </i>
   </energy>
  </scstep>
  <scstep>
   <time name="total">    2.86    1.73</time>
   <energy>
    <i name="e_fr_energy">    -13.83447029 </i>
    <i name="e_wo_entrp">    -13.83447029 </i>
    <i name="e_0_energy">    -13.83447029 </i>
   </energy>
  </scstep>
  <kpoints>
   <generation param="Gamma">
    <v type="int" name="divisions">       8        9        3 </v>
    <v name="usershift">      0.00000000       0.00000000       0.00000000 </v>
    <v name="genvec1">      0.12500000       0.00000000       0.00000000 </v>
    <v name="genvec2">      0.00000000       0.11111111       0.00000000 </v>
    <v name="genvec3">      0.00000000       0.00000000       0.33333333 </v>
    <v name="shift">      0.00000000       0.00000000       0.00000000 </v>
   </generation>
   <varray name="kpointlist" >
    <v>       0.00000000       0.00000000       0.00000000 </v>
    <v>       0.12500000       0.00000000       0.00000000 </v>
    <v>       0.25000000       0.00000000       0.00000000 </v>
    <v>       0.37500000       0.00000000       0.00000000 </v>
    <v>       0.50000000       0.00000000       0.00000000 </v>
    <v>       0.00000000       0.11111111       0.00000000 </v>
    <v>       0.12500000       0.11111111       0.00000000 </v>
    <v>      -0.12500000       0.11111111       0.00000000 </v>
    <v>       0.25000000       0.11111111       0.00000000 </v>
    <v>      -0.25000000       0.11111111       0.00000000 </v>
    <v>       0.37500000       0.11111111       0.00000000 </v>
    <v>      -0.37500000       0.11111111       0.00000000 </v>
    <v>       0.50000000       0.11111111       0.00000000 </v>
    <v>       0.00000000       0.22222222       0.00000000 </v>
    <v>       0.12500000       0.22222222       0.00000000 </v>
    <v>      -0.12500000       0.22222222       0.00000000 </v>
    <v>       0.25000000       0.22222222       0.00000000 </v>
    <v>      -0.25000000       0.22222222       0.00000000 </v>
    <v>       0.37500000       0.22222222       0.00000000 </v>
    <v>      -0.37500000       0.22222222       0.00000000 </v>
    <v>       0.50000000       0.22222222       0.00000000 </v>
    <v>       0.00000000       0.33333333       0.00000000 </v>
    <v>       0.12500000       0.33333333       0.00000000 </v>
    <v>      -0.12500000       0.33333333       0.00000000 </v>
    <v>       0.25000000       0.33333333       0.00000000 </v>
    <v>      -0.25000000       0.33333333       0.00000000 </v>
    <v>       0.37500000       0.33333333       0.00000000 </v>
    <v>      -0.37500000       0.33333333       0.00000000 </v>
    <v>       0.50000000       0.33333333       0.00000000 </v>
    <v>       0.00000000       0.44444444       0.00000000 </v>
    <v>       0.12500000       0.44444444       0.00000000 </v>
    <v>      -0.12500000       0.44444444       0.00000000 </v>
    <v>       0.25000000       0.44444444       0.00000000 </v>
    <v>      -0.25000000       0.44444444       0.00000000 </v>
    <v>       0.37500000       0.44444444       0.00000000 </v>
    <v>      -0.37500000       0.44444444       0.00000000 </v>
    <v>       0.50000000       0.44444444       0.00000000 </v>
    <v>       0.00000000       0.00000000       0.33333333 </v>
    <v>       0.12500000       0.00000000       0.33333333 </v>
    <v>       0.25000000       0.00000000       0.33333333 </v>
    <v>       0.37500000       0.00000000       0.33333333 </v>
    <v>       0.50000000       0.00000000       0.33333333 </v>
    <v>       0.00000000       0.11111111       0.33333333 </v>
    <v>       0.12500000       0.11111111       0.33333333 </v>
    <v>      -0.12500000       0.11111111      -0.33333333 </v>
    <v>       0.25000000       0.11111111       0.33333333 </v>
    <v>      -0.25000000       0.11111111      -0.33333333 </v>
    <v>       0.37500000       0.11111111       0.33333333 </v>
    <v>      -0.37500000       0.11111111      -0.33333333 </v>
    <v>       0.50000000       0.11111111       0.33333333 </v>
    <v>       0.00000000       0.22222222       0.33333333 </v>
    <v>       0.12500000       0.22222222       0.33333333 </v>
    <v>      -0.12500000       0.22222222      -0.33333333 </v>
    <v>       0.25000000       0.22222222       0.33333333 </v>
    <v>      -0.25000000       0.22222222      -0.33333333 </v>
    <v>       0.37500000       0.22222222       0.33333333 </v>
    <v>      -0.37500000       0.22222222      -0.33333333 </v>
    <v>       0.50000000       0.22222222       0.33333333 </v>
    <v>       0.00000000       0.33333333       0.33333333 </v>
    <v>       0.12500000       0.33333333       0.33333333 </v>
    <v>      -0.12500000       0.33333333      -0.33333333 </v>
    <v>       0.25000000       0.33333333       0.33333333 </v>
    <v>      -0.25000000       0.33333333      -0.33333333 </v>
    <v>       0.37500000       0.33333333       0.33333333 </v>
    <v>      -0.37500000       0.33333333      -0.33333333 </v>
    <v>       0.50000000       0.33333333       0.33333333 </v>
    <v>       0.00000000       0.44444444       0.33333333 </v>
    <v>       0.12500000       0.44444444       0.33333333 </v>
    <v>      -0.12500000       0.44444444      -0.33333333 </v>
    <v>       0.25000000       0.44444444       0.33333333 </v>
    <v>      -0.25000000       0.44444444      -0.33333333 </v>
    <v>       0.37500000       0.44444444       0.33333333 </v>
    <v>      -0.37500000       0.44444444      -0.33333333 </v>
    <v>       0.50000000       0.44444444       0.33333333 </v>
   </varray>
   <varray name="weights" >
    <v>       0.00462963 </v>
    <v>       0.00925926 </v>
    <v>       0.00925926 </v>
    <v>       0.00925926 </v>
    <v>       0.00462963 </v>
    <v>       0.00925926 </v>
    <v>       0.00925926 </v>
    <v>       0.00925926 </v>
    <v>       0.00925926 </v>
    <v>       0.00925926 </v>
    <v>       0.00925926 </v>
    <v>       0.00925926 </v>
    <v>       0.00925926 </v>
    <v>       0.00925926 </v>
    <v>       0.00925926 </v>
    <v>       0.00925926 </v>
    <v>       0.00925926 </v>
    <v>       0.00925926 </v>
    <v>       0.00925926 </v>
    <v>       0.00925926 </v>
    <v>       0.00925926 </v>
    <v>       0.00925926 </v>
    <v>       0.00925926 </v>
    <v>       0.00925926 </v>
    <v>       0.00925926 </v>
    <v>       0.00925926 </v>
    <v>       0.00925926 </v>
    <v>       0.00925926 </v>
    <v>       0.00925926 </v>
    <v>       0.00925926 </v>
    <v>       0.00925926 </v>
    <v>       0.00925926 </v>
    <v>       0.00925926 </v>
    <v>       0.00925926 </v>
    <v>       0.00925926 </v>
    <v>       0.00925926 </v>
    <v>       0.00925926 </v>
    <v>       0.00925926 </v>
    <v>       0.01851852 </v>
    <v>       0.01851852 </v>
    <v>       0.01851852 </v>
    <v>       0.00925926 </v>
    <v>       0.01851852 </v>
    <v>       0.01851852 </v>
    <v>       0.01851852 </v>
    <v>       0.01851852 </v>
    <v>       0.01851852 </v>
    <v>       0.01851852 </v>
    <v>       0.01851852 </v>
    <v>       0.01851852 </v>
    <v>       0.01851852 </v>
    <v>       0.01851852 </v>
    <v>       0.01851852 </v>
    <v>       0.01851852 </v>
    <v>       0.01851852 </v>
    <v>       0.01851852 </v>
    <v>       0.01851852 </v>
    <v>       0.01851852 </v>
    <v>       0.01851852 </v>
    <v>       0.01851852 </v>
    <v>       0.01851852 </v>
    <v>       0.01851852 </v>
    <v>       0.01851852 </v>
    <v>       0.01851852 </v>
    <v>       0.01851852 </v>
    <v>       0.01851852 </v>
    <v>       0.01851852 </v>
    <v>       0.01851852 </v>
    <v>       0.01851852 </v>
    <v>       0.01851852 </v>
    <v>       0.01851852 </v>
    <v>       0.01851852 </v>
    <v>       0.01851852 </v>
    <v>       0.01851852 </v>
   </varray>
  </kpoints>
  <scstep>
   <time name="total">    2.00    1.29</time>
   <energy>
    <i name="e_fr_energy">     -3.84568253 </i>
    <i name="e_wo_entrp">     -3.84568253 </i>
    <i name="e_0_energy">     -3.84568253 </i>
   </energy>
  </scstep>
  <scstep>
   <time name="total">    2.82    1.71</time>
   <energy>
    <i name="e_fr_energy">    -16.77415197 </i>
    <i name="e_wo_entrp">    -16.77415197 </i>
    <i name="e_0_energy">    -16.77415197 </i>
   </energy>
  </scstep>
  <scstep>
   <time name="total">    2.67    1.68</time>
   <energy>
    <i name="e_fr_energy">    -16.49263027 </i>
    <i name="e_wo_entrp">    -16.49263027 </i>
    <i name="e_0_energy">    -16.49263027 </i>
   </energy>
  </scstep>
  <scstep>
   <time name="total">    2.67    1.68</time>
   <energy>
    <i name="e_fr_energy">    -16.92532478 </i>
    <i name="e_wo_entrp">    -16.92532478 </i>
    <i name="e_0_energy">    -16.92532478 </i>
   </energy>
  </scstep>
  <scstep>
   <time name="total">    2.72    1.72</time>
   <energy>
    <i name="e_fr_energy">    -17.04376817 </i>
    <i name="e_wo_entrp">    -17.04376817 </i>
    <i name="e_0_energy">    -17.04376817 </i>
   </energy>
  </scstep>
  <scstep>
   <time name="total">    2.88    1.73</time>
   <energy>
    <i name="e_fr_energy">    -17.06337893 </i>
    <i name="e_wo_entrp">    -17.06337893 </i>
    <i name="e_0_energy">    -17.06337893 </i>
   </energy>
  </scstep>
  <scstep>
   <time name="total">    2.85    1.72</time>
   <energy>
    <i name="e_fr_energy">    -17.06213188 </i>
    <i name="e_wo_entrp">    -17.06213188 </i>
    <i name="e_0_energy">    -17.06213188 </i>
   </energy>
  </scstep>
  <scstep>
   <time name="total">    2.96    1.78</time>
   <energy>
    <i name="e_fr_energy">    -17.06582837 </i>
    <i name="e_wo_entrp">    -17.06582837 </i>
    <i name="e_0_energy">    -17.06582837 </i>
   </energy>
  </scstep>
  <scstep>
   <time name="total">    2.97    1.78</time>
   <energy>
    <i name="e_fr_energy">    -17.06335468 </i>
    <i name="e_wo_entrp">    -17.06335468 </i>
    <i name="e_0_energy">    -17.06335468 </i>
   </energy>
  </scstep>
  <scstep>
   <time name="total">    2.99    1.79</time>
   <energy>
    <i name="e_fr_energy">    -17.06550213 </i>
    <i name="e_wo_entrp">    -17.06550213 </i>
    <i name="e_0_energy">    -17.06550213 </i>
   </energy>
  </scstep>
  <scstep>
   <time name="total">    2.98    1.79</time>
   <energy>
    <i name="e_fr_energy">    -17.06429911 </i>
    <i name="e_wo_entrp">    -17.06429911 </i>
    <i name="e_0_energy">    -17.06429911 </i>
   </energy>
  </scstep>
  <scstep>
   <time name="total">    3.05    1.82</time>
   <energy>
    <i name="e_fr_energy">    -17.06567154 </i>
    <i name="e_wo_entrp">    -17.06567154 </i>
    <i name="e_0_energy">    -17.06567154 </i>
   </energy>
  </scstep>
  <scstep>
   <time name="total">    2.95    1.78</time>
   <energy>
    <i name="e_fr_energy">    -17.06501926 </i>
    <i name="e_wo_entrp">    -17.06501926 </i>
    <i name="e_0_energy">    -17.06501926 </i>
   </energy>
  </scstep>
  <scstep>
   <time name="total">    2.90    1.76</time>
   <energy>
    <i name="e_fr_energy">    -17.06559013 </i>
    <i name="e_wo_entrp">    -17.06559013 </i>
    <i name="e_0_energy">    -17.06559013 </i>
   </energy>
  </scstep>
  <scstep>
   <time name="total">    2.86    1.73</time>
   <energy>
    <i name="e_fr_energy">    -17.06508700 </i>
    <i name="e_wo_entrp">    -17.06508700 </i>
    <i name="e_0_energy">    -17.06508700 </i>
   </energy>
  </scstep>
  <scstep>
   <time name="total">    2.86    1.74</time>
   <energy>
    <i name="e_fr_energy">    -17.06612403 </i>
    <i name="e_wo_entrp">    -17.06612403 </i>
    <i name="e_0_energy">    -17.06612403 </i>
   </energy>
  </scstep>
  <scstep>
   <time name="total">    2.88    1.75</time>
   <energy>
    <i name="e_fr_energy">    -17.06519463 </i>
    <i name="e_wo_entrp">    -17.06519463 </i>
    <i name="e_0_energy">    -17.06519463 </i>
   </energy>
  </scstep>
  <scstep>
   <time name="total">    2.85    1.72</time>
   <energy>
    <i name="e_fr_energy">    -17.06503783 </i>
    <i name="e_wo_entrp">    -17.06503783 </i>
    <i name="e_0_energy">    -17.06503783 </i>
   </energy>
  </scstep>
  <scstep>
   <time name="total">    2.86    1.73</time>
   <energy>
    <i name="e_fr_energy">    -17.06592967 </i>
    <i name="e_wo_entrp">    -17.06592967 </i>
    <i name="e_0_energy">    -17.06592967 </i>
   </energy>
  </scstep>
  <scstep>
   <time name="total">    2.88    1.74</time>
   <energy>
    <i name="e_fr_energy">    -17.06533697 </i>
    <i name="e_wo_entrp">    -17.06533697 </i>
    <i name="e_0_energy">    -17.06533697 </i>
   </energy>
  </scstep>
  <scstep>
   <time name="total">    2.89    1.74</time>
   <energy>
    <i name="e_fr_energy">    -17.06480383 </i>
    <i name="e_wo_entrp">    -17.06480383 </i>
    <i name="e_0_energy">    -17.06480383 </i>
   </energy>
  </scstep>
  <scstep>
   <time name="total">    2.87    1.73</time>
   <energy>
    <i name="e_fr_energy">    -17.06586693 </i>
    <i name="e_wo_entrp">    -17.06586693 </i>
    <i name="e_0_energy">    -17.06586693 </i>
   </energy>
  </scstep>
  <scstep>
   <time name="total">    2.87    1.74</time>
   <energy>
    <i name="e_fr_energy">    -17.06518176 </i>
    <i name="e_wo_entrp">    -17.06518176 </i>
    <i name="e_0_energy">    -17.06518176 </i>
   </energy>
  </scstep>
  <scstep>
   <time name="total">    2.84    1.72</time>
   <energy>
    <i name="e_fr_energy">    -17.06540758 </i>
    <i name="e_wo_entrp">    -17.06540758 </i>
    <i name="e_0_energy">    -17.06540758 </i>
   </energy>
  </scstep>
  <scstep>
   <time name="total">    2.87    1.74</time>
   <energy>
    <i name="e_fr_energy">    -17.06538330 </i>
    <i name="e_wo_entrp">    -17.06538330 </i>
    <i name="e_0_energy">    -17.06538330 </i>
   </energy>
  </scstep>
  <scstep>
   <time name="total">    2.85    1.72</time>
   <energy>
    <i name="e_fr_energy">    -17.06625979 </i>
    <i name="e_wo_entrp">    -17.06625979 </i>
    <i name="e_0_energy">    -17.06625979 </i>
   </energy>
  </scstep>
  <scstep>
   <time name="total">    2.84    1.71</time>
   <energy>
    <i name="e_fr_energy">    -17.06519914 </i>
    <i name="e_wo_entrp">    -17.06519914 </i>
    <i name="e_0_energy">    -17.06519914 </i>
   </energy>
  </scstep>
  <scstep>
   <time name="total">    2.86    1.73</time>
   <energy>
    <i name="e_fr_energy">    -17.06517790 </i>
    <i name="e_wo_entrp">    -17.06517790 </i>
    <i name="e_0_energy">    -17.06517790 </i>
   </energy>
  </scstep>
  <scstep>
   <time name="total">    2.82    1.71</time>
   <energy>
    <i name="e_fr_energy">    -17.06584893 </i>
    <i name="e_wo_entrp">    -17.06584893 </i>
    <i name="e_0_energy">    -17.06584893 </i>
   </energy>
  </scstep>
  <scstep>
   <time name="total">    2.82    1.71</time>
   <energy>
    <i name="e_fr_energy">    -17.06644264 </i>
    <i name="e_wo_entrp">    -17.06644264 </i>
    <i name="e_0_energy">    -17.06644264 </i>
   </energy>
  </scstep>
  <scstep>
   <time name="total">    2.82    1.71</time>
   <energy>
    <i name="e_fr_energy">    -17.06555303 </i>
    <i name="e_wo_entrp">    -17.06555303 </i>
    <i name="e_0_energy">    -17.06555303 </i>
   </energy>
  </scstep>
  <scstep>
   <time name="total">    2.87    1.73</time>
   <energy>
    <i name="e_fr_energy">    -17.06486057 </i>
    <i name="e_wo_entrp">    -17.06486057 </i>
    <i name="e_0_energy">    -17.06486057 </i>
   </energy>
  </scstep>
  <scstep>
   <time name="total">    2.85    1.72</time>
   <energy>
    <i name="e_fr_energy">    -17.06596768 </i>
    <i name="e_wo_entrp">    -17.06596768 </i>
    <i name="e_0_energy">    -17.06596768 </i>
   </energy>
  </scstep>
  <scstep>
   <time name="total">    2.86    1.72</time>
   <energy>
    <i name="e_fr_energy">    -17.06603572 </i>
    <i name="e_wo_entrp">    -17.06603572 </i>
    <i name="e_0_energy">    -17.06603572 </i>
   </energy>
  </scstep>
  <scstep>
   <time name="total">    2.87    1.73</time>
   <energy>
    <i name="e_fr_energy">    -17.06557765 </i>
    <i name="e_wo_entrp">    -17.06557765 </i>
    <i name="e_0_energy">    -17.06557765 </i>
   </energy>
  </scstep>
  <scstep>
   <time name="total">    2.84    1.72</time>
   <energy>
    <i name="e_fr_energy">    -17.06554189 </i>
    <i name="e_wo_entrp">    -17.06554189 </i>
    <i name="e_0_energy">    -17.06554189 </i>
   </energy>
  </scstep>
  <scstep>
   <time name="total">    2.90    1.75</time>
   <energy>
    <i name="e_fr_energy">    -17.06471585 </i>
    <i name="e_wo_entrp">    -17.06471585 </i>
    <i name="e_0_energy">    -17.06471585 </i>
   </energy>
  </scstep>
  <scstep>
   <time name="total">    2.84    1.72</time>
   <energy>
    <i name="e_fr_energy">    -17.06517670 </i>
    <i name="e_wo_entrp">    -17.06517670 </i>
    <i name="e_0_energy">    -17.06517670 </i>
   </energy>
  </scstep>
  <scstep>
   <time name="total">    2.88    1.74</time>
   <energy>
    <i name="e_fr_energy">    -17.06688377 </i>
    <i name="e_wo_entrp">    -17.06688377 </i>
    <i name="e_0_energy">    -17.06688377 </i>
   </energy>
  </scstep>
  <scstep>
   <time name="total">    2.89    1.74</time>
   <energy>
    <i name="e_fr_energy">    -17.06511884 </i>
    <i name="e_wo_entrp">    -17.06511884 </i>
    <i name="e_0_energy">    -17.06511884 </i>
   </energy>
  </scstep>
  <scstep>
   <time name="total">    2.89    1.74</time>
   <energy>
    <i name="e_fr_energy">    -17.06474311 </i>
    <i name="e_wo_entrp">    -17.06474311 </i>
    <i name="e_0_energy">    -17.06474311 </i>
   </energy>
  </scstep>
  <scstep>
   <time name="total">    2.87    1.73</time>
   <energy>
    <i name="e_fr_energy">    -17.06627122 </i>
    <i name="e_wo_entrp">    -17.06627122 </i>
    <i name="e_0_energy">    -17.06627122 </i>
   </energy>
  </scstep>
  <scstep>
   <time name="total">    2.87    1.73</time>
   <energy>
    <i name="e_fr_energy">    -17.06563399 </i>
    <i name="e_wo_entrp">    -17.06563399 </i>
    <i name="e_0_energy">    -17.06563399 </i>
   </energy>
  </scstep>
  <scstep>
   <time name="total">    2.87    1.73</time>
   <energy>
    <i name="e_fr_energy">    -17.06491548 </i>
    <i name="e_wo_entrp">    -17.06491548 </i>
    <i name="e_0_energy">    -17.06491548 </i>
   </energy>
  </scstep>
  <scstep>
   <time name="total">    2.86    1.73</time>
   <energy>
    <i name="e_fr_energy">    -17.06524762 </i>
    <i name="e_wo_entrp">    -17.06524762 </i>
    <i name="e_0_energy">    -17.06524762 </i>
   </energy>
  </scstep>
  <scstep>
   <time name="total">    2.89    1.74</time>
   <energy>
    <i name="e_fr_energy">    -17.06637999 </i>
    <i name="e_wo_entrp">    -17.06637999 </i>
    <i name="e_0_energy">    -17.06637999 </i>
   </energy>
  </scstep>
  <scstep>
   <time name="total">    2.87    1.74</time>
   <energy>
    <i name="e_fr_energy">    -17.06546111 </i>
    <i name="e_wo_entrp">    -17.06546111 </i>
    <i name="e_0_energy">    -17.06546111 </i>
   </energy>
  </scstep>
  <scstep>
   <time name="total">    2.90    1.75</time>
   <energy>
    <i name="e_fr_energy">    -17.06543772 </i>
    <i name="e_wo_entrp">    -17.06543772 </i>
    <i name="e_0_energy">    -17.06543772 </i>
   </energy>
  </scstep>
  <scstep>
   <time name="total">    2.88    1.74</time>
   <energy>
    <i name="e_fr_energy">    -17.06575048 </i>
    <i name="e_wo_entrp">    -17.06575048 </i>
    <i name="e_0_energy">    -17.06575048 </i>
   </energy>
  </scstep>
  <scstep>
   <time name="total">    2.88    1.74</time>
   <energy>
    <i name="e_fr_energy">    -17.06513456 </i>
    <i name="e_wo_entrp">    -17.06513456 </i>
    <i name="e_0_energy">    -17.06513456 </i>
   </energy>
  </scstep>
  <scstep>
   <time name="total">    2.88    1.74</time>
   <energy>
    <i name="e_fr_energy">    -17.06576584 </i>
    <i name="e_wo_entrp">    -17.06576584 </i>
    <i name="e_0_energy">    -17.06576584 </i>
   </energy>
  </scstep>
  <scstep>
   <time name="total">    2.87    1.73</time>
   <energy>
    <i name="e_fr_energy">    -17.06623293 </i>
    <i name="e_wo_entrp">    -17.06623293 </i>
    <i name="e_0_energy">    -17.06623293 </i>
   </energy>
  </scstep>
  <scstep>
   <time name="total">    2.88    1.74</time>
   <energy>
    <i name="e_fr_energy">    -17.06545058 </i>
    <i name="e_wo_entrp">    -17.06545058 </i>
    <i name="e_0_energy">    -17.06545058 </i>
   </energy>
  </scstep>
  <scstep>
   <time name="total">    2.90    1.75</time>
   <energy>
    <i name="e_fr_energy">    -17.06575876 </i>
    <i name="e_wo_entrp">    -17.06575876 </i>
    <i name="e_0_energy">    -17.06575876 </i>
   </energy>
  </scstep>
  <scstep>
   <time name="total">    2.89    1.75</time>
   <energy>
    <i name="e_fr_energy">    -17.06597321 </i>
    <i name="e_wo_entrp">    -17.06597321 </i>
    <i name="e_0_energy">    -17.06597321 </i>
   </energy>
  </scstep>
  <scstep>
   <time name="total">    2.89    1.74</time>
   <energy>
    <i name="e_fr_energy">    -17.06546904 </i>
    <i name="e_wo_entrp">    -17.06546904 </i>
    <i name="e_0_energy">    -17.06546904 </i>
   </energy>
  </scstep>
  <scstep>
   <time name="total">    2.88    1.74</time>
   <energy>
    <i name="e_fr_energy">    -17.06549686 </i>
    <i name="e_wo_entrp">    -17.06549686 </i>
    <i name="e_0_energy">    -17.06549686 </i>
   </energy>
  </scstep>
  <scstep>
   <time name="total">    2.91    1.77</time>
   <energy>
    <i name="e_fr_energy">    -17.06621663 </i>
    <i name="e_wo_entrp">    -17.06621663 </i>
    <i name="e_0_energy">    -17.06621663 </i>
   </energy>
  </scstep>
  <scstep>
   <time name="total">    2.88    1.74</time>
   <energy>
    <i name="e_fr_energy">    -17.06501830 </i>
    <i name="e_wo_entrp">    -17.06501830 </i>
    <i name="e_0_energy">    -17.06501830 </i>
   </energy>
  </scstep>
  <scstep>
   <time name="total">    2.90    1.75</time>
   <energy>
    <i name="e_fr_energy">    -17.06478405 </i>
    <i name="e_wo_entrp">    -17.06478405 </i>
    <i name="e_0_energy">    -17.06478405 </i>
   </energy>
  </scstep>
  <scstep>
   <time name="total">    2.86    1.73</time>
   <energy>
    <i name="e_fr_energy">    -17.06491721 </i>
    <i name="e_wo_entrp">    -17.06491721 </i>
    <i name="e_0_energy">    -17.06491721 </i>
   </energy>
  </scstep>
  <scstep>
   <time name="total">    2.91    1.75</time>
   <energy>
    <i name="e_fr_energy">    -17.06572781 </i>
    <i name="e_wo_entrp">    -17.06572781 </i>
    <i name="e_0_energy">    -17.06572781 </i>
   </energy>
  </scstep>
  <scstep>
   <time name="total">    2.88    1.74</time>
   <energy>
    <i name="e_fr_energy">    -17.06533605 </i>
    <i name="e_wo_entrp">    -17.06533605 </i>
    <i name="e_0_energy">    -17.06533605 </i>
   </energy>
  </scstep>
  <scstep>
   <time name="total">    2.90    1.75</time>
   <energy>
    <i name="e_fr_energy">    -17.06525186 </i>
    <i name="e_wo_entrp">    -17.06525186 </i>
    <i name="e_0_energy">    -17.06525186 </i>
   </energy>
  </scstep>
  <scstep>
   <time name="total">    2.90    1.75</time>
   <energy>
    <i name="e_fr_energy">    -17.06584721 </i>
    <i name="e_wo_entrp">    -17.06584721 </i>
    <i name="e_0_energy">    -17.06584721 </i>
   </energy>
  </scstep>
  <scstep>
   <time name="total">    2.89    1.74</time>
   <energy>
    <i name="e_fr_energy">    -17.06591703 </i>
    <i name="e_wo_entrp">    -17.06591703 </i>
    <i name="e_0_energy">    -17.06591703 </i>
   </energy>
  </scstep>
  <scstep>
   <time name="total">    2.92    1.76</time>
   <energy>
    <i name="e_fr_energy">    -17.06495171 </i>
    <i name="e_wo_entrp">    -17.06495171 </i>
    <i name="e_0_energy">    -17.06495171 </i>
   </energy>
  </scstep>
  <scstep>
   <time name="total">    2.90    1.76</time>
   <energy>
    <i name="e_fr_energy">    -17.06570131 </i>
    <i name="e_wo_entrp">    -17.06570131 </i>
    <i name="e_0_energy">    -17.06570131 </i>
   </energy>
  </scstep>
  <scstep>
   <time name="total">    2.88    1.74</time>
   <energy>
    <i name="e_fr_energy">    -17.06625732 </i>
    <i name="e_wo_entrp">    -17.06625732 </i>
    <i name="e_0_energy">    -17.06625732 </i>
   </energy>
  </scstep>
  <scstep>
   <time name="total">    2.89    1.74</time>
   <energy>
    <i name="e_fr_energy">    -17.06565962 </i>
    <i name="e_wo_entrp">    -17.06565962 </i>
    <i name="e_0_energy">    -17.06565962 </i>
   </energy>
  </scstep>
  <scstep>
   <time name="total">    2.91    1.75</time>
   <energy>
    <i name="e_fr_energy">    -17.06544230 </i>
    <i name="e_wo_entrp">    -17.06544230 </i>
    <i name="e_0_energy">    -17.06544230 </i>
   </energy>
  </scstep>
  <scstep>
   <time name="total">    2.89    1.74</time>
   <energy>
    <i name="e_fr_energy">    -17.06515122 </i>
    <i name="e_wo_entrp">    -17.06515122 </i>
    <i name="e_0_energy">    -17.06515122 </i>
   </energy>
  </scstep>
  <scstep>
   <time name="total">    2.90    1.75</time>
   <energy>
    <i name="e_fr_energy">    -17.06530390 </i>
    <i name="e_wo_entrp">    -17.06530390 </i>
    <i name="e_0_energy">    -17.06530390 </i>
   </energy>
  </scstep>
  <scstep>
   <time name="total">    2.91    1.75</time>
   <energy>
    <i name="e_fr_energy">    -17.06593515 </i>
    <i name="e_wo_entrp">    -17.06593515 </i>
    <i name="e_0_energy">    -17.06593515 </i>
   </energy>
  </scstep>
  <scstep>
   <time name="total">    2.90    1.75</time>
   <energy>
    <i name="e_fr_energy">    -17.06551993 </i>
    <i name="e_wo_entrp">    -17.06551993 </i>
    <i name="e_0_energy">    -17.06551993 </i>
   </energy>
  </scstep>
  <scstep>
   <time name="total">    2.89    1.74</time>
   <energy>
    <i name="e_fr_energy">    -17.06548709 </i>
    <i name="e_wo_entrp">    -17.06548709 </i>
    <i name="e_0_energy">    -17.06548709 </i>
   </energy>
  </scstep>
  <scstep>
   <time name="total">    2.92    1.76</time>
   <energy>
    <i name="e_fr_energy">    -17.06499188 </i>
    <i name="e_wo_entrp">    -17.06499188 </i>
    <i name="e_0_energy">    -17.06499188 </i>
   </energy>
  </scstep>
  <scstep>
   <time name="total">    2.91    1.75</time>
   <energy>
    <i name="e_fr_energy">    -17.06528367 </i>
    <i name="e_wo_entrp">    -17.06528367 </i>
    <i name="e_0_energy">    -17.06528367 </i>
   </energy>
  </scstep>
  <scstep>
   <time name="total">    2.89    1.74</time>
   <energy>
    <i name="e_fr_energy">    -17.06550943 </i>
    <i name="e_wo_entrp">    -17.06550943 </i>
    <i name="e_0_energy">    -17.06550943 </i>
   </energy>
  </scstep>
  <scstep>
   <time name="total">    2.91    1.75</time>
   <energy>
    <i name="e_fr_energy">    -17.06604472 </i>
    <i name="e_wo_entrp">    -17.06604472 </i>
    <i name="e_0_energy">    -17.06604472 </i>
   </energy>
  </scstep>
  <scstep>
   <time name="total">    2.92    1.77</time>
   <energy>
    <i name="e_fr_energy">    -17.06531363 </i>
    <i name="e_wo_entrp">    -17.06531363 </i>
    <i name="e_0_energy">    -17.06531363 </i>
   </energy>
  </scstep>
  <scstep>
   <time name="total">    2.93    1.76</time>
   <energy>
    <i name="e_fr_energy">    -17.06555616 </i>
    <i name="e_wo_entrp">    -17.06555616 </i>
    <i name="e_0_energy">    -17.06555616 </i>
   </energy>
  </scstep>
  <scstep>
   <time name="total">    2.93    1.76</time>
   <energy>
    <i name="e_fr_energy">    -17.06621712 </i>
    <i name="e_wo_entrp">    -17.06621712 </i>
    <i name="e_0_energy">    -17.06621712 </i>
   </energy>
  </scstep>
  <scstep>
   <time name="total">    2.91    1.75</time>
   <energy>
    <i name="e_fr_energy">    -17.06554860 </i>
    <i name="e_wo_entrp">    -17.06554860 </i>
    <i name="e_0_energy">    -17.06554860 </i>
   </energy>
  </scstep>
  <scstep>
   <time name="total">    2.93    1.78</time>
   <energy>
    <i name="e_fr_energy">    -17.06584094 </i>
    <i name="e_wo_entrp">    -17.06584094 </i>
    <i name="e_0_energy">    -17.06584094 </i>
   </energy>
  </scstep>
  <scstep>
   <time name="total">    2.88    1.74</time>
   <energy>
    <i name="e_fr_energy">    -17.06561298 </i>
    <i name="e_wo_entrp">    -17.06561298 </i>
    <i name="e_0_energy">    -17.06561298 </i>
   </energy>
  </scstep>
  <scstep>
   <time name="total">    2.90    1.75</time>
   <energy>
    <i name="e_fr_energy">    -17.06588822 </i>
    <i name="e_wo_entrp">    -17.06588822 </i>
    <i name="e_0_energy">    -17.06588822 </i>
   </energy>
  </scstep>
  <scstep>
   <time name="total">    2.93    1.76</time>
   <energy>
    <i name="e_fr_energy">    -17.06547242 </i>
    <i name="e_wo_entrp">    -17.06547242 </i>
    <i name="e_0_energy">    -17.06547242 </i>
   </energy>
  </scstep>
  <scstep>
   <time name="total">    2.93    1.76</time>
   <energy>
    <i name="e_fr_energy">    -17.06547891 </i>
    <i name="e_wo_entrp">    -17.06547891 </i>
    <i name="e_0_energy">    -17.06547891 </i>
   </energy>
  </scstep>
  <scstep>
   <time name="total">    2.92    1.76</time>
   <energy>
    <i name="e_fr_energy">    -17.06596964 </i>
    <i name="e_wo_entrp">    -17.06596964 </i>
    <i name="e_0_energy">    -17.06596964 </i>
   </energy>
  </scstep>
  <scstep>
   <time name="total">    2.93    1.76</time>
   <energy>
    <i name="e_fr_energy">    -17.06671998 </i>
    <i name="e_wo_entrp">    -17.06671998 </i>
    <i name="e_0_energy">    -17.06671998 </i>
   </energy>
  </scstep>
  <scstep>
   <time name="total">    2.89    1.74</time>
   <energy>
    <i name="e_fr_energy">    -17.06523092 </i>
    <i name="e_wo_entrp">    -17.06523092 </i>
    <i name="e_0_energy">    -17.06523092 </i>
   </energy>
  </scstep>
  <scstep>
   <time name="total">    2.92    1.76</time>
   <energy>
    <i name="e_fr_energy">    -17.06472135 </i>
    <i name="e_wo_entrp">    -17.06472135 </i>
    <i name="e_0_energy">    -17.06472135 </i>
   </energy>
  </scstep>
  <scstep>
   <time name="total">    2.91    1.75</time>
   <energy>
    <i name="e_fr_energy">    -17.06558740 </i>
    <i name="e_wo_entrp">    -17.06558740 </i>
    <i name="e_0_energy">    -17.06558740 </i>
   </energy>
  </scstep>
  <scstep>
   <time name="total">    2.93    1.76</time>
   <energy>
    <i name="e_fr_energy">    -17.06637767 </i>
    <i name="e_wo_entrp">    -17.06637767 </i>
    <i name="e_0_energy">    -17.06637767 </i>
   </energy>
  </scstep>
  <scstep>
   <time name="total">    2.91    1.75</time>
   <energy>
    <i name="e_fr_energy">    -17.06561083 </i>
    <i name="e_wo_entrp">    -17.06561083 </i>
    <i name="e_0_energy">    -17.06561083 </i>
   </energy>
  </scstep>
  <scstep>
   <time name="total">    2.91    1.75</time>
   <energy>
    <i name="e_fr_energy">    -17.06543130 </i>
    <i name="e_wo_entrp">    -17.06543130 </i>
    <i name="e_0_energy">    -17.06543130 </i>
   </energy>
  </scstep>
  <scstep>
   <time name="total">    2.89    1.75</time>
   <energy>
    <i name="e_fr_energy">    -17.06548718 </i>
    <i name="e_wo_entrp">    -17.06548718 </i>
    <i name="e_0_energy">    -17.06548718 </i>
   </energy>
  </scstep>
  <scstep>
   <time name="total">    2.94    1.77</time>
   <energy>
    <i name="e_fr_energy">    -17.06635293 </i>
    <i name="e_wo_entrp">    -17.06635293 </i>
    <i name="e_0_energy">    -17.06635293 </i>
   </energy>
  </scstep>
  <scstep>
   <time name="total">    2.91    1.75</time>
   <energy>
    <i name="e_fr_energy">    -17.06599475 </i>
    <i name="e_wo_entrp">    -17.06599475 </i>
    <i name="e_0_energy">    -17.06599475 </i>
   </energy>
  </scstep>
  <scstep>
   <time name="total">    2.93    1.76</time>
   <energy>
    <i name="e_fr_energy">    -17.06529926 </i>
    <i name="e_wo_entrp">    -17.06529926 </i>
    <i name="e_0_energy">    -17.06529926 </i>
   </energy>
  </scstep>
  <scstep>
   <time name="total">    2.91    1.75</time>
   <energy>
    <i name="e_fr_energy">    -17.06574731 </i>
    <i name="e_wo_entrp">    -17.06574731 </i>
    <i name="e_0_energy">    -17.06574731 </i>
   </energy>
  </scstep>
  <scstep>
   <time name="total">    2.94    1.77</time>
   <energy>
    <i name="e_fr_energy">    -17.06639947 </i>
    <i name="e_wo_entrp">    -17.06639947 </i>
    <i name="e_0_energy">    -17.06639947 </i>
   </energy>
  </scstep>
  <scstep>
   <time name="total">    2.90    1.75</time>
   <energy>
    <i name="e_fr_energy">    -17.06495553 </i>
    <i name="e_wo_entrp">    -17.06495553 </i>
    <i name="e_0_energy">    -17.06495553 </i>
   </energy>
  </scstep>
  <scstep>
   <time name="total">    2.93    1.76</time>
   <energy>
    <i name="e_fr_energy">    -17.06582754 </i>
    <i name="e_wo_entrp">    -17.06582754 </i>
    <i name="e_0_energy">    -17.06582754 </i>
   </energy>
  </scstep>
  <scstep>
   <time name="total">    2.92    1.76</time>
   <energy>
    <i name="e_fr_energy">    -17.06612911 </i>
    <i name="e_wo_entrp">    -17.06612911 </i>
    <i name="e_0_energy">    -17.06612911 </i>
   </energy>
  </scstep>
  <scstep>
   <time name="total">    2.92    1.76</time>
   <energy>
    <i name="e_fr_energy">    -17.06568576 </i>
    <i name="e_wo_entrp">    -17.06568576 </i>
    <i name="e_0_energy">    -17.06568576 </i>
   </energy>
  </scstep>
  <scstep>
   <time name="total">    2.94    1.77</time>
   <energy>
    <i name="e_fr_energy">    -17.06566564 </i>
    <i name="e_wo_entrp">    -17.06566564 </i>
    <i name="e_0_energy">    -17.06566564 </i>
   </energy>
  </scstep>
  <scstep>
   <time name="total">    2.92    1.76</time>
   <energy>
    <i name="e_fr_energy">    -17.06586070 </i>
    <i name="e_wo_entrp">    -17.06586070 </i>
    <i name="e_0_energy">    -17.06586070 </i>
   </energy>
  </scstep>
  <scstep>
   <time name="total">    2.89    1.75</time>
   <energy>
    <i name="e_fr_energy">    -17.06549266 </i>
    <i name="e_wo_entrp">    -17.06549266 </i>
    <i name="e_0_energy">    -17.06549266 </i>
   </energy>
  </scstep>
  <scstep>
   <time name="total">    2.93    1.76</time>
   <energy>
    <i name="e_fr_energy">    -17.06648026 </i>
    <i name="e_wo_entrp">    -17.06648026 </i>
    <i name="e_0_energy">    -17.06648026 </i>
   </energy>
  </scstep>
  <scstep>
   <time name="total">    2.92    1.76</time>
   <energy>
    <i name="e_fr_energy">    -17.06504180 </i>
    <i name="e_wo_entrp">    -17.06504180 </i>
    <i name="e_0_energy">    -17.06504180 </i>
   </energy>
  </scstep>
  <scstep>
   <time name="total">    2.94    1.77</time>
   <energy>
    <i name="e_fr_energy">    -17.06579288 </i>
    <i name="e_wo_entrp">    -17.06579288 </i>
    <i name="e_0_energy">    -17.06579288 </i>
   </energy>
  </scstep>
  <scstep>
   <time name="total">    2.93    1.77</time>
   <energy>
    <i name="e_fr_energy">    -17.06662800 </i>
    <i name="e_wo_entrp">    -17.06662800 </i>
    <i name="e_0_energy">    -17.06662800 </i>
   </energy>
  </scstep>
  <scstep>
   <time name="total">    2.93    1.77</time>
   <energy>
    <i name="e_fr_energy">    -17.06609260 </i>
    <i name="e_wo_entrp">    -17.06609260 </i>
    <i name="e_0_energy">    -17.06609260 </i>
   </energy>
  </scstep>
  <scstep>
   <time name="total">    2.91    1.75</time>
   <energy>
    <i name="e_fr_energy">    -17.06548702 </i>
    <i name="e_wo_entrp">    -17.06548702 </i>
    <i name="e_0_energy">    -17.06548702 </i>
   </energy>
  </scstep>
  <scstep>
   <time name="total">    2.93    1.76</time>
   <energy>
    <i name="e_fr_energy">    -17.06646858 </i>
    <i name="e_wo_entrp">    -17.06646858 </i>
    <i name="e_0_energy">    -17.06646858 </i>
   </energy>
  </scstep>
  <scstep>
   <time name="total">    2.91    1.75</time>
   <energy>
    <i name="e_fr_energy">    -17.06635838 </i>
    <i name="e_wo_entrp">    -17.06635838 </i>
    <i name="e_0_energy">    -17.06635838 </i>
   </energy>
  </scstep>
  <scstep>
   <time name="total">    2.95    1.77</time>
   <energy>
    <i name="e_fr_energy">    -17.06537560 </i>
    <i name="e_wo_entrp">    -17.06537560 </i>
    <i name="e_0_energy">    -17.06537560 </i>
   </energy>
  </scstep>
  <scstep>
   <time name="total">    2.89    1.74</time>
   <energy>
    <i name="e_fr_energy">    -17.06564439 </i>
    <i name="e_wo_entrp">    -17.06564439 </i>
    <i name="e_0_energy">    -17.06564439 </i>
   </energy>
  </scstep>
  <scstep>
   <time name="total">    2.93    1.76</time>
   <energy>
    <i name="e_fr_energy">    -17.06648364 </i>
    <i name="e_wo_entrp">    -17.06648364 </i>
    <i name="e_0_energy">    -17.06648364 </i>
   </energy>
  </scstep>
  <scstep>
   <time name="total">    2.90    1.75</time>
   <energy>
    <i name="e_fr_energy">    -17.06581979 </i>
    <i name="e_wo_entrp">    -17.06581979 </i>
    <i name="e_0_energy">    -17.06581979 </i>
   </energy>
  </scstep>
  <scstep>
   <time name="total">    2.93    1.76</time>
   <energy>
    <i name="e_fr_energy">    -17.06631356 </i>
    <i name="e_wo_entrp">    -17.06631356 </i>
    <i name="e_0_energy">    -17.06631356 </i>
   </energy>
  </scstep>
  <scstep>
   <time name="total">    2.93    1.77</time>
   <energy>
    <i name="e_fr_energy">    -17.06621212 </i>
    <i name="e_wo_entrp">    -17.06621212 </i>
    <i name="e_0_energy">    -17.06621212 </i>
   </energy>
  </scstep>
  <scstep>
   <time name="total">    2.93    1.76</time>
   <energy>
    <i name="e_fr_energy">    -17.06568305 </i>
    <i name="e_wo_entrp">    -17.06568305 </i>
    <i name="e_0_energy">    -17.06568305 </i>
   </energy>
  </scstep>
  <scstep>
   <time name="total">    2.91    1.75</time>
   <energy>
    <i name="e_fr_energy">    -17.06556770 </i>
    <i name="e_wo_entrp">    -17.06556770 </i>
    <i name="e_0_energy">    -17.06556770 </i>
   </energy>
  </scstep>
  <scstep>
   <time name="total">    2.92    1.76</time>
   <energy>
    <i name="e_fr_energy">    -17.06641783 </i>
    <i name="e_wo_entrp">    -17.06641783 </i>
    <i name="e_0_energy">    -17.06641783 </i>
   </energy>
  </scstep>
  <scstep>
   <time name="total">    2.90    1.75</time>
   <energy>
    <i name="e_fr_energy">    -17.06583575 </i>
    <i name="e_wo_entrp">    -17.06583575 </i>
    <i name="e_0_energy">    -17.06583575 </i>
   </energy>
  </scstep>
  <scstep>
   <time name="total">    2.91    1.75</time>
   <energy>
    <i name="e_fr_energy">    -17.06583115 </i>
    <i name="e_wo_entrp">    -17.06583115 </i>
    <i name="e_0_energy">    -17.06583115 </i>
   </energy>
  </scstep>
  <scstep>
   <time name="total">    2.91    1.76</time>
   <energy>
    <i name="e_fr_energy">    -17.06560457 </i>
    <i name="e_wo_entrp">    -17.06560457 </i>
    <i name="e_0_energy">    -17.06560457 </i>
   </energy>
  </scstep>
  <kpoints>
   <generation param="Gamma">
    <v type="int" name="divisions">       8        9        3 </v>
    <v name="usershift">      0.00000000       0.00000000       0.00000000 </v>
    <v name="genvec1">      0.12500000       0.00000000       0.00000000 </v>
    <v name="genvec2">      0.00000000       0.11111111       0.00000000 </v>
    <v name="genvec3">      0.00000000       0.00000000       0.33333333 </v>
    <v name="shift">      0.00000000       0.00000000       0.00000000 </v>
   </generation>
   <varray name="kpointlist" >
    <v>       0.00000000       0.00000000       0.00000000 </v>
    <v>       0.12500000       0.00000000       0.00000000 </v>
    <v>       0.25000000       0.00000000       0.00000000 </v>
    <v>       0.37500000       0.00000000       0.00000000 </v>
    <v>       0.50000000       0.00000000       0.00000000 </v>
    <v>       0.00000000       0.11111111       0.00000000 </v>
    <v>       0.12500000       0.11111111       0.00000000 </v>
    <v>      -0.12500000       0.11111111       0.00000000 </v>
    <v>       0.25000000       0.11111111       0.00000000 </v>
    <v>      -0.25000000       0.11111111       0.00000000 </v>
    <v>       0.37500000       0.11111111       0.00000000 </v>
    <v>      -0.37500000       0.11111111       0.00000000 </v>
    <v>       0.50000000       0.11111111       0.00000000 </v>
    <v>       0.00000000       0.22222222       0.00000000 </v>
    <v>       0.12500000       0.22222222       0.00000000 </v>
    <v>      -0.12500000       0.22222222       0.00000000 </v>
    <v>       0.25000000       0.22222222       0.00000000 </v>
    <v>      -0.25000000       0.22222222       0.00000000 </v>
    <v>       0.37500000       0.22222222       0.00000000 </v>
    <v>      -0.37500000       0.22222222       0.00000000 </v>
    <v>       0.50000000       0.22222222       0.00000000 </v>
    <v>       0.00000000       0.33333333       0.00000000 </v>
    <v>       0.12500000       0.33333333       0.00000000 </v>
    <v>      -0.12500000       0.33333333       0.00000000 </v>
    <v>       0.25000000       0.33333333       0.00000000 </v>
    <v>      -0.25000000       0.33333333       0.00000000 </v>
    <v>       0.37500000       0.33333333       0.00000000 </v>
    <v>      -0.37500000       0.33333333       0.00000000 </v>
    <v>       0.50000000       0.33333333       0.00000000 </v>
    <v>       0.00000000       0.44444444       0.00000000 </v>
    <v>       0.12500000       0.44444444       0.00000000 </v>
    <v>      -0.12500000       0.44444444       0.00000000 </v>
    <v>       0.25000000       0.44444444       0.00000000 </v>
    <v>      -0.25000000       0.44444444       0.00000000 </v>
    <v>       0.37500000       0.44444444       0.00000000 </v>
    <v>      -0.37500000       0.44444444       0.00000000 </v>
    <v>       0.50000000       0.44444444       0.00000000 </v>
    <v>       0.00000000       0.00000000       0.33333333 </v>
    <v>       0.12500000       0.00000000       0.33333333 </v>
    <v>       0.25000000       0.00000000       0.33333333 </v>
    <v>       0.37500000       0.00000000       0.33333333 </v>
    <v>       0.50000000       0.00000000       0.33333333 </v>
    <v>       0.00000000       0.11111111       0.33333333 </v>
    <v>       0.12500000       0.11111111       0.33333333 </v>
    <v>      -0.12500000       0.11111111      -0.33333333 </v>
    <v>       0.25000000       0.11111111       0.33333333 </v>
    <v>      -0.25000000       0.11111111      -0.33333333 </v>
    <v>       0.37500000       0.11111111       0.33333333 </v>
    <v>      -0.37500000       0.11111111      -0.33333333 </v>
    <v>       0.50000000       0.11111111       0.33333333 </v>
    <v>       0.00000000       0.22222222       0.33333333 </v>
    <v>       0.12500000       0.22222222       0.33333333 </v>
    <v>      -0.12500000       0.22222222      -0.33333333 </v>
    <v>       0.25000000       0.22222222       0.33333333 </v>
    <v>      -0.25000000       0.22222222      -0.33333333 </v>
    <v>       0.37500000       0.22222222       0.33333333 </v>
    <v>      -0.37500000       0.22222222      -0.33333333 </v>
    <v>       0.50000000       0.22222222       0.33333333 </v>
    <v>       0.00000000       0.33333333       0.33333333 </v>
    <v>       0.12500000       0.33333333       0.33333333 </v>
    <v>      -0.12500000       0.33333333      -0.33333333 </v>
    <v>       0.25000000       0.33333333       0.33333333 </v>
    <v>      -0.25000000       0.33333333      -0.33333333 </v>
    <v>       0.37500000       0.33333333       0.33333333 </v>
    <v>      -0.37500000       0.33333333      -0.33333333 </v>
    <v>       0.50000000       0.33333333       0.33333333 </v>
    <v>       0.00000000       0.44444444       0.33333333 </v>
    <v>       0.12500000       0.44444444       0.33333333 </v>
    <v>      -0.12500000       0.44444444      -0.33333333 </v>
    <v>       0.25000000       0.44444444       0.33333333 </v>
    <v>      -0.25000000       0.44444444      -0.33333333 </v>
    <v>       0.37500000       0.44444444       0.33333333 </v>
    <v>      -0.37500000       0.44444444      -0.33333333 </v>
    <v>       0.50000000       0.44444444       0.33333333 </v>
   </varray>
   <varray name="weights" >
    <v>       0.00462963 </v>
    <v>       0.00925926 </v>
    <v>       0.00925926 </v>
    <v>       0.00925926 </v>
    <v>       0.00462963 </v>
    <v>       0.00925926 </v>
    <v>       0.00925926 </v>
    <v>       0.00925926 </v>
    <v>       0.00925926 </v>
    <v>       0.00925926 </v>
    <v>       0.00925926 </v>
    <v>       0.00925926 </v>
    <v>       0.00925926 </v>
    <v>       0.00925926 </v>
    <v>       0.00925926 </v>
    <v>       0.00925926 </v>
    <v>       0.00925926 </v>
    <v>       0.00925926 </v>
    <v>       0.00925926 </v>
    <v>       0.00925926 </v>
    <v>       0.00925926 </v>
    <v>       0.00925926 </v>
    <v>       0.00925926 </v>
    <v>       0.00925926 </v>
    <v>       0.00925926 </v>
    <v>       0.00925926 </v>
    <v>       0.00925926 </v>
    <v>       0.00925926 </v>
    <v>       0.00925926 </v>
    <v>       0.00925926 </v>
    <v>       0.00925926 </v>
    <v>       0.00925926 </v>
    <v>       0.00925926 </v>
    <v>       0.00925926 </v>
    <v>       0.00925926 </v>
    <v>       0.00925926 </v>
    <v>       0.00925926 </v>
    <v>       0.00925926 </v>
    <v>       0.01851852 </v>
    <v>       0.01851852 </v>
    <v>       0.01851852 </v>
    <v>       0.00925926 </v>
    <v>       0.01851852 </v>
    <v>       0.01851852 </v>
    <v>       0.01851852 </v>
    <v>       0.01851852 </v>
    <v>       0.01851852 </v>
    <v>       0.01851852 </v>
    <v>       0.01851852 </v>
    <v>       0.01851852 </v>
    <v>       0.01851852 </v>
    <v>       0.01851852 </v>
    <v>       0.01851852 </v>
    <v>       0.01851852 </v>
    <v>       0.01851852 </v>
    <v>       0.01851852 </v>
    <v>       0.01851852 </v>
    <v>       0.01851852 </v>
    <v>       0.01851852 </v>
    <v>       0.01851852 </v>
    <v>       0.01851852 </v>
    <v>       0.01851852 </v>
    <v>       0.01851852 </v>
    <v>       0.01851852 </v>
    <v>       0.01851852 </v>
    <v>       0.01851852 </v>
    <v>       0.01851852 </v>
    <v>       0.01851852 </v>
    <v>       0.01851852 </v>
    <v>       0.01851852 </v>
    <v>       0.01851852 </v>
    <v>       0.01851852 </v>
    <v>       0.01851852 </v>
    <v>       0.01851852 </v>
   </varray>
  </kpoints>
  <scstep>
   <time name="total">    2.01    1.29</time>
   <energy>
    <i name="e_fr_energy">     -4.14674012 </i>
    <i name="e_wo_entrp">     -4.14674012 </i>
    <i name="e_0_energy">     -4.14674012 </i>
   </energy>
  </scstep>
  <scstep>
   <time name="total">    2.80    1.71</time>
   <energy>
    <i name="e_fr_energy">    -15.58058826 </i>
    <i name="e_wo_entrp">    -15.58058826 </i>
    <i name="e_0_energy">    -15.58058826 </i>
   </energy>
  </scstep>
  <scstep>
   <time name="total">    2.73    1.73</time>
   <energy>
    <i name="e_fr_energy">    -15.20598709 </i>
    <i name="e_wo_entrp">    -15.20598709 </i>
    <i name="e_0_energy">    -15.20598709 </i>
   </energy>
  </scstep>
  <scstep>
   <time name="total">    2.73    1.72</time>
   <energy>
    <i name="e_fr_energy">    -15.44419935 </i>
    <i name="e_wo_entrp">    -15.44419935 </i>
    <i name="e_0_energy">    -15.44419935 </i>
   </energy>
  </scstep>
  <scstep>
   <time name="total">    2.78    1.72</time>
   <energy>
    <i name="e_fr_energy">    -15.58426614 </i>
    <i name="e_wo_entrp">    -15.58426614 </i>
    <i name="e_0_energy">    -15.58426614 </i>
   </energy>
  </scstep>
  <scstep>
   <time name="total">    2.84    1.72</time>
   <energy>
    <i name="e_fr_energy">    -15.64669686 </i>
    <i name="e_wo_entrp">    -15.64669686 </i>
    <i name="e_0_energy">    -15.64669686 </i>
   </energy>
  </scstep>
  <scstep>
   <time name="total">    2.94    1.77</time>
   <energy>
    <i name="e_fr_energy">    -15.64605421 </i>
    <i name="e_wo_entrp">    -15.64605421 </i>
    <i name="e_0_energy">    -15.64605421 </i>
   </energy>
  </scstep>
  <scstep>
   <time name="total">    2.96    1.78</time>
   <energy>
    <i name="e_fr_energy">    -15.65002281 </i>
    <i name="e_wo_entrp">    -15.65002281 </i>
    <i name="e_0_energy">    -15.65002281 </i>
   </energy>
  </scstep>
  <scstep>
   <time name="total">    2.99    1.79</time>
   <energy>
    <i name="e_fr_energy">    -15.65019673 </i>
    <i name="e_wo_entrp">    -15.65019673 </i>
    <i name="e_0_energy">    -15.65019673 </i>
   </energy>
  </scstep>
  <scstep>
   <time name="total">    2.96    1.78</time>
   <energy>
    <i name="e_fr_energy">    -15.64980968 </i>
    <i name="e_wo_entrp">    -15.64980968 </i>
    <i name="e_0_energy">    -15.64980968 </i>
   </energy>
  </scstep>
  <scstep>
   <time name="total">    3.00    1.80</time>
   <energy>
    <i name="e_fr_energy">    -15.64751396 </i>
    <i name="e_wo_entrp">    -15.64751396 </i>
    <i name="e_0_energy">    -15.64751396 </i>
   </energy>
  </scstep>
  <scstep>
   <time name="total">    3.00    1.80</time>
   <energy>
    <i name="e_fr_energy">    -15.64976730 </i>
    <i name="e_wo_entrp">    -15.64976730 </i>
    <i name="e_0_energy">    -15.64976730 </i>
   </energy>
  </scstep>
  <scstep>
   <time name="total">    3.00    1.81</time>
   <energy>
    <i name="e_fr_energy">    -15.64796654 </i>
    <i name="e_wo_entrp">    -15.64796654 </i>
    <i name="e_0_energy">    -15.64796654 </i>
   </energy>
  </scstep>
  <scstep>
   <time name="total">    2.96    1.79</time>
   <energy>
    <i name="e_fr_energy">    -15.65138743 </i>
    <i name="e_wo_entrp">    -15.65138743 </i>
    <i name="e_0_energy">    -15.65138743 </i>
   </energy>
  </scstep>
  <scstep>
   <time name="total">    2.90    1.78</time>
   <energy>
    <i name="e_fr_energy">    -15.64805378 </i>
    <i name="e_wo_entrp">    -15.64805378 </i>
    <i name="e_0_energy">    -15.64805378 </i>
   </energy>
  </scstep>
  <scstep>
   <time name="total">    2.88    1.74</time>
   <energy>
    <i name="e_fr_energy">    -15.64993138 </i>
    <i name="e_wo_entrp">    -15.64993138 </i>
    <i name="e_0_energy">    -15.64993138 </i>
   </energy>
  </scstep>
  <scstep>
   <time name="total">    2.83    1.71</time>
   <energy>
    <i name="e_fr_energy">    -15.64640070 </i>
    <i name="e_wo_entrp">    -15.64640070 </i>
    <i name="e_0_energy">    -15.64640070 </i>
   </energy>
  </scstep>
  <kpoints>
   <generation param="Gamma">
    <v type="int" name="divisions">       8        9        3 </v>
    <v name="usershift">      0.00000000       0.00000000       0.00000000 </v>
    <v name="genvec1">      0.12500000       0.00000000       0.00000000 </v>
    <v name="genvec2">      0.00000000       0.11111111       0.00000000 </v>
    <v name="genvec3">      0.00000000       0.00000000       0.33333333 </v>
    <v name="shift">      0.00000000       0.00000000       0.00000000 </v>
   </generation>
   <varray name="kpointlist" >
    <v>       0.00000000       0.00000000       0.00000000 </v>
    <v>       0.12500000       0.00000000       0.00000000 </v>
    <v>       0.25000000       0.00000000       0.00000000 </v>
    <v>       0.37500000       0.00000000       0.00000000 </v>
    <v>       0.50000000       0.00000000       0.00000000 </v>
    <v>       0.00000000       0.11111111       0.00000000 </v>
    <v>       0.12500000       0.11111111       0.00000000 </v>
    <v>      -0.12500000       0.11111111       0.00000000 </v>
    <v>       0.25000000       0.11111111       0.00000000 </v>
    <v>      -0.25000000       0.11111111       0.00000000 </v>
    <v>       0.37500000       0.11111111       0.00000000 </v>
    <v>      -0.37500000       0.11111111       0.00000000 </v>
    <v>       0.50000000       0.11111111       0.00000000 </v>
    <v>       0.00000000       0.22222222       0.00000000 </v>
    <v>       0.12500000       0.22222222       0.00000000 </v>
    <v>      -0.12500000       0.22222222       0.00000000 </v>
    <v>       0.25000000       0.22222222       0.00000000 </v>
    <v>      -0.25000000       0.22222222       0.00000000 </v>
    <v>       0.37500000       0.22222222       0.00000000 </v>
    <v>      -0.37500000       0.22222222       0.00000000 </v>
    <v>       0.50000000       0.22222222       0.00000000 </v>
    <v>       0.00000000       0.33333333       0.00000000 </v>
    <v>       0.12500000       0.33333333       0.00000000 </v>
    <v>      -0.12500000       0.33333333       0.00000000 </v>
    <v>       0.25000000       0.33333333       0.00000000 </v>
    <v>      -0.25000000       0.33333333       0.00000000 </v>
    <v>       0.37500000       0.33333333       0.00000000 </v>
    <v>      -0.37500000       0.33333333       0.00000000 </v>
    <v>       0.50000000       0.33333333       0.00000000 </v>
    <v>       0.00000000       0.44444444       0.00000000 </v>
    <v>       0.12500000       0.44444444       0.00000000 </v>
    <v>      -0.12500000       0.44444444       0.00000000 </v>
    <v>       0.25000000       0.44444444       0.00000000 </v>
    <v>      -0.25000000       0.44444444       0.00000000 </v>
    <v>       0.37500000       0.44444444       0.00000000 </v>
    <v>      -0.37500000       0.44444444       0.00000000 </v>
    <v>       0.50000000       0.44444444       0.00000000 </v>
    <v>       0.00000000       0.00000000       0.33333333 </v>
    <v>       0.12500000       0.00000000       0.33333333 </v>
    <v>       0.25000000       0.00000000       0.33333333 </v>
    <v>       0.37500000       0.00000000       0.33333333 </v>
    <v>       0.50000000       0.00000000       0.33333333 </v>
    <v>       0.00000000       0.11111111       0.33333333 </v>
    <v>       0.12500000       0.11111111       0.33333333 </v>
    <v>      -0.12500000       0.11111111      -0.33333333 </v>
    <v>       0.25000000       0.11111111       0.33333333 </v>
    <v>      -0.25000000       0.11111111      -0.33333333 </v>
    <v>       0.37500000       0.11111111       0.33333333 </v>
    <v>      -0.37500000       0.11111111      -0.33333333 </v>
    <v>       0.50000000       0.11111111       0.33333333 </v>
    <v>       0.00000000       0.22222222       0.33333333 </v>
    <v>       0.12500000       0.22222222       0.33333333 </v>
    <v>      -0.12500000       0.22222222      -0.33333333 </v>
    <v>       0.25000000       0.22222222       0.33333333 </v>
    <v>      -0.25000000       0.22222222      -0.33333333 </v>
    <v>       0.37500000       0.22222222       0.33333333 </v>
    <v>      -0.37500000       0.22222222      -0.33333333 </v>
    <v>       0.50000000       0.22222222       0.33333333 </v>
    <v>       0.00000000       0.33333333       0.33333333 </v>
    <v>       0.12500000       0.33333333       0.33333333 </v>
    <v>      -0.12500000       0.33333333      -0.33333333 </v>
    <v>       0.25000000       0.33333333       0.33333333 </v>
    <v>      -0.25000000       0.33333333      -0.33333333 </v>
    <v>       0.37500000       0.33333333       0.33333333 </v>
    <v>      -0.37500000       0.33333333      -0.33333333 </v>
    <v>       0.50000000       0.33333333       0.33333333 </v>
    <v>       0.00000000       0.44444444       0.33333333 </v>
    <v>       0.12500000       0.44444444       0.33333333 </v>
    <v>      -0.12500000       0.44444444      -0.33333333 </v>
    <v>       0.25000000       0.44444444       0.33333333 </v>
    <v>      -0.25000000       0.44444444      -0.33333333 </v>
    <v>       0.37500000       0.44444444       0.33333333 </v>
    <v>      -0.37500000       0.44444444      -0.33333333 </v>
    <v>       0.50000000       0.44444444       0.33333333 </v>
   </varray>
   <varray name="weights" >
    <v>       0.00462963 </v>
    <v>       0.00925926 </v>
    <v>       0.00925926 </v>
    <v>       0.00925926 </v>
    <v>       0.00462963 </v>
    <v>       0.00925926 </v>
    <v>       0.00925926 </v>
    <v>       0.00925926 </v>
    <v>       0.00925926 </v>
    <v>       0.00925926 </v>
    <v>       0.00925926 </v>
    <v>       0.00925926 </v>
    <v>       0.00925926 </v>
    <v>       0.00925926 </v>
    <v>       0.00925926 </v>
    <v>       0.00925926 </v>
    <v>       0.00925926 </v>
    <v>       0.00925926 </v>
    <v>       0.00925926 </v>
    <v>       0.00925926 </v>
    <v>       0.00925926 </v>
    <v>       0.00925926 </v>
    <v>       0.00925926 </v>
    <v>       0.00925926 </v>
    <v>       0.00925926 </v>
    <v>       0.00925926 </v>
    <v>       0.00925926 </v>
    <v>       0.00925926 </v>
    <v>       0.00925926 </v>
    <v>       0.00925926 </v>
    <v>       0.00925926 </v>
    <v>       0.00925926 </v>
    <v>       0.00925926 </v>
    <v>       0.00925926 </v>
    <v>       0.00925926 </v>
    <v>       0.00925926 </v>
    <v>       0.00925926 </v>
    <v>       0.00925926 </v>
    <v>       0.01851852 </v>
    <v>       0.01851852 </v>
    <v>       0.01851852 </v>
    <v>       0.00925926 </v>
    <v>       0.01851852 </v>
    <v>       0.01851852 </v>
    <v>       0.01851852 </v>
    <v>       0.01851852 </v>
    <v>       0.01851852 </v>
    <v>       0.01851852 </v>
    <v>       0.01851852 </v>
    <v>       0.01851852 </v>
    <v>       0.01851852 </v>
    <v>       0.01851852 </v>
    <v>       0.01851852 </v>
    <v>       0.01851852 </v>
    <v>       0.01851852 </v>
    <v>       0.01851852 </v>
    <v>       0.01851852 </v>
    <v>       0.01851852 </v>
    <v>       0.01851852 </v>
    <v>       0.01851852 </v>
    <v>       0.01851852 </v>
    <v>       0.01851852 </v>
    <v>       0.01851852 </v>
    <v>       0.01851852 </v>
    <v>       0.01851852 </v>
    <v>       0.01851852 </v>
    <v>       0.01851852 </v>
    <v>       0.01851852 </v>
    <v>       0.01851852 </v>
    <v>       0.01851852 </v>
    <v>       0.01851852 </v>
    <v>       0.01851852 </v>
    <v>       0.01851852 </v>
    <v>       0.01851852 </v>
   </varray>
  </kpoints>
  <varray name="dielectric_dft" >
   <v>      24.37238230      -0.01259591       0.00000000 </v>
   <v>      -0.01266310      29.79608614       0.00000000 </v>
   <v>       0.00000000       0.00000000      27.66814204 </v>
  </varray>
  <varray name="epsilon" >
   <v>      24.37238230      -0.01259591       0.00000000 </v>
   <v>      -0.01266310      29.79608614       0.00000000 </v>
   <v>       0.00000000       0.00000000      27.66814204 </v>
  </varray>
  <kpoints>
   <generation param="Gamma">
    <v type="int" name="divisions">       8        9        3 </v>
    <v name="usershift">      0.00000000       0.00000000       0.00000000 </v>
    <v name="genvec1">      0.12500000       0.00000000       0.00000000 </v>
    <v name="genvec2">      0.00000000       0.11111111       0.00000000 </v>
    <v name="genvec3">      0.00000000       0.00000000       0.33333333 </v>
    <v name="shift">      0.00000000       0.00000000       0.00000000 </v>
   </generation>
   <varray name="kpointlist" >
    <v>       0.00000000       0.00000000       0.00000000 </v>
    <v>       0.12500000       0.00000000       0.00000000 </v>
    <v>       0.25000000       0.00000000       0.00000000 </v>
    <v>       0.37500000       0.00000000       0.00000000 </v>
    <v>       0.50000000       0.00000000       0.00000000 </v>
    <v>       0.00000000       0.11111111       0.00000000 </v>
    <v>       0.12500000       0.11111111       0.00000000 </v>
    <v>      -0.12500000       0.11111111       0.00000000 </v>
    <v>       0.25000000       0.11111111       0.00000000 </v>
    <v>      -0.25000000       0.11111111       0.00000000 </v>
    <v>       0.37500000       0.11111111       0.00000000 </v>
    <v>      -0.37500000       0.11111111       0.00000000 </v>
    <v>       0.50000000       0.11111111       0.00000000 </v>
    <v>       0.00000000       0.22222222       0.00000000 </v>
    <v>       0.12500000       0.22222222       0.00000000 </v>
    <v>      -0.12500000       0.22222222       0.00000000 </v>
    <v>       0.25000000       0.22222222       0.00000000 </v>
    <v>      -0.25000000       0.22222222       0.00000000 </v>
    <v>       0.37500000       0.22222222       0.00000000 </v>
    <v>      -0.37500000       0.22222222       0.00000000 </v>
    <v>       0.50000000       0.22222222       0.00000000 </v>
    <v>       0.00000000       0.33333333       0.00000000 </v>
    <v>       0.12500000       0.33333333       0.00000000 </v>
    <v>      -0.12500000       0.33333333       0.00000000 </v>
    <v>       0.25000000       0.33333333       0.00000000 </v>
    <v>      -0.25000000       0.33333333       0.00000000 </v>
    <v>       0.37500000       0.33333333       0.00000000 </v>
    <v>      -0.37500000       0.33333333       0.00000000 </v>
    <v>       0.50000000       0.33333333       0.00000000 </v>
    <v>       0.00000000       0.44444444       0.00000000 </v>
    <v>       0.12500000       0.44444444       0.00000000 </v>
    <v>      -0.12500000       0.44444444       0.00000000 </v>
    <v>       0.25000000       0.44444444       0.00000000 </v>
    <v>      -0.25000000       0.44444444       0.00000000 </v>
    <v>       0.37500000       0.44444444       0.00000000 </v>
    <v>      -0.37500000       0.44444444       0.00000000 </v>
    <v>       0.50000000       0.44444444       0.00000000 </v>
    <v>       0.00000000       0.00000000       0.33333333 </v>
    <v>       0.12500000       0.00000000       0.33333333 </v>
    <v>       0.25000000       0.00000000       0.33333333 </v>
    <v>       0.37500000       0.00000000       0.33333333 </v>
    <v>       0.50000000       0.00000000       0.33333333 </v>
    <v>       0.00000000       0.11111111       0.33333333 </v>
    <v>       0.12500000       0.11111111       0.33333333 </v>
    <v>      -0.12500000       0.11111111      -0.33333333 </v>
    <v>       0.25000000       0.11111111       0.33333333 </v>
    <v>      -0.25000000       0.11111111      -0.33333333 </v>
    <v>       0.37500000       0.11111111       0.33333333 </v>
    <v>      -0.37500000       0.11111111      -0.33333333 </v>
    <v>       0.50000000       0.11111111       0.33333333 </v>
    <v>       0.00000000       0.22222222       0.33333333 </v>
    <v>       0.12500000       0.22222222       0.33333333 </v>
    <v>      -0.12500000       0.22222222      -0.33333333 </v>
    <v>       0.25000000       0.22222222       0.33333333 </v>
    <v>      -0.25000000       0.22222222      -0.33333333 </v>
    <v>       0.37500000       0.22222222       0.33333333 </v>
    <v>      -0.37500000       0.22222222      -0.33333333 </v>
    <v>       0.50000000       0.22222222       0.33333333 </v>
    <v>       0.00000000       0.33333333       0.33333333 </v>
    <v>       0.12500000       0.33333333       0.33333333 </v>
    <v>      -0.12500000       0.33333333      -0.33333333 </v>
    <v>       0.25000000       0.33333333       0.33333333 </v>
    <v>      -0.25000000       0.33333333      -0.33333333 </v>
    <v>       0.37500000       0.33333333       0.33333333 </v>
    <v>      -0.37500000       0.33333333      -0.33333333 </v>
    <v>       0.50000000       0.33333333       0.33333333 </v>
    <v>       0.00000000       0.44444444       0.33333333 </v>
    <v>       0.12500000       0.44444444       0.33333333 </v>
    <v>      -0.12500000       0.44444444      -0.33333333 </v>
    <v>       0.25000000       0.44444444       0.33333333 </v>
    <v>      -0.25000000       0.44444444      -0.33333333 </v>
    <v>       0.37500000       0.44444444       0.33333333 </v>
    <v>      -0.37500000       0.44444444      -0.33333333 </v>
    <v>       0.50000000       0.44444444       0.33333333 </v>
   </varray>
   <varray name="weights" >
    <v>       0.00462963 </v>
    <v>       0.00925926 </v>
    <v>       0.00925926 </v>
    <v>       0.00925926 </v>
    <v>       0.00462963 </v>
    <v>       0.00925926 </v>
    <v>       0.00925926 </v>
    <v>       0.00925926 </v>
    <v>       0.00925926 </v>
    <v>       0.00925926 </v>
    <v>       0.00925926 </v>
    <v>       0.00925926 </v>
    <v>       0.00925926 </v>
    <v>       0.00925926 </v>
    <v>       0.00925926 </v>
    <v>       0.00925926 </v>
    <v>       0.00925926 </v>
    <v>       0.00925926 </v>
    <v>       0.00925926 </v>
    <v>       0.00925926 </v>
    <v>       0.00925926 </v>
    <v>       0.00925926 </v>
    <v>       0.00925926 </v>
    <v>       0.00925926 </v>
    <v>       0.00925926 </v>
    <v>       0.00925926 </v>
    <v>       0.00925926 </v>
    <v>       0.00925926 </v>
    <v>       0.00925926 </v>
    <v>       0.00925926 </v>
    <v>       0.00925926 </v>
    <v>       0.00925926 </v>
    <v>       0.00925926 </v>
    <v>       0.00925926 </v>
    <v>       0.00925926 </v>
    <v>       0.00925926 </v>
    <v>       0.00925926 </v>
    <v>       0.00925926 </v>
    <v>       0.01851852 </v>
    <v>       0.01851852 </v>
    <v>       0.01851852 </v>
    <v>       0.00925926 </v>
    <v>       0.01851852 </v>
    <v>       0.01851852 </v>
    <v>       0.01851852 </v>
    <v>       0.01851852 </v>
    <v>       0.01851852 </v>
    <v>       0.01851852 </v>
    <v>       0.01851852 </v>
    <v>       0.01851852 </v>
    <v>       0.01851852 </v>
    <v>       0.01851852 </v>
    <v>       0.01851852 </v>
    <v>       0.01851852 </v>
    <v>       0.01851852 </v>
    <v>       0.01851852 </v>
    <v>       0.01851852 </v>
    <v>       0.01851852 </v>
    <v>       0.01851852 </v>
    <v>       0.01851852 </v>
    <v>       0.01851852 </v>
    <v>       0.01851852 </v>
    <v>       0.01851852 </v>
    <v>       0.01851852 </v>
    <v>       0.01851852 </v>
    <v>       0.01851852 </v>
    <v>       0.01851852 </v>
    <v>       0.01851852 </v>
    <v>       0.01851852 </v>
    <v>       0.01851852 </v>
    <v>       0.01851852 </v>
    <v>       0.01851852 </v>
    <v>       0.01851852 </v>
    <v>       0.01851852 </v>
   </varray>
  </kpoints>
  <array name="born_charges" >
   <dimension dim="1">ion</dimension>
   <set>
    <v>       3.99365727      -0.00333968      -0.59174838 </v>
    <v>      -0.00496665       4.57190584       0.00132223 </v>
    <v>       0.08587971      -0.00571487       4.23576677 </v>
   </set>
   <set>
    <v>       3.99365727      -0.00333968       0.59174838 </v>
    <v>      -0.00496665       4.57190584      -0.00132223 </v>
    <v>      -0.08587971       0.00571487       4.23576677 </v>
   </set>
   <set>
    <v>       3.99365727      -0.00333968       0.59174838 </v>
    <v>      -0.00496665       4.57190584      -0.00132223 </v>
    <v>      -0.08587971       0.00571487       4.23576677 </v>
   </set>
   <set>
    <v>       3.99365727      -0.00333968      -0.59174838 </v>
    <v>      -0.00496665       4.57190584       0.00132223 </v>
    <v>       0.08587971      -0.00571487       4.23576677 </v>
   </set>
   <set>
    <v>      -3.99365727       0.00333968       0.57789092 </v>
    <v>       0.00496665      -4.57190584       0.00643221 </v>
    <v>       0.69193626      -0.00287289      -4.23576677 </v>
   </set>
   <set>
    <v>      -3.99365727       0.00333968      -0.57789092 </v>
    <v>       0.00496665      -4.57190584      -0.00643221 </v>
    <v>      -0.69193626       0.00287289      -4.23576677 </v>
   </set>
   <set>
    <v>      -3.99365727       0.00333968      -0.57789092 </v>
    <v>       0.00496665      -4.57190584      -0.00643221 </v>
    <v>      -0.69193626       0.00287289      -4.23576677 </v>
   </set>
   <set>
    <v>      -3.99365727       0.00333968       0.57789092 </v>
    <v>       0.00496665      -4.57190584       0.00643221 </v>
    <v>       0.69193626      -0.00287289      -4.23576677 </v>
   </set>
  </array>
  <time name="totalsc">  823.05  501.49</time>
  <eigenvalues>
   <array>
    <dimension dim="1">band</dimension>
    <dimension dim="2">kpoint</dimension>
    <dimension dim="3">spin</dimension>
    <field>eigene</field>
    <field>occ</field>
    <set>
     <set comment="spin 1">
      <set comment="kpoint 1">
       <r>  -15.4185    1.0000 </r>
       <r>  -15.3994    1.0000 </r>
       <r>  -15.3983    1.0000 </r>
       <r>  -15.3925    1.0000 </r>
       <r>  -15.3918    1.0000 </r>
       <r>  -15.3901    1.0000 </r>
       <r>  -15.3866    1.0000 </r>
       <r>  -15.3829    1.0000 </r>
       <r>  -15.3819    1.0000 </r>
       <r>  -15.3801    1.0000 </r>
       <r>  -15.3764    1.0000 </r>
       <r>  -15.3756    1.0000 </r>
       <r>  -15.3652    1.0000 </r>
       <r>  -15.3604    1.0000 </r>
       <r>  -15.3450    1.0000 </r>
       <r>  -15.3354    1.0000 </r>
       <r>  -15.3349    1.0000 </r>
       <r>  -15.3270    1.0000 </r>
       <r>  -15.3144    1.0000 </r>
       <r>  -15.3051    1.0000 </r>
       <r>   -8.1765    1.0000 </r>
       <r>   -7.7614    1.0000 </r>
       <r>   -7.1071    1.0000 </r>
       <r>   -6.4997    1.0000 </r>
       <r>   -1.4513    1.0000 </r>
       <r>   -0.2039    1.0000 </r>
       <r>    0.0299    1.0000 </r>
       <r>    0.8492    1.0000 </r>
       <r>    0.9750    1.0000 </r>
       <r>    2.3090    1.0000 </r>
       <r>    2.3263    1.0000 </r>
       <r>    2.4389    1.0000 </r>
       <r>    2.8979    1.0000 </r>
       <r>    2.9106    1.0000 </r>
       <r>    3.4128    1.0000 </r>
       <r>    3.9132    1.0000 </r>
       <r>    4.2217    1.0000 </r>
       <r>    4.5898    1.0000 </r>
       <r>    5.1305    1.0000 </r>
       <r>    5.2880    1.0000 </r>
       <r>    6.3313    0.0000 </r>
       <r>    8.7796    0.0000 </r>
       <r>    8.8888    0.0000 </r>
       <r>    8.9279    0.0000 </r>
       <r>    9.1722    0.0000 </r>
       <r>    9.3657    0.0000 </r>
       <r>   10.0893    0.0000 </r>
       <r>   10.4089    0.0000 </r>
       <r>   10.5178    0.0000 </r>
       <r>   10.7514    0.0000 </r>
       <r>   11.3475    0.0000 </r>
       <r>   11.8012    0.0000 </r>
       <r>   12.0335    0.0000 </r>
       <r>   12.0792    0.0000 </r>
       <r>   12.1456    0.0000 </r>
       <r>   12.6163    0.0000 </r>
       <r>   12.6696    0.0000 </r>
       <r>   13.5878    0.0000 </r>
       <r>   14.3932    0.0000 </r>
       <r>   14.4081    0.0000 </r>
       <r>   14.5484    0.0000 </r>
       <r>   14.6916    0.0000 </r>
       <r>   15.0276    0.0000 </r>
       <r>   15.0364    0.0000 </r>
      </set>
      <set comment="kpoint 2">
       <r>  -15.4173    1.0000 </r>
       <r>  -15.3996    1.0000 </r>
       <r>  -15.3970    1.0000 </r>
       <r>  -15.3921    1.0000 </r>
       <r>  -15.3916    1.0000 </r>
       <r>  -15.3914    1.0000 </r>
       <r>  -15.3872    1.0000 </r>
       <r>  -15.3832    1.0000 </r>
       <r>  -15.3808    1.0000 </r>
       <r>  -15.3803    1.0000 </r>
       <r>  -15.3773    1.0000 </r>
       <r>  -15.3735    1.0000 </r>
       <r>  -15.3641    1.0000 </r>
       <r>  -15.3607    1.0000 </r>
       <r>  -15.3452    1.0000 </r>
       <r>  -15.3356    1.0000 </r>
       <r>  -15.3349    1.0000 </r>
       <r>  -15.3274    1.0000 </r>
       <r>  -15.3140    1.0000 </r>
       <r>  -15.3054    1.0000 </r>
       <r>   -8.1023    1.0000 </r>
       <r>   -7.6941    1.0000 </r>
       <r>   -7.0844    1.0000 </r>
       <r>   -6.5086    1.0000 </r>
       <r>   -1.7386    1.0000 </r>
       <r>   -0.3991    1.0000 </r>
       <r>   -0.2367    1.0000 </r>
       <r>    0.4718    1.0000 </r>
       <r>    0.8577    1.0000 </r>
       <r>    2.3535    1.0000 </r>
       <r>    2.4379    1.0000 </r>
       <r>    2.8600    1.0000 </r>
       <r>    3.0111    1.0000 </r>
       <r>    3.4368    1.0000 </r>
       <r>    3.4969    1.0000 </r>
       <r>    3.9872    1.0000 </r>
       <r>    4.2716    1.0000 </r>
       <r>    4.9223    1.0000 </r>
       <r>    4.9636    1.0000 </r>
       <r>    5.3405    1.0000 </r>
       <r>    6.3424    0.0000 </r>
       <r>    8.1998    0.0000 </r>
       <r>    8.8546    0.0000 </r>
       <r>    8.9912    0.0000 </r>
       <r>    9.0699    0.0000 </r>
       <r>    9.1598    0.0000 </r>
       <r>    9.9607    0.0000 </r>
       <r>   10.2474    0.0000 </r>
       <r>   10.2906    0.0000 </r>
       <r>   10.3911    0.0000 </r>
       <r>   11.2785    0.0000 </r>
       <r>   11.2821    0.0000 </r>
       <r>   11.5584    0.0000 </r>
       <r>   12.0132    0.0000 </r>
       <r>   12.0921    0.0000 </r>
       <r>   12.6085    0.0000 </r>
       <r>   13.0596    0.0000 </r>
       <r>   13.6537    0.0000 </r>
       <r>   13.9927    0.0000 </r>
       <r>   14.5742    0.0000 </r>
       <r>   14.8809    0.0000 </r>
       <r>   15.3466    0.0000 </r>
       <r>   15.3978    0.0000 </r>
       <r>   15.6532    0.0000 </r>
      </set>
      <set comment="kpoint 3">
       <r>  -15.4139    1.0000 </r>
       <r>  -15.4003    1.0000 </r>
       <r>  -15.3944    1.0000 </r>
       <r>  -15.3943    1.0000 </r>
       <r>  -15.3938    1.0000 </r>
       <r>  -15.3900    1.0000 </r>
       <r>  -15.3874    1.0000 </r>
       <r>  -15.3844    1.0000 </r>
       <r>  -15.3806    1.0000 </r>
       <r>  -15.3794    1.0000 </r>
       <r>  -15.3771    1.0000 </r>
       <r>  -15.3686    1.0000 </r>
       <r>  -15.3631    1.0000 </r>
       <r>  -15.3604    1.0000 </r>
       <r>  -15.3450    1.0000 </r>
       <r>  -15.3373    1.0000 </r>
       <r>  -15.3337    1.0000 </r>
       <r>  -15.3285    1.0000 </r>
       <r>  -15.3130    1.0000 </r>
       <r>  -15.3065    1.0000 </r>
       <r>   -7.8926    1.0000 </r>
       <r>   -7.5037    1.0000 </r>
       <r>   -7.0498    1.0000 </r>
       <r>   -6.5570    1.0000 </r>
       <r>   -2.2663    1.0000 </r>
       <r>   -1.1163    1.0000 </r>
       <r>   -0.7998    1.0000 </r>
       <r>    0.0296    1.0000 </r>
       <r>    0.8755    1.0000 </r>
       <r>    2.6446    1.0000 </r>
       <r>    2.7575    1.0000 </r>
       <r>    3.2960    1.0000 </r>
       <r>    3.4851    1.0000 </r>
       <r>    3.7048    1.0000 </r>
       <r>    3.8900    1.0000 </r>
       <r>    4.3695    1.0000 </r>
       <r>    4.6296    1.0000 </r>
       <r>    4.7564    1.0000 </r>
       <r>    5.2787    1.0000 </r>
       <r>    5.5831    1.0000 </r>
       <r>    6.6654    0.0000 </r>
       <r>    7.1826    0.0000 </r>
       <r>    7.9195    0.0000 </r>
       <r>    8.1041    0.0000 </r>
       <r>    8.8602    0.0000 </r>
       <r>    8.9420    0.0000 </r>
       <r>    9.3323    0.0000 </r>
       <r>    9.4442    0.0000 </r>
       <r>   10.3192    0.0000 </r>
       <r>   10.5800    0.0000 </r>
       <r>   10.5944    0.0000 </r>
       <r>   11.1424    0.0000 </r>
       <r>   11.2431    0.0000 </r>
       <r>   12.2733    0.0000 </r>
       <r>   12.6787    0.0000 </r>
       <r>   12.6798    0.0000 </r>
       <r>   13.3225    0.0000 </r>
       <r>   13.5418    0.0000 </r>
       <r>   14.1352    0.0000 </r>
       <r>   14.7076    0.0000 </r>
       <r>   15.1878    0.0000 </r>
       <r>   15.5469    0.0000 </r>
       <r>   15.9290    0.0000 </r>
       <r>   16.2980    0.0000 </r>
      </set>
      <set comment="kpoint 4">
       <r>  -15.4096    1.0000 </r>
       <r>  -15.4022    1.0000 </r>
       <r>  -15.3968    1.0000 </r>
       <r>  -15.3964    1.0000 </r>
       <r>  -15.3919    1.0000 </r>
       <r>  -15.3892    1.0000 </r>
       <r>  -15.3867    1.0000 </r>
       <r>  -15.3857    1.0000 </r>
       <r>  -15.3816    1.0000 </r>
       <r>  -15.3813    1.0000 </r>
       <r>  -15.3719    1.0000 </r>
       <r>  -15.3645    1.0000 </r>
       <r>  -15.3637    1.0000 </r>
       <r>  -15.3593    1.0000 </r>
       <r>  -15.3436    1.0000 </r>
       <r>  -15.3391    1.0000 </r>
       <r>  -15.3322    1.0000 </r>
       <r>  -15.3296    1.0000 </r>
       <r>  -15.3114    1.0000 </r>
       <r>  -15.3079    1.0000 </r>
       <r>   -7.5922    1.0000 </r>
       <r>   -7.2274    1.0000 </r>
       <r>   -7.0935    1.0000 </r>
       <r>   -6.6915    1.0000 </r>
       <r>   -2.5941    1.0000 </r>
       <r>   -1.9591    1.0000 </r>
       <r>   -1.0525    1.0000 </r>
       <r>   -0.5669    1.0000 </r>
       <r>    1.3267    1.0000 </r>
       <r>    2.5380    1.0000 </r>
       <r>    3.2275    1.0000 </r>
       <r>    3.7063    1.0000 </r>
       <r>    3.8643    1.0000 </r>
       <r>    4.0871    1.0000 </r>
       <r>    4.1811    1.0000 </r>
       <r>    4.3622    1.0000 </r>
       <r>    4.7019    1.0000 </r>
       <r>    5.1626    1.0000 </r>
       <r>    5.6664    1.0000 </r>
       <r>    5.8772    1.0000 </r>
       <r>    6.6664    0.0000 </r>
       <r>    7.0754    0.0000 </r>
       <r>    7.2430    0.0000 </r>
       <r>    7.3175    0.0000 </r>
       <r>    7.9175    0.0000 </r>
       <r>    8.0143    0.0000 </r>
       <r>    8.6644    0.0000 </r>
       <r>    8.8962    0.0000 </r>
       <r>    9.3155    0.0000 </r>
       <r>    9.6060    0.0000 </r>
       <r>   11.4618    0.0000 </r>
       <r>   11.7504    0.0000 </r>
       <r>   12.4119    0.0000 </r>
       <r>   12.6918    0.0000 </r>
       <r>   13.1029    0.0000 </r>
       <r>   13.6024    0.0000 </r>
       <r>   13.6450    0.0000 </r>
       <r>   14.1592    0.0000 </r>
       <r>   14.2932    0.0000 </r>
       <r>   14.6452    0.0000 </r>
       <r>   14.7510    0.0000 </r>
       <r>   15.7195    0.0000 </r>
       <r>   16.5465    0.0000 </r>
       <r>   16.6339    0.0000 </r>
      </set>
      <set comment="kpoint 5">
       <r>  -15.4054    1.0000 </r>
       <r>  -15.4054    1.0000 </r>
       <r>  -15.3977    1.0000 </r>
       <r>  -15.3977    1.0000 </r>
       <r>  -15.3900    1.0000 </r>
       <r>  -15.3900    1.0000 </r>
       <r>  -15.3863    1.0000 </r>
       <r>  -15.3863    1.0000 </r>
       <r>  -15.3820    1.0000 </r>
       <r>  -15.3820    1.0000 </r>
       <r>  -15.3674    1.0000 </r>
       <r>  -15.3674    1.0000 </r>
       <r>  -15.3604    1.0000 </r>
       <r>  -15.3604    1.0000 </r>
       <r>  -15.3412    1.0000 </r>
       <r>  -15.3412    1.0000 </r>
       <r>  -15.3308    1.0000 </r>
       <r>  -15.3308    1.0000 </r>
       <r>  -15.3097    1.0000 </r>
       <r>  -15.3097    1.0000 </r>
       <r>   -7.2885    1.0000 </r>
       <r>   -7.2885    1.0000 </r>
       <r>   -6.9304    1.0000 </r>
       <r>   -6.9304    1.0000 </r>
       <r>   -2.4949    1.0000 </r>
       <r>   -2.4949    1.0000 </r>
       <r>   -0.9736    1.0000 </r>
       <r>   -0.9736    1.0000 </r>
       <r>    1.9486    1.0000 </r>
       <r>    1.9486    1.0000 </r>
       <r>    3.6925    1.0000 </r>
       <r>    3.6925    1.0000 </r>
       <r>    4.1174    1.0000 </r>
       <r>    4.1174    1.0000 </r>
       <r>    4.4422    1.0000 </r>
       <r>    4.4422    1.0000 </r>
       <r>    5.0259    1.0000 </r>
       <r>    5.0259    1.0000 </r>
       <r>    5.6394    1.0000 </r>
       <r>    5.6394    1.0000 </r>
       <r>    7.0682    0.0000 </r>
       <r>    7.0682    0.0000 </r>
       <r>    7.2463    0.0000 </r>
       <r>    7.2463    0.0000 </r>
       <r>    7.5493    0.0000 </r>
       <r>    7.5493    0.0000 </r>
       <r>    8.3553    0.0000 </r>
       <r>    8.3553    0.0000 </r>
       <r>    8.9635    0.0000 </r>
       <r>    8.9635    0.0000 </r>
       <r>   11.9068    0.0000 </r>
       <r>   11.9068    0.0000 </r>
       <r>   13.1146    0.0000 </r>
       <r>   13.1146    0.0000 </r>
       <r>   13.7863    0.0000 </r>
       <r>   13.7863    0.0000 </r>
       <r>   13.9000    0.0000 </r>
       <r>   13.9000    0.0000 </r>
       <r>   15.1001    0.0000 </r>
       <r>   15.1001    0.0000 </r>
       <r>   15.6204    0.0000 </r>
       <r>   15.6204    0.0000 </r>
       <r>   16.0051    0.0000 </r>
       <r>   16.0051    0.0000 </r>
      </set>
      <set comment="kpoint 6">
       <r>  -15.4148    1.0000 </r>
       <r>  -15.3967    1.0000 </r>
       <r>  -15.3966    1.0000 </r>
       <r>  -15.3922    1.0000 </r>
       <r>  -15.3915    1.0000 </r>
       <r>  -15.3911    1.0000 </r>
       <r>  -15.3907    1.0000 </r>
       <r>  -15.3851    1.0000 </r>
       <r>  -15.3818    1.0000 </r>
       <r>  -15.3791    1.0000 </r>
       <r>  -15.3788    1.0000 </r>
       <r>  -15.3731    1.0000 </r>
       <r>  -15.3632    1.0000 </r>
       <r>  -15.3606    1.0000 </r>
       <r>  -15.3435    1.0000 </r>
       <r>  -15.3360    1.0000 </r>
       <r>  -15.3337    1.0000 </r>
       <r>  -15.3284    1.0000 </r>
       <r>  -15.3149    1.0000 </r>
       <r>  -15.3067    1.0000 </r>
       <r>   -8.1046    1.0000 </r>
       <r>   -7.7007    1.0000 </r>
       <r>   -7.0685    1.0000 </r>
       <r>   -6.4977    1.0000 </r>
       <r>   -1.5662    1.0000 </r>
       <r>   -0.4571    1.0000 </r>
       <r>    0.0238    1.0000 </r>
       <r>    0.4201    1.0000 </r>
       <r>    0.8858    1.0000 </r>
       <r>    2.2252    1.0000 </r>
       <r>    2.5179    1.0000 </r>
       <r>    2.6308    1.0000 </r>
       <r>    2.8963    1.0000 </r>
       <r>    2.9773    1.0000 </r>
       <r>    3.6185    1.0000 </r>
       <r>    3.9496    1.0000 </r>
       <r>    4.2346    1.0000 </r>
       <r>    4.8315    1.0000 </r>
       <r>    5.1499    1.0000 </r>
       <r>    5.2277    1.0000 </r>
       <r>    6.4468    0.0000 </r>
       <r>    8.3176    0.0000 </r>
       <r>    8.8361    0.0000 </r>
       <r>    9.0690    0.0000 </r>
       <r>    9.1867    0.0000 </r>
       <r>    9.3089    0.0000 </r>
       <r>    9.7711    0.0000 </r>
       <r>   10.1682    0.0000 </r>
       <r>   10.2531    0.0000 </r>
       <r>   10.6558    0.0000 </r>
       <r>   11.0875    0.0000 </r>
       <r>   11.3903    0.0000 </r>
       <r>   11.7668    0.0000 </r>
       <r>   11.7786    0.0000 </r>
       <r>   12.2713    0.0000 </r>
       <r>   12.3614    0.0000 </r>
       <r>   12.6080    0.0000 </r>
       <r>   13.9259    0.0000 </r>
       <r>   14.1355    0.0000 </r>
       <r>   14.4954    0.0000 </r>
       <r>   15.1160    0.0000 </r>
       <r>   15.2062    0.0000 </r>
       <r>   15.2584    0.0000 </r>
       <r>   15.4132    0.0000 </r>
      </set>
      <set comment="kpoint 7">
       <r>  -15.4138    1.0000 </r>
       <r>  -15.3968    1.0000 </r>
       <r>  -15.3957    1.0000 </r>
       <r>  -15.3927    1.0000 </r>
       <r>  -15.3925    1.0000 </r>
       <r>  -15.3906    1.0000 </r>
       <r>  -15.3903    1.0000 </r>
       <r>  -15.3857    1.0000 </r>
       <r>  -15.3820    1.0000 </r>
       <r>  -15.3811    1.0000 </r>
       <r>  -15.3768    1.0000 </r>
       <r>  -15.3713    1.0000 </r>
       <r>  -15.3627    1.0000 </r>
       <r>  -15.3602    1.0000 </r>
       <r>  -15.3436    1.0000 </r>
       <r>  -15.3355    1.0000 </r>
       <r>  -15.3344    1.0000 </r>
       <r>  -15.3288    1.0000 </r>
       <r>  -15.3145    1.0000 </r>
       <r>  -15.3070    1.0000 </r>
       <r>   -8.0313    1.0000 </r>
       <r>   -7.6345    1.0000 </r>
       <r>   -7.0458    1.0000 </r>
       <r>   -6.5045    1.0000 </r>
       <r>   -1.7853    1.0000 </r>
       <r>   -0.5491    1.0000 </r>
       <r>   -0.2732    1.0000 </r>
       <r>    0.2822    1.0000 </r>
       <r>    0.8037    1.0000 </r>
       <r>    2.0050    1.0000 </r>
       <r>    2.1700    1.0000 </r>
       <r>    3.1794    1.0000 </r>
       <r>    3.2150    1.0000 </r>
       <r>    3.3420    1.0000 </r>
       <r>    3.4165    1.0000 </r>
       <r>    4.0435    1.0000 </r>
       <r>    4.5039    1.0000 </r>
       <r>    4.9959    1.0000 </r>
       <r>    5.2322    1.0000 </r>
       <r>    5.3065    1.0000 </r>
       <r>    6.4725    0.0000 </r>
       <r>    7.8108    0.0000 </r>
       <r>    8.4199    0.0000 </r>
       <r>    8.7348    0.0000 </r>
       <r>    8.9932    0.0000 </r>
       <r>    9.2973    0.0000 </r>
       <r>    9.6012    0.0000 </r>
       <r>    9.9645    0.0000 </r>
       <r>   10.2631    0.0000 </r>
       <r>   10.8866    0.0000 </r>
       <r>   10.9839    0.0000 </r>
       <r>   11.3339    0.0000 </r>
       <r>   11.5773    0.0000 </r>
       <r>   12.1115    0.0000 </r>
       <r>   12.3347    0.0000 </r>
       <r>   12.6996    0.0000 </r>
       <r>   12.9352    0.0000 </r>
       <r>   13.9612    0.0000 </r>
       <r>   14.2009    0.0000 </r>
       <r>   14.5123    0.0000 </r>
       <r>   14.8201    0.0000 </r>
       <r>   15.0151    0.0000 </r>
       <r>   15.2502    0.0000 </r>
       <r>   15.5557    0.0000 </r>
      </set>
      <set comment="kpoint 8">
       <r>  -15.4138    1.0000 </r>
       <r>  -15.3968    1.0000 </r>
       <r>  -15.3957    1.0000 </r>
       <r>  -15.3927    1.0000 </r>
       <r>  -15.3924    1.0000 </r>
       <r>  -15.3909    1.0000 </r>
       <r>  -15.3903    1.0000 </r>
       <r>  -15.3856    1.0000 </r>
       <r>  -15.3820    1.0000 </r>
       <r>  -15.3812    1.0000 </r>
       <r>  -15.3766    1.0000 </r>
       <r>  -15.3713    1.0000 </r>
       <r>  -15.3626    1.0000 </r>
       <r>  -15.3604    1.0000 </r>
       <r>  -15.3437    1.0000 </r>
       <r>  -15.3355    1.0000 </r>
       <r>  -15.3344    1.0000 </r>
       <r>  -15.3288    1.0000 </r>
       <r>  -15.3145    1.0000 </r>
       <r>  -15.3070    1.0000 </r>
       <r>   -8.0313    1.0000 </r>
       <r>   -7.6345    1.0000 </r>
       <r>   -7.0458    1.0000 </r>
       <r>   -6.5045    1.0000 </r>
       <r>   -1.7859    1.0000 </r>
       <r>   -0.5483    1.0000 </r>
       <r>   -0.2757    1.0000 </r>
       <r>    0.2845    1.0000 </r>
       <r>    0.8049    1.0000 </r>
       <r>    2.0051    1.0000 </r>
       <r>    2.1716    1.0000 </r>
       <r>    3.1785    1.0000 </r>
       <r>    3.2134    1.0000 </r>
       <r>    3.3432    1.0000 </r>
       <r>    3.4144    1.0000 </r>
       <r>    4.0452    1.0000 </r>
       <r>    4.5005    1.0000 </r>
       <r>    4.9930    1.0000 </r>
       <r>    5.2328    1.0000 </r>
       <r>    5.3108    1.0000 </r>
       <r>    6.4724    0.0000 </r>
       <r>    7.8064    0.0000 </r>
       <r>    8.4230    0.0000 </r>
       <r>    8.7366    0.0000 </r>
       <r>    8.9951    0.0000 </r>
       <r>    9.2967    0.0000 </r>
       <r>    9.5974    0.0000 </r>
       <r>    9.9740    0.0000 </r>
       <r>   10.2648    0.0000 </r>
       <r>   10.8725    0.0000 </r>
       <r>   10.9908    0.0000 </r>
       <r>   11.3326    0.0000 </r>
       <r>   11.5805    0.0000 </r>
       <r>   12.1012    0.0000 </r>
       <r>   12.3316    0.0000 </r>
       <r>   12.6933    0.0000 </r>
       <r>   12.9474    0.0000 </r>
       <r>   13.9632    0.0000 </r>
       <r>   14.1973    0.0000 </r>
       <r>   14.5145    0.0000 </r>
       <r>   14.8236    0.0000 </r>
       <r>   15.0268    0.0000 </r>
       <r>   15.2472    0.0000 </r>
       <r>   15.5554    0.0000 </r>
      </set>
      <set comment="kpoint 9">
       <r>  -15.4113    1.0000 </r>
       <r>  -15.3977    1.0000 </r>
       <r>  -15.3957    1.0000 </r>
       <r>  -15.3951    1.0000 </r>
       <r>  -15.3933    1.0000 </r>
       <r>  -15.3891    1.0000 </r>
       <r>  -15.3890    1.0000 </r>
       <r>  -15.3869    1.0000 </r>
       <r>  -15.3833    1.0000 </r>
       <r>  -15.3825    1.0000 </r>
       <r>  -15.3739    1.0000 </r>
       <r>  -15.3667    1.0000 </r>
       <r>  -15.3627    1.0000 </r>
       <r>  -15.3588    1.0000 </r>
       <r>  -15.3434    1.0000 </r>
       <r>  -15.3360    1.0000 </r>
       <r>  -15.3343    1.0000 </r>
       <r>  -15.3296    1.0000 </r>
       <r>  -15.3136    1.0000 </r>
       <r>  -15.3078    1.0000 </r>
       <r>   -7.8248    1.0000 </r>
       <r>   -7.4479    1.0000 </r>
       <r>   -7.0106    1.0000 </r>
       <r>   -6.5462    1.0000 </r>
       <r>   -2.2233    1.0000 </r>
       <r>   -1.0846    1.0000 </r>
       <r>   -0.7983    1.0000 </r>
       <r>   -0.0617    1.0000 </r>
       <r>    0.9541    1.0000 </r>
       <r>    1.9956    1.0000 </r>
       <r>    2.1627    1.0000 </r>
       <r>    3.1955    1.0000 </r>
       <r>    3.5682    1.0000 </r>
       <r>    3.6357    1.0000 </r>
       <r>    4.0209    1.0000 </r>
       <r>    4.0754    1.0000 </r>
       <r>    4.8382    1.0000 </r>
       <r>    5.1065    1.0000 </r>
       <r>    5.3375    1.0000 </r>
       <r>    5.5450    1.0000 </r>
       <r>    6.7818    0.0000 </r>
       <r>    7.2786    0.0000 </r>
       <r>    7.5191    0.0000 </r>
       <r>    7.6824    0.0000 </r>
       <r>    8.8699    0.0000 </r>
       <r>    8.9547    0.0000 </r>
       <r>    9.2938    0.0000 </r>
       <r>    9.8447    0.0000 </r>
       <r>   10.3677    0.0000 </r>
       <r>   10.5889    0.0000 </r>
       <r>   10.9445    0.0000 </r>
       <r>   11.4001    0.0000 </r>
       <r>   11.7806    0.0000 </r>
       <r>   11.9622    0.0000 </r>
       <r>   12.7624    0.0000 </r>
       <r>   13.0563    0.0000 </r>
       <r>   13.5338    0.0000 </r>
       <r>   13.9848    0.0000 </r>
       <r>   14.0232    0.0000 </r>
       <r>   14.4082    0.0000 </r>
       <r>   14.8051    0.0000 </r>
       <r>   15.5585    0.0000 </r>
       <r>   15.7414    0.0000 </r>
       <r>   16.2258    0.0000 </r>
      </set>
      <set comment="kpoint 10">
       <r>  -15.4112    1.0000 </r>
       <r>  -15.3978    1.0000 </r>
       <r>  -15.3956    1.0000 </r>
       <r>  -15.3952    1.0000 </r>
       <r>  -15.3931    1.0000 </r>
       <r>  -15.3895    1.0000 </r>
       <r>  -15.3891    1.0000 </r>
       <r>  -15.3867    1.0000 </r>
       <r>  -15.3833    1.0000 </r>
       <r>  -15.3824    1.0000 </r>
       <r>  -15.3736    1.0000 </r>
       <r>  -15.3667    1.0000 </r>
       <r>  -15.3627    1.0000 </r>
       <r>  -15.3589    1.0000 </r>
       <r>  -15.3435    1.0000 </r>
       <r>  -15.3359    1.0000 </r>
       <r>  -15.3343    1.0000 </r>
       <r>  -15.3296    1.0000 </r>
       <r>  -15.3136    1.0000 </r>
       <r>  -15.3078    1.0000 </r>
       <r>   -7.8248    1.0000 </r>
       <r>   -7.4479    1.0000 </r>
       <r>   -7.0105    1.0000 </r>
       <r>   -6.5461    1.0000 </r>
       <r>   -2.2238    1.0000 </r>
       <r>   -1.0861    1.0000 </r>
       <r>   -0.7979    1.0000 </r>
       <r>   -0.0596    1.0000 </r>
       <r>    0.9543    1.0000 </r>
       <r>    1.9979    1.0000 </r>
       <r>    2.1626    1.0000 </r>
       <r>    3.1946    1.0000 </r>
       <r>    3.5688    1.0000 </r>
       <r>    3.6318    1.0000 </r>
       <r>    4.0198    1.0000 </r>
       <r>    4.0772    1.0000 </r>
       <r>    4.8385    1.0000 </r>
       <r>    5.1070    1.0000 </r>
       <r>    5.3402    1.0000 </r>
       <r>    5.5397    1.0000 </r>
       <r>    6.7813    0.0000 </r>
       <r>    7.2793    0.0000 </r>
       <r>    7.5198    0.0000 </r>
       <r>    7.6824    0.0000 </r>
       <r>    8.8725    0.0000 </r>
       <r>    8.9560    0.0000 </r>
       <r>    9.2969    0.0000 </r>
       <r>    9.8454    0.0000 </r>
       <r>   10.3643    0.0000 </r>
       <r>   10.5755    0.0000 </r>
       <r>   10.9539    0.0000 </r>
       <r>   11.4092    0.0000 </r>
       <r>   11.7700    0.0000 </r>
       <r>   11.9630    0.0000 </r>
       <r>   12.7621    0.0000 </r>
       <r>   13.0520    0.0000 </r>
       <r>   13.5452    0.0000 </r>
       <r>   13.9832    0.0000 </r>
       <r>   14.0148    0.0000 </r>
       <r>   14.4061    0.0000 </r>
       <r>   14.8106    0.0000 </r>
       <r>   15.5608    0.0000 </r>
       <r>   15.7489    0.0000 </r>
       <r>   16.2246    0.0000 </r>
      </set>
      <set comment="kpoint 11">
       <r>  -15.4078    1.0000 </r>
       <r>  -15.4006    1.0000 </r>
       <r>  -15.3975    1.0000 </r>
       <r>  -15.3971    1.0000 </r>
       <r>  -15.3924    1.0000 </r>
       <r>  -15.3903    1.0000 </r>
       <r>  -15.3875    1.0000 </r>
       <r>  -15.3866    1.0000 </r>
       <r>  -15.3842    1.0000 </r>
       <r>  -15.3831    1.0000 </r>
       <r>  -15.3700    1.0000 </r>
       <r>  -15.3638    1.0000 </r>
       <r>  -15.3619    1.0000 </r>
       <r>  -15.3577    1.0000 </r>
       <r>  -15.3419    1.0000 </r>
       <r>  -15.3378    1.0000 </r>
       <r>  -15.3329    1.0000 </r>
       <r>  -15.3305    1.0000 </r>
       <r>  -15.3122    1.0000 </r>
       <r>  -15.3091    1.0000 </r>
       <r>   -7.5307    1.0000 </r>
       <r>   -7.1792    1.0000 </r>
       <r>   -7.0502    1.0000 </r>
       <r>   -6.6690    1.0000 </r>
       <r>   -2.5075    1.0000 </r>
       <r>   -1.8828    1.0000 </r>
       <r>   -0.9882    1.0000 </r>
       <r>   -0.5510    1.0000 </r>
       <r>    1.3934    1.0000 </r>
       <r>    2.2226    1.0000 </r>
       <r>    2.4309    1.0000 </r>
       <r>    3.2924    1.0000 </r>
       <r>    3.3879    1.0000 </r>
       <r>    3.6423    1.0000 </r>
       <r>    4.1251    1.0000 </r>
       <r>    4.4475    1.0000 </r>
       <r>    5.0122    1.0000 </r>
       <r>    5.1253    1.0000 </r>
       <r>    5.4257    1.0000 </r>
       <r>    5.5123    1.0000 </r>
       <r>    6.9256    0.0000 </r>
       <r>    7.0890    0.0000 </r>
       <r>    7.1734    0.0000 </r>
       <r>    7.4854    0.0000 </r>
       <r>    8.3553    0.0000 </r>
       <r>    8.4819    0.0000 </r>
       <r>    8.7769    0.0000 </r>
       <r>    9.4827    0.0000 </r>
       <r>    9.9409    0.0000 </r>
       <r>   10.2600    0.0000 </r>
       <r>   11.3627    0.0000 </r>
       <r>   11.6183    0.0000 </r>
       <r>   11.9684    0.0000 </r>
       <r>   12.7407    0.0000 </r>
       <r>   12.8864    0.0000 </r>
       <r>   13.2019    0.0000 </r>
       <r>   14.0586    0.0000 </r>
       <r>   14.3564    0.0000 </r>
       <r>   14.3893    0.0000 </r>
       <r>   14.8446    0.0000 </r>
       <r>   15.3234    0.0000 </r>
       <r>   15.6839    0.0000 </r>
       <r>   16.7834    0.0000 </r>
       <r>   16.8872    0.0000 </r>
      </set>
      <set comment="kpoint 12">
       <r>  -15.4077    1.0000 </r>
       <r>  -15.4008    1.0000 </r>
       <r>  -15.3974    1.0000 </r>
       <r>  -15.3971    1.0000 </r>
       <r>  -15.3924    1.0000 </r>
       <r>  -15.3902    1.0000 </r>
       <r>  -15.3877    1.0000 </r>
       <r>  -15.3866    1.0000 </r>
       <r>  -15.3843    1.0000 </r>
       <r>  -15.3830    1.0000 </r>
       <r>  -15.3697    1.0000 </r>
       <r>  -15.3640    1.0000 </r>
       <r>  -15.3619    1.0000 </r>
       <r>  -15.3578    1.0000 </r>
       <r>  -15.3421    1.0000 </r>
       <r>  -15.3376    1.0000 </r>
       <r>  -15.3328    1.0000 </r>
       <r>  -15.3306    1.0000 </r>
       <r>  -15.3122    1.0000 </r>
       <r>  -15.3091    1.0000 </r>
       <r>   -7.5307    1.0000 </r>
       <r>   -7.1792    1.0000 </r>
       <r>   -7.0502    1.0000 </r>
       <r>   -6.6689    1.0000 </r>
       <r>   -2.5076    1.0000 </r>
       <r>   -1.8835    1.0000 </r>
       <r>   -0.9883    1.0000 </r>
       <r>   -0.5500    1.0000 </r>
       <r>    1.3938    1.0000 </r>
       <r>    2.2246    1.0000 </r>
       <r>    2.4313    1.0000 </r>
       <r>    3.2917    1.0000 </r>
       <r>    3.3841    1.0000 </r>
       <r>    3.6425    1.0000 </r>
       <r>    4.1243    1.0000 </r>
       <r>    4.4506    1.0000 </r>
       <r>    5.0095    1.0000 </r>
       <r>    5.1319    1.0000 </r>
       <r>    5.4253    1.0000 </r>
       <r>    5.5054    1.0000 </r>
       <r>    6.9287    0.0000 </r>
       <r>    7.0893    0.0000 </r>
       <r>    7.1702    0.0000 </r>
       <r>    7.4847    0.0000 </r>
       <r>    8.3582    0.0000 </r>
       <r>    8.4816    0.0000 </r>
       <r>    8.7814    0.0000 </r>
       <r>    9.4860    0.0000 </r>
       <r>    9.9323    0.0000 </r>
       <r>   10.2535    0.0000 </r>
       <r>   11.3703    0.0000 </r>
       <r>   11.6283    0.0000 </r>
       <r>   11.9628    0.0000 </r>
       <r>   12.7370    0.0000 </r>
       <r>   12.8826    0.0000 </r>
       <r>   13.2068    0.0000 </r>
       <r>   14.0549    0.0000 </r>
       <r>   14.3512    0.0000 </r>
       <r>   14.3890    0.0000 </r>
       <r>   14.8429    0.0000 </r>
       <r>   15.3298    0.0000 </r>
       <r>   15.6886    0.0000 </r>
       <r>   16.7845    0.0000 </r>
       <r>   16.8882    0.0000 </r>
      </set>
      <set comment="kpoint 13">
       <r>  -15.4043    1.0000 </r>
       <r>  -15.4041    1.0000 </r>
       <r>  -15.3980    1.0000 </r>
       <r>  -15.3979    1.0000 </r>
       <r>  -15.3916    1.0000 </r>
       <r>  -15.3915    1.0000 </r>
       <r>  -15.3870    1.0000 </r>
       <r>  -15.3870    1.0000 </r>
       <r>  -15.3837    1.0000 </r>
       <r>  -15.3836    1.0000 </r>
       <r>  -15.3663    1.0000 </r>
       <r>  -15.3661    1.0000 </r>
       <r>  -15.3588    1.0000 </r>
       <r>  -15.3587    1.0000 </r>
       <r>  -15.3398    1.0000 </r>
       <r>  -15.3397    1.0000 </r>
       <r>  -15.3316    1.0000 </r>
       <r>  -15.3315    1.0000 </r>
       <r>  -15.3106    1.0000 </r>
       <r>  -15.3106    1.0000 </r>
       <r>   -7.2364    1.0000 </r>
       <r>   -7.2364    1.0000 </r>
       <r>   -6.8939    1.0000 </r>
       <r>   -6.8939    1.0000 </r>
       <r>   -2.4013    1.0000 </r>
       <r>   -2.4011    1.0000 </r>
       <r>   -0.9108    1.0000 </r>
       <r>   -0.9103    1.0000 </r>
       <r>    1.9437    1.0000 </r>
       <r>    1.9438    1.0000 </r>
       <r>    2.9883    1.0000 </r>
       <r>    2.9899    1.0000 </r>
       <r>    3.4139    1.0000 </r>
       <r>    3.4157    1.0000 </r>
       <r>    4.2870    1.0000 </r>
       <r>    4.2896    1.0000 </r>
       <r>    5.2320    1.0000 </r>
       <r>    5.2386    1.0000 </r>
       <r>    5.4007    1.0000 </r>
       <r>    5.4036    1.0000 </r>
       <r>    6.8740    0.0000 </r>
       <r>    6.8755    0.0000 </r>
       <r>    7.3064    0.0000 </r>
       <r>    7.3076    0.0000 </r>
       <r>    8.5157    0.0000 </r>
       <r>    8.5224    0.0000 </r>
       <r>    8.8552    0.0000 </r>
       <r>    8.8581    0.0000 </r>
       <r>    9.6816    0.0000 </r>
       <r>    9.6823    0.0000 </r>
       <r>   11.7497    0.0000 </r>
       <r>   11.7540    0.0000 </r>
       <r>   12.2190    0.0000 </r>
       <r>   12.2227    0.0000 </r>
       <r>   13.7473    0.0000 </r>
       <r>   13.7498    0.0000 </r>
       <r>   14.5097    0.0000 </r>
       <r>   14.5098    0.0000 </r>
       <r>   15.4184    0.0000 </r>
       <r>   15.4207    0.0000 </r>
       <r>   15.7115    0.0000 </r>
       <r>   15.7132    0.0000 </r>
       <r>   16.2068    0.0000 </r>
       <r>   16.2077    0.0000 </r>
      </set>
      <set comment="kpoint 14">
       <r>  -15.4051    1.0000 </r>
       <r>  -15.3971    1.0000 </r>
       <r>  -15.3946    1.0000 </r>
       <r>  -15.3931    1.0000 </r>
       <r>  -15.3931    1.0000 </r>
       <r>  -15.3926    1.0000 </r>
       <r>  -15.3882    1.0000 </r>
       <r>  -15.3875    1.0000 </r>
       <r>  -15.3841    1.0000 </r>
       <r>  -15.3840    1.0000 </r>
       <r>  -15.3754    1.0000 </r>
       <r>  -15.3682    1.0000 </r>
       <r>  -15.3616    1.0000 </r>
       <r>  -15.3590    1.0000 </r>
       <r>  -15.3394    1.0000 </r>
       <r>  -15.3380    1.0000 </r>
       <r>  -15.3330    1.0000 </r>
       <r>  -15.3307    1.0000 </r>
       <r>  -15.3157    1.0000 </r>
       <r>  -15.3105    1.0000 </r>
       <r>   -7.8969    1.0000 </r>
       <r>   -7.5299    1.0000 </r>
       <r>   -6.9731    1.0000 </r>
       <r>   -6.5166    1.0000 </r>
       <r>   -1.8541    1.0000 </r>
       <r>   -0.9719    1.0000 </r>
       <r>   -0.4401    1.0000 </r>
       <r>   -0.1954    1.0000 </r>
       <r>    0.8868    1.0000 </r>
       <r>    2.4060    1.0000 </r>
       <r>    2.7499    1.0000 </r>
       <r>    2.9212    1.0000 </r>
       <r>    2.9775    1.0000 </r>
       <r>    3.2016    1.0000 </r>
       <r>    3.9352    1.0000 </r>
       <r>    4.0795    1.0000 </r>
       <r>    4.3066    1.0000 </r>
       <r>    5.0395    1.0000 </r>
       <r>    5.1723    1.0000 </r>
       <r>    5.4424    1.0000 </r>
       <r>    6.7188    0.0000 </r>
       <r>    7.0655    0.0000 </r>
       <r>    8.4001    0.0000 </r>
       <r>    8.5151    0.0000 </r>
       <r>    8.6136    0.0000 </r>
       <r>    9.1703    0.0000 </r>
       <r>    9.2913    0.0000 </r>
       <r>    9.7576    0.0000 </r>
       <r>   10.4324    0.0000 </r>
       <r>   10.6037    0.0000 </r>
       <r>   10.7012    0.0000 </r>
       <r>   10.8711    0.0000 </r>
       <r>   11.4643    0.0000 </r>
       <r>   11.5055    0.0000 </r>
       <r>   12.1438    0.0000 </r>
       <r>   12.6652    0.0000 </r>
       <r>   13.1514    0.0000 </r>
       <r>   13.4867    0.0000 </r>
       <r>   14.7112    0.0000 </r>
       <r>   14.7800    0.0000 </r>
       <r>   15.3758    0.0000 </r>
       <r>   15.3922    0.0000 </r>
       <r>   15.5756    0.0000 </r>
       <r>   16.1325    0.0000 </r>
      </set>
      <set comment="kpoint 15">
       <r>  -15.4059    1.0000 </r>
       <r>  -15.3969    1.0000 </r>
       <r>  -15.3962    1.0000 </r>
       <r>  -15.3937    1.0000 </r>
       <r>  -15.3929    1.0000 </r>
       <r>  -15.3917    1.0000 </r>
       <r>  -15.3880    1.0000 </r>
       <r>  -15.3873    1.0000 </r>
       <r>  -15.3848    1.0000 </r>
       <r>  -15.3844    1.0000 </r>
       <r>  -15.3742    1.0000 </r>
       <r>  -15.3665    1.0000 </r>
       <r>  -15.3623    1.0000 </r>
       <r>  -15.3576    1.0000 </r>
       <r>  -15.3395    1.0000 </r>
       <r>  -15.3376    1.0000 </r>
       <r>  -15.3331    1.0000 </r>
       <r>  -15.3313    1.0000 </r>
       <r>  -15.3155    1.0000 </r>
       <r>  -15.3106    1.0000 </r>
       <r>   -7.8268    1.0000 </r>
       <r>   -7.4675    1.0000 </r>
       <r>   -6.9502    1.0000 </r>
       <r>   -6.5162    1.0000 </r>
       <r>   -1.9284    1.0000 </r>
       <r>   -0.9284    1.0000 </r>
       <r>   -0.5384    1.0000 </r>
       <r>   -0.2916    1.0000 </r>
       <r>    0.9517    1.0000 </r>
       <r>    1.7330    1.0000 </r>
       <r>    2.0552    1.0000 </r>
       <r>    2.9260    1.0000 </r>
       <r>    3.3647    1.0000 </r>
       <r>    3.6155    1.0000 </r>
       <r>    3.7048    1.0000 </r>
       <r>    4.0789    1.0000 </r>
       <r>    4.7725    1.0000 </r>
       <r>    5.0777    1.0000 </r>
       <r>    5.2237    1.0000 </r>
       <r>    5.4635    1.0000 </r>
       <r>    6.7567    0.0000 </r>
       <r>    7.1361    0.0000 </r>
       <r>    7.6694    0.0000 </r>
       <r>    7.8103    0.0000 </r>
       <r>    8.9378    0.0000 </r>
       <r>    9.0345    0.0000 </r>
       <r>    9.6420    0.0000 </r>
       <r>    9.9059    0.0000 </r>
       <r>   10.4781    0.0000 </r>
       <r>   10.5712    0.0000 </r>
       <r>   10.7344    0.0000 </r>
       <r>   11.3960    0.0000 </r>
       <r>   11.4346    0.0000 </r>
       <r>   12.4291    0.0000 </r>
       <r>   12.4593    0.0000 </r>
       <r>   12.9260    0.0000 </r>
       <r>   13.3401    0.0000 </r>
       <r>   13.8725    0.0000 </r>
       <r>   13.9796    0.0000 </r>
       <r>   14.3633    0.0000 </r>
       <r>   14.7726    0.0000 </r>
       <r>   15.5273    0.0000 </r>
       <r>   15.7027    0.0000 </r>
       <r>   15.9686    0.0000 </r>
      </set>
      <set comment="kpoint 16">
       <r>  -15.4057    1.0000 </r>
       <r>  -15.3971    1.0000 </r>
       <r>  -15.3963    1.0000 </r>
       <r>  -15.3937    1.0000 </r>
       <r>  -15.3926    1.0000 </r>
       <r>  -15.3919    1.0000 </r>
       <r>  -15.3879    1.0000 </r>
       <r>  -15.3873    1.0000 </r>
       <r>  -15.3849    1.0000 </r>
       <r>  -15.3843    1.0000 </r>
       <r>  -15.3741    1.0000 </r>
       <r>  -15.3665    1.0000 </r>
       <r>  -15.3622    1.0000 </r>
       <r>  -15.3578    1.0000 </r>
       <r>  -15.3398    1.0000 </r>
       <r>  -15.3373    1.0000 </r>
       <r>  -15.3330    1.0000 </r>
       <r>  -15.3313    1.0000 </r>
       <r>  -15.3155    1.0000 </r>
       <r>  -15.3106    1.0000 </r>
       <r>   -7.8268    1.0000 </r>
       <r>   -7.4675    1.0000 </r>
       <r>   -6.9502    1.0000 </r>
       <r>   -6.5162    1.0000 </r>
       <r>   -1.9295    1.0000 </r>
       <r>   -0.9272    1.0000 </r>
       <r>   -0.5465    1.0000 </r>
       <r>   -0.2829    1.0000 </r>
       <r>    0.9522    1.0000 </r>
       <r>    1.7322    1.0000 </r>
       <r>    2.0580    1.0000 </r>
       <r>    2.9250    1.0000 </r>
       <r>    3.3654    1.0000 </r>
       <r>    3.6160    1.0000 </r>
       <r>    3.6994    1.0000 </r>
       <r>    4.0802    1.0000 </r>
       <r>    4.7710    1.0000 </r>
       <r>    5.0724    1.0000 </r>
       <r>    5.2322    1.0000 </r>
       <r>    5.4613    1.0000 </r>
       <r>    6.7559    0.0000 </r>
       <r>    7.1372    0.0000 </r>
       <r>    7.6703    0.0000 </r>
       <r>    7.8080    0.0000 </r>
       <r>    8.9419    0.0000 </r>
       <r>    9.0347    0.0000 </r>
       <r>    9.6458    0.0000 </r>
       <r>    9.9049    0.0000 </r>
       <r>   10.4764    0.0000 </r>
       <r>   10.5590    0.0000 </r>
       <r>   10.7396    0.0000 </r>
       <r>   11.4039    0.0000 </r>
       <r>   11.4371    0.0000 </r>
       <r>   12.4236    0.0000 </r>
       <r>   12.4526    0.0000 </r>
       <r>   12.9229    0.0000 </r>
       <r>   13.3443    0.0000 </r>
       <r>   13.8769    0.0000 </r>
       <r>   13.9789    0.0000 </r>
       <r>   14.3612    0.0000 </r>
       <r>   14.7755    0.0000 </r>
       <r>   15.5300    0.0000 </r>
       <r>   15.7071    0.0000 </r>
       <r>   15.9640    0.0000 </r>
      </set>
      <set comment="kpoint 17">
       <r>  -15.4077    1.0000 </r>
       <r>  -15.4005    1.0000 </r>
       <r>  -15.3964    1.0000 </r>
       <r>  -15.3954    1.0000 </r>
       <r>  -15.3930    1.0000 </r>
       <r>  -15.3913    1.0000 </r>
       <r>  -15.3889    1.0000 </r>
       <r>  -15.3861    1.0000 </r>
       <r>  -15.3846    1.0000 </r>
       <r>  -15.3844    1.0000 </r>
       <r>  -15.3715    1.0000 </r>
       <r>  -15.3627    1.0000 </r>
       <r>  -15.3623    1.0000 </r>
       <r>  -15.3556    1.0000 </r>
       <r>  -15.3393    1.0000 </r>
       <r>  -15.3364    1.0000 </r>
       <r>  -15.3335    1.0000 </r>
       <r>  -15.3324    1.0000 </r>
       <r>  -15.3148    1.0000 </r>
       <r>  -15.3110    1.0000 </r>
       <r>   -7.6312    1.0000 </r>
       <r>   -7.2936    1.0000 </r>
       <r>   -6.9116    1.0000 </r>
       <r>   -6.5354    1.0000 </r>
       <r>   -2.1187    1.0000 </r>
       <r>   -1.0383    1.0000 </r>
       <r>   -0.8571    1.0000 </r>
       <r>   -0.3845    1.0000 </r>
       <r>    1.1879    1.0000 </r>
       <r>    1.3009    1.0000 </r>
       <r>    1.5628    1.0000 </r>
       <r>    2.7006    1.0000 </r>
       <r>    2.8116    1.0000 </r>
       <r>    3.7943    1.0000 </r>
       <r>    3.9180    1.0000 </r>
       <r>    4.2888    1.0000 </r>
       <r>    4.6922    1.0000 </r>
       <r>    4.9482    1.0000 </r>
       <r>    5.0574    1.0000 </r>
       <r>    5.3082    1.0000 </r>
       <r>    6.7304    0.0000 </r>
       <r>    7.1911    0.0000 </r>
       <r>    7.8392    0.0000 </r>
       <r>    8.2812    0.0000 </r>
       <r>    8.5163    0.0000 </r>
       <r>    8.9647    0.0000 </r>
       <r>    9.3069    0.0000 </r>
       <r>   10.3343    0.0000 </r>
       <r>   10.8340    0.0000 </r>
       <r>   10.9626    0.0000 </r>
       <r>   11.0208    0.0000 </r>
       <r>   11.4360    0.0000 </r>
       <r>   11.6769    0.0000 </r>
       <r>   12.7368    0.0000 </r>
       <r>   12.9930    0.0000 </r>
       <r>   13.2354    0.0000 </r>
       <r>   13.8136    0.0000 </r>
       <r>   13.9026    0.0000 </r>
       <r>   14.1839    0.0000 </r>
       <r>   14.7089    0.0000 </r>
       <r>   15.1749    0.0000 </r>
       <r>   15.3737    0.0000 </r>
       <r>   16.0619    0.0000 </r>
       <r>   16.1535    0.0000 </r>
      </set>
      <set comment="kpoint 18">
       <r>  -15.4075    1.0000 </r>
       <r>  -15.4006    1.0000 </r>
       <r>  -15.3967    1.0000 </r>
       <r>  -15.3954    1.0000 </r>
       <r>  -15.3932    1.0000 </r>
       <r>  -15.3910    1.0000 </r>
       <r>  -15.3889    1.0000 </r>
       <r>  -15.3864    1.0000 </r>
       <r>  -15.3848    1.0000 </r>
       <r>  -15.3840    1.0000 </r>
       <r>  -15.3713    1.0000 </r>
       <r>  -15.3628    1.0000 </r>
       <r>  -15.3623    1.0000 </r>
       <r>  -15.3557    1.0000 </r>
       <r>  -15.3396    1.0000 </r>
       <r>  -15.3361    1.0000 </r>
       <r>  -15.3332    1.0000 </r>
       <r>  -15.3326    1.0000 </r>
       <r>  -15.3148    1.0000 </r>
       <r>  -15.3111    1.0000 </r>
       <r>   -7.6311    1.0000 </r>
       <r>   -7.2936    1.0000 </r>
       <r>   -6.9116    1.0000 </r>
       <r>   -6.5353    1.0000 </r>
       <r>   -2.1197    1.0000 </r>
       <r>   -1.0425    1.0000 </r>
       <r>   -0.8561    1.0000 </r>
       <r>   -0.3792    1.0000 </r>
       <r>    1.1883    1.0000 </r>
       <r>    1.3007    1.0000 </r>
       <r>    1.5650    1.0000 </r>
       <r>    2.6958    1.0000 </r>
       <r>    2.8155    1.0000 </r>
       <r>    3.7858    1.0000 </r>
       <r>    3.9182    1.0000 </r>
       <r>    4.2949    1.0000 </r>
       <r>    4.7001    1.0000 </r>
       <r>    4.9385    1.0000 </r>
       <r>    5.0508    1.0000 </r>
       <r>    5.3149    1.0000 </r>
       <r>    6.7311    0.0000 </r>
       <r>    7.1914    0.0000 </r>
       <r>    7.8376    0.0000 </r>
       <r>    8.2794    0.0000 </r>
       <r>    8.5167    0.0000 </r>
       <r>    8.9664    0.0000 </r>
       <r>    9.3117    0.0000 </r>
       <r>   10.3356    0.0000 </r>
       <r>   10.8372    0.0000 </r>
       <r>   10.9520    0.0000 </r>
       <r>   11.0186    0.0000 </r>
       <r>   11.4323    0.0000 </r>
       <r>   11.6876    0.0000 </r>
       <r>   12.7355    0.0000 </r>
       <r>   12.9848    0.0000 </r>
       <r>   13.2417    0.0000 </r>
       <r>   13.8079    0.0000 </r>
       <r>   13.9012    0.0000 </r>
       <r>   14.1860    0.0000 </r>
       <r>   14.7164    0.0000 </r>
       <r>   15.1799    0.0000 </r>
       <r>   15.3671    0.0000 </r>
       <r>   16.0594    0.0000 </r>
       <r>   16.1580    0.0000 </r>
      </set>
      <set comment="kpoint 19">
       <r>  -15.4092    1.0000 </r>
       <r>  -15.4053    1.0000 </r>
       <r>  -15.3975    1.0000 </r>
       <r>  -15.3969    1.0000 </r>
       <r>  -15.3934    1.0000 </r>
       <r>  -15.3907    1.0000 </r>
       <r>  -15.3902    1.0000 </r>
       <r>  -15.3876    1.0000 </r>
       <r>  -15.3825    1.0000 </r>
       <r>  -15.3825    1.0000 </r>
       <r>  -15.3683    1.0000 </r>
       <r>  -15.3634    1.0000 </r>
       <r>  -15.3579    1.0000 </r>
       <r>  -15.3544    1.0000 </r>
       <r>  -15.3379    1.0000 </r>
       <r>  -15.3350    1.0000 </r>
       <r>  -15.3345    1.0000 </r>
       <r>  -15.3331    1.0000 </r>
       <r>  -15.3138    1.0000 </r>
       <r>  -15.3117    1.0000 </r>
       <r>   -7.3582    1.0000 </r>
       <r>   -7.0494    1.0000 </r>
       <r>   -6.9369    1.0000 </r>
       <r>   -6.6208    1.0000 </r>
       <r>   -2.2581    1.0000 </r>
       <r>   -1.6721    1.0000 </r>
       <r>   -0.8335    1.0000 </r>
       <r>   -0.5598    1.0000 </r>
       <r>    1.3659    1.0000 </r>
       <r>    1.5567    1.0000 </r>
       <r>    1.5905    1.0000 </r>
       <r>    2.5135    1.0000 </r>
       <r>    2.6300    1.0000 </r>
       <r>    3.3031    1.0000 </r>
       <r>    3.4383    1.0000 </r>
       <r>    4.0720    1.0000 </r>
       <r>    4.3396    1.0000 </r>
       <r>    4.8236    1.0000 </r>
       <r>    4.8318    1.0000 </r>
       <r>    5.3063    1.0000 </r>
       <r>    6.5261    0.0000 </r>
       <r>    7.7976    0.0000 </r>
       <r>    7.9291    0.0000 </r>
       <r>    8.8424    0.0000 </r>
       <r>    9.0009    0.0000 </r>
       <r>    9.3110    0.0000 </r>
       <r>    9.5332    0.0000 </r>
       <r>   10.5047    0.0000 </r>
       <r>   10.6357    0.0000 </r>
       <r>   11.0086    0.0000 </r>
       <r>   11.1057    0.0000 </r>
       <r>   11.5331    0.0000 </r>
       <r>   11.5891    0.0000 </r>
       <r>   11.8925    0.0000 </r>
       <r>   12.9419    0.0000 </r>
       <r>   13.7449    0.0000 </r>
       <r>   14.0170    0.0000 </r>
       <r>   14.5272    0.0000 </r>
       <r>   15.0452    0.0000 </r>
       <r>   15.6915    0.0000 </r>
       <r>   15.8538    0.0000 </r>
       <r>   16.2518    0.0000 </r>
       <r>   16.4111    0.0000 </r>
       <r>   16.8726    0.0000 </r>
      </set>
      <set comment="kpoint 20">
       <r>  -15.4090    1.0000 </r>
       <r>  -15.4055    1.0000 </r>
       <r>  -15.3974    1.0000 </r>
       <r>  -15.3972    1.0000 </r>
       <r>  -15.3936    1.0000 </r>
       <r>  -15.3903    1.0000 </r>
       <r>  -15.3901    1.0000 </r>
       <r>  -15.3879    1.0000 </r>
       <r>  -15.3828    1.0000 </r>
       <r>  -15.3822    1.0000 </r>
       <r>  -15.3680    1.0000 </r>
       <r>  -15.3635    1.0000 </r>
       <r>  -15.3579    1.0000 </r>
       <r>  -15.3545    1.0000 </r>
       <r>  -15.3382    1.0000 </r>
       <r>  -15.3348    1.0000 </r>
       <r>  -15.3341    1.0000 </r>
       <r>  -15.3334    1.0000 </r>
       <r>  -15.3138    1.0000 </r>
       <r>  -15.3118    1.0000 </r>
       <r>   -7.3582    1.0000 </r>
       <r>   -7.0494    1.0000 </r>
       <r>   -6.9369    1.0000 </r>
       <r>   -6.6208    1.0000 </r>
       <r>   -2.2584    1.0000 </r>
       <r>   -1.6739    1.0000 </r>
       <r>   -0.8336    1.0000 </r>
       <r>   -0.5572    1.0000 </r>
       <r>    1.3685    1.0000 </r>
       <r>    1.5570    1.0000 </r>
       <r>    1.5903    1.0000 </r>
       <r>    2.5102    1.0000 </r>
       <r>    2.6317    1.0000 </r>
       <r>    3.2977    1.0000 </r>
       <r>    3.4384    1.0000 </r>
       <r>    4.0749    1.0000 </r>
       <r>    4.3480    1.0000 </r>
       <r>    4.8147    1.0000 </r>
       <r>    4.8262    1.0000 </r>
       <r>    5.3136    1.0000 </r>
       <r>    6.5250    0.0000 </r>
       <r>    7.7973    0.0000 </r>
       <r>    7.9293    0.0000 </r>
       <r>    8.8383    0.0000 </r>
       <r>    9.0039    0.0000 </r>
       <r>    9.3136    0.0000 </r>
       <r>    9.5370    0.0000 </r>
       <r>   10.5018    0.0000 </r>
       <r>   10.6252    0.0000 </r>
       <r>   11.0198    0.0000 </r>
       <r>   11.0982    0.0000 </r>
       <r>   11.5437    0.0000 </r>
       <r>   11.5857    0.0000 </r>
       <r>   11.8924    0.0000 </r>
       <r>   12.9365    0.0000 </r>
       <r>   13.7457    0.0000 </r>
       <r>   14.0199    0.0000 </r>
       <r>   14.5270    0.0000 </r>
       <r>   15.0410    0.0000 </r>
       <r>   15.7006    0.0000 </r>
       <r>   15.8541    0.0000 </r>
       <r>   16.2498    0.0000 </r>
       <r>   16.4148    0.0000 </r>
       <r>   16.8668    0.0000 </r>
      </set>
      <set comment="kpoint 21">
       <r>  -15.4086    1.0000 </r>
       <r>  -15.4085    1.0000 </r>
       <r>  -15.3983    1.0000 </r>
       <r>  -15.3981    1.0000 </r>
       <r>  -15.3919    1.0000 </r>
       <r>  -15.3918    1.0000 </r>
       <r>  -15.3895    1.0000 </r>
       <r>  -15.3892    1.0000 </r>
       <r>  -15.3818    1.0000 </r>
       <r>  -15.3815    1.0000 </r>
       <r>  -15.3653    1.0000 </r>
       <r>  -15.3651    1.0000 </r>
       <r>  -15.3551    1.0000 </r>
       <r>  -15.3551    1.0000 </r>
       <r>  -15.3362    1.0000 </r>
       <r>  -15.3358    1.0000 </r>
       <r>  -15.3339    1.0000 </r>
       <r>  -15.3337    1.0000 </r>
       <r>  -15.3127    1.0000 </r>
       <r>  -15.3127    1.0000 </r>
       <r>   -7.0945    1.0000 </r>
       <r>   -7.0945    1.0000 </r>
       <r>   -6.8017    1.0000 </r>
       <r>   -6.8017    1.0000 </r>
       <r>   -2.1275    1.0000 </r>
       <r>   -2.1270    1.0000 </r>
       <r>   -0.7548    1.0000 </r>
       <r>   -0.7536    1.0000 </r>
       <r>    1.6991    1.0000 </r>
       <r>    1.7011    1.0000 </r>
       <r>    1.9802    1.0000 </r>
       <r>    1.9807    1.0000 </r>
       <r>    2.7641    1.0000 </r>
       <r>    2.7668    1.0000 </r>
       <r>    3.4987    1.0000 </r>
       <r>    3.4988    1.0000 </r>
       <r>    4.5103    1.0000 </r>
       <r>    4.5175    1.0000 </r>
       <r>    5.0035    1.0000 </r>
       <r>    5.0127    1.0000 </r>
       <r>    7.0658    0.0000 </r>
       <r>    7.0671    0.0000 </r>
       <r>    8.6242    0.0000 </r>
       <r>    8.6253    0.0000 </r>
       <r>    9.6237    0.0000 </r>
       <r>    9.6293    0.0000 </r>
       <r>   10.1864    0.0000 </r>
       <r>   10.1887    0.0000 </r>
       <r>   10.5532    0.0000 </r>
       <r>   10.5590    0.0000 </r>
       <r>   11.2328    0.0000 </r>
       <r>   11.2410    0.0000 </r>
       <r>   11.6167    0.0000 </r>
       <r>   11.6269    0.0000 </r>
       <r>   13.2172    0.0000 </r>
       <r>   13.2209    0.0000 </r>
       <r>   15.2712    0.0000 </r>
       <r>   15.2744    0.0000 </r>
       <r>   15.7359    0.0000 </r>
       <r>   15.7363    0.0000 </r>
       <r>   16.0909    0.0000 </r>
       <r>   16.0931    0.0000 </r>
       <r>   17.0434    0.0000 </r>
       <r>   17.0442    0.0000 </r>
      </set>
      <set comment="kpoint 22">
       <r>  -15.4020    1.0000 </r>
       <r>  -15.3984    1.0000 </r>
       <r>  -15.3977    1.0000 </r>
       <r>  -15.3949    1.0000 </r>
       <r>  -15.3912    1.0000 </r>
       <r>  -15.3899    1.0000 </r>
       <r>  -15.3883    1.0000 </r>
       <r>  -15.3882    1.0000 </r>
       <r>  -15.3860    1.0000 </r>
       <r>  -15.3784    1.0000 </r>
       <r>  -15.3727    1.0000 </r>
       <r>  -15.3645    1.0000 </r>
       <r>  -15.3618    1.0000 </r>
       <r>  -15.3546    1.0000 </r>
       <r>  -15.3417    1.0000 </r>
       <r>  -15.3401    1.0000 </r>
       <r>  -15.3335    1.0000 </r>
       <r>  -15.3266    1.0000 </r>
       <r>  -15.3167    1.0000 </r>
       <r>  -15.3151    1.0000 </r>
       <r>   -7.5799    1.0000 </r>
       <r>   -7.2871    1.0000 </r>
       <r>   -6.8842    1.0000 </r>
       <r>   -6.6195    1.0000 </r>
       <r>   -2.1428    1.0000 </r>
       <r>   -1.3763    1.0000 </r>
       <r>   -1.2897    1.0000 </r>
       <r>   -0.7056    1.0000 </r>
       <r>    1.2290    1.0000 </r>
       <r>    2.7128    1.0000 </r>
       <r>    2.9625    1.0000 </r>
       <r>    3.1495    1.0000 </r>
       <r>    3.2470    1.0000 </r>
       <r>    3.4964    1.0000 </r>
       <r>    4.1048    1.0000 </r>
       <r>    4.2222    1.0000 </r>
       <r>    4.5820    1.0000 </r>
       <r>    4.9746    1.0000 </r>
       <r>    5.1147    1.0000 </r>
       <r>    5.7521    1.0000 </r>
       <r>    6.3139    0.0000 </r>
       <r>    7.0807    0.0000 </r>
       <r>    7.5272    0.0000 </r>
       <r>    7.6206    0.0000 </r>
       <r>    7.8414    0.0000 </r>
       <r>    8.3533    0.0000 </r>
       <r>    8.4237    0.0000 </r>
       <r>    9.2771    0.0000 </r>
       <r>    9.6851    0.0000 </r>
       <r>    9.8882    0.0000 </r>
       <r>   10.7334    0.0000 </r>
       <r>   11.1015    0.0000 </r>
       <r>   12.1139    0.0000 </r>
       <r>   12.6863    0.0000 </r>
       <r>   12.8347    0.0000 </r>
       <r>   13.1278    0.0000 </r>
       <r>   13.9977    0.0000 </r>
       <r>   14.1093    0.0000 </r>
       <r>   14.1565    0.0000 </r>
       <r>   14.6577    0.0000 </r>
       <r>   15.3732    0.0000 </r>
       <r>   15.4878    0.0000 </r>
       <r>   15.8763    0.0000 </r>
       <r>   16.4899    0.0000 </r>
      </set>
      <set comment="kpoint 23">
       <r>  -15.4052    1.0000 </r>
       <r>  -15.4012    1.0000 </r>
       <r>  -15.3981    1.0000 </r>
       <r>  -15.3960    1.0000 </r>
       <r>  -15.3913    1.0000 </r>
       <r>  -15.3890    1.0000 </r>
       <r>  -15.3882    1.0000 </r>
       <r>  -15.3861    1.0000 </r>
       <r>  -15.3852    1.0000 </r>
       <r>  -15.3787    1.0000 </r>
       <r>  -15.3721    1.0000 </r>
       <r>  -15.3646    1.0000 </r>
       <r>  -15.3604    1.0000 </r>
       <r>  -15.3537    1.0000 </r>
       <r>  -15.3412    1.0000 </r>
       <r>  -15.3397    1.0000 </r>
       <r>  -15.3335    1.0000 </r>
       <r>  -15.3271    1.0000 </r>
       <r>  -15.3165    1.0000 </r>
       <r>  -15.3150    1.0000 </r>
       <r>   -7.5167    1.0000 </r>
       <r>   -7.2320    1.0000 </r>
       <r>   -6.8590    1.0000 </r>
       <r>   -6.6053    1.0000 </r>
       <r>   -2.0996    1.0000 </r>
       <r>   -1.2838    1.0000 </r>
       <r>   -1.2277    1.0000 </r>
       <r>   -0.7439    1.0000 </r>
       <r>    1.3165    1.0000 </r>
       <r>    1.8247    1.0000 </r>
       <r>    2.2148    1.0000 </r>
       <r>    2.9610    1.0000 </r>
       <r>    3.4347    1.0000 </r>
       <r>    3.4993    1.0000 </r>
       <r>    4.0450    1.0000 </r>
       <r>    4.0649    1.0000 </r>
       <r>    4.6567    1.0000 </r>
       <r>    5.0369    1.0000 </r>
       <r>    5.1265    1.0000 </r>
       <r>    5.2326    1.0000 </r>
       <r>    6.8940    0.0000 </r>
       <r>    6.9944    0.0000 </r>
       <r>    7.0764    0.0000 </r>
       <r>    7.4280    0.0000 </r>
       <r>    8.4771    0.0000 </r>
       <r>    8.8424    0.0000 </r>
       <r>    9.0809    0.0000 </r>
       <r>    9.4092    0.0000 </r>
       <r>   10.1393    0.0000 </r>
       <r>   10.5806    0.0000 </r>
       <r>   10.8513    0.0000 </r>
       <r>   10.9809    0.0000 </r>
       <r>   11.7081    0.0000 </r>
       <r>   12.9090    0.0000 </r>
       <r>   13.0047    0.0000 </r>
       <r>   13.1788    0.0000 </r>
       <r>   13.8123    0.0000 </r>
       <r>   14.1478    0.0000 </r>
       <r>   14.2820    0.0000 </r>
       <r>   14.7288    0.0000 </r>
       <r>   15.3031    0.0000 </r>
       <r>   16.0269    0.0000 </r>
       <r>   16.4404    0.0000 </r>
       <r>   16.5737    0.0000 </r>
      </set>
      <set comment="kpoint 24">
       <r>  -15.4051    1.0000 </r>
       <r>  -15.4012    1.0000 </r>
       <r>  -15.3981    1.0000 </r>
       <r>  -15.3962    1.0000 </r>
       <r>  -15.3908    1.0000 </r>
       <r>  -15.3891    1.0000 </r>
       <r>  -15.3884    1.0000 </r>
       <r>  -15.3864    1.0000 </r>
       <r>  -15.3850    1.0000 </r>
       <r>  -15.3786    1.0000 </r>
       <r>  -15.3721    1.0000 </r>
       <r>  -15.3646    1.0000 </r>
       <r>  -15.3604    1.0000 </r>
       <r>  -15.3538    1.0000 </r>
       <r>  -15.3412    1.0000 </r>
       <r>  -15.3396    1.0000 </r>
       <r>  -15.3335    1.0000 </r>
       <r>  -15.3271    1.0000 </r>
       <r>  -15.3165    1.0000 </r>
       <r>  -15.3150    1.0000 </r>
       <r>   -7.5167    1.0000 </r>
       <r>   -7.2320    1.0000 </r>
       <r>   -6.8590    1.0000 </r>
       <r>   -6.6052    1.0000 </r>
       <r>   -2.1005    1.0000 </r>
       <r>   -1.2829    1.0000 </r>
       <r>   -1.2305    1.0000 </r>
       <r>   -0.7407    1.0000 </r>
       <r>    1.3169    1.0000 </r>
       <r>    1.8241    1.0000 </r>
       <r>    2.2179    1.0000 </r>
       <r>    2.9610    1.0000 </r>
       <r>    3.4344    1.0000 </r>
       <r>    3.4941    1.0000 </r>
       <r>    4.0457    1.0000 </r>
       <r>    4.0651    1.0000 </r>
       <r>    4.6573    1.0000 </r>
       <r>    5.0350    1.0000 </r>
       <r>    5.1308    1.0000 </r>
       <r>    5.2299    1.0000 </r>
       <r>    6.8945    0.0000 </r>
       <r>    6.9944    0.0000 </r>
       <r>    7.0756    0.0000 </r>
       <r>    7.4283    0.0000 </r>
       <r>    8.4776    0.0000 </r>
       <r>    8.8423    0.0000 </r>
       <r>    9.0837    0.0000 </r>
       <r>    9.4093    0.0000 </r>
       <r>   10.1277    0.0000 </r>
       <r>   10.5888    0.0000 </r>
       <r>   10.8472    0.0000 </r>
       <r>   10.9925    0.0000 </r>
       <r>   11.7005    0.0000 </r>
       <r>   12.9106    0.0000 </r>
       <r>   13.0055    0.0000 </r>
       <r>   13.1768    0.0000 </r>
       <r>   13.8163    0.0000 </r>
       <r>   14.1483    0.0000 </r>
       <r>   14.2754    0.0000 </r>
       <r>   14.7268    0.0000 </r>
       <r>   15.3097    0.0000 </r>
       <r>   16.0235    0.0000 </r>
       <r>   16.4380    0.0000 </r>
       <r>   16.5741    0.0000 </r>
      </set>
      <set comment="kpoint 25">
       <r>  -15.4109    1.0000 </r>
       <r>  -15.4069    1.0000 </r>
       <r>  -15.4010    1.0000 </r>
       <r>  -15.3997    1.0000 </r>
       <r>  -15.3916    1.0000 </r>
       <r>  -15.3883    1.0000 </r>
       <r>  -15.3861    1.0000 </r>
       <r>  -15.3832    1.0000 </r>
       <r>  -15.3829    1.0000 </r>
       <r>  -15.3795    1.0000 </r>
       <r>  -15.3704    1.0000 </r>
       <r>  -15.3645    1.0000 </r>
       <r>  -15.3569    1.0000 </r>
       <r>  -15.3521    1.0000 </r>
       <r>  -15.3398    1.0000 </r>
       <r>  -15.3385    1.0000 </r>
       <r>  -15.3333    1.0000 </r>
       <r>  -15.3284    1.0000 </r>
       <r>  -15.3161    1.0000 </r>
       <r>  -15.3148    1.0000 </r>
       <r>   -7.3436    1.0000 </r>
       <r>   -7.0821    1.0000 </r>
       <r>   -6.8095    1.0000 </r>
       <r>   -6.5825    1.0000 </r>
       <r>   -2.0002    1.0000 </r>
       <r>   -1.1520    1.0000 </r>
       <r>   -1.0321    1.0000 </r>
       <r>   -0.8239    1.0000 </r>
       <r>    1.0348    1.0000 </r>
       <r>    1.4456    1.0000 </r>
       <r>    1.5452    1.0000 </r>
       <r>    2.2874    1.0000 </r>
       <r>    2.5723    1.0000 </r>
       <r>    3.4104    1.0000 </r>
       <r>    3.5002    1.0000 </r>
       <r>    3.9480    1.0000 </r>
       <r>    4.2824    1.0000 </r>
       <r>    4.3750    1.0000 </r>
       <r>    4.7372    1.0000 </r>
       <r>    5.2743    1.0000 </r>
       <r>    6.4017    0.0000 </r>
       <r>    7.8302    0.0000 </r>
       <r>    8.2090    0.0000 </r>
       <r>    8.5332    0.0000 </r>
       <r>    8.8355    0.0000 </r>
       <r>    9.2975    0.0000 </r>
       <r>    9.7955    0.0000 </r>
       <r>   10.2499    0.0000 </r>
       <r>   10.6235    0.0000 </r>
       <r>   10.7615    0.0000 </r>
       <r>   11.3884    0.0000 </r>
       <r>   11.5112    0.0000 </r>
       <r>   11.7511    0.0000 </r>
       <r>   11.8039    0.0000 </r>
       <r>   13.2802    0.0000 </r>
       <r>   14.0072    0.0000 </r>
       <r>   14.0859    0.0000 </r>
       <r>   14.1974    0.0000 </r>
       <r>   14.9133    0.0000 </r>
       <r>   15.2605    0.0000 </r>
       <r>   15.9075    0.0000 </r>
       <r>   15.9363    0.0000 </r>
       <r>   16.1474    0.0000 </r>
       <r>   16.7193    0.0000 </r>
      </set>
      <set comment="kpoint 26">
       <r>  -15.4108    1.0000 </r>
       <r>  -15.4070    1.0000 </r>
       <r>  -15.4010    1.0000 </r>
       <r>  -15.3999    1.0000 </r>
       <r>  -15.3912    1.0000 </r>
       <r>  -15.3886    1.0000 </r>
       <r>  -15.3861    1.0000 </r>
       <r>  -15.3832    1.0000 </r>
       <r>  -15.3829    1.0000 </r>
       <r>  -15.3794    1.0000 </r>
       <r>  -15.3703    1.0000 </r>
       <r>  -15.3646    1.0000 </r>
       <r>  -15.3569    1.0000 </r>
       <r>  -15.3522    1.0000 </r>
       <r>  -15.3398    1.0000 </r>
       <r>  -15.3385    1.0000 </r>
       <r>  -15.3334    1.0000 </r>
       <r>  -15.3282    1.0000 </r>
       <r>  -15.3160    1.0000 </r>
       <r>  -15.3149    1.0000 </r>
       <r>   -7.3436    1.0000 </r>
       <r>   -7.0822    1.0000 </r>
       <r>   -6.8095    1.0000 </r>
       <r>   -6.5824    1.0000 </r>
       <r>   -2.0014    1.0000 </r>
       <r>   -1.1599    1.0000 </r>
       <r>   -1.0307    1.0000 </r>
       <r>   -0.8151    1.0000 </r>
       <r>    1.0336    1.0000 </r>
       <r>    1.4486    1.0000 </r>
       <r>    1.5457    1.0000 </r>
       <r>    2.2872    1.0000 </r>
       <r>    2.5701    1.0000 </r>
       <r>    3.4111    1.0000 </r>
       <r>    3.4939    1.0000 </r>
       <r>    3.9531    1.0000 </r>
       <r>    4.2831    1.0000 </r>
       <r>    4.3741    1.0000 </r>
       <r>    4.7316    1.0000 </r>
       <r>    5.2809    1.0000 </r>
       <r>    6.4000    0.0000 </r>
       <r>    7.8306    0.0000 </r>
       <r>    8.2083    0.0000 </r>
       <r>    8.5321    0.0000 </r>
       <r>    8.8362    0.0000 </r>
       <r>    9.2957    0.0000 </r>
       <r>    9.7995    0.0000 </r>
       <r>   10.2548    0.0000 </r>
       <r>   10.6190    0.0000 </r>
       <r>   10.7552    0.0000 </r>
       <r>   11.3951    0.0000 </r>
       <r>   11.5087    0.0000 </r>
       <r>   11.7493    0.0000 </r>
       <r>   11.8071    0.0000 </r>
       <r>   13.2768    0.0000 </r>
       <r>   14.0127    0.0000 </r>
       <r>   14.0833    0.0000 </r>
       <r>   14.1951    0.0000 </r>
       <r>   14.9119    0.0000 </r>
       <r>   15.2639    0.0000 </r>
       <r>   15.9040    0.0000 </r>
       <r>   15.9410    0.0000 </r>
       <r>   16.1503    0.0000 </r>
       <r>   16.7124    0.0000 </r>
      </set>
      <set comment="kpoint 27">
       <r>  -15.4152    1.0000 </r>
       <r>  -15.4128    1.0000 </r>
       <r>  -15.4044    1.0000 </r>
       <r>  -15.4038    1.0000 </r>
       <r>  -15.3912    1.0000 </r>
       <r>  -15.3889    1.0000 </r>
       <r>  -15.3839    1.0000 </r>
       <r>  -15.3818    1.0000 </r>
       <r>  -15.3803    1.0000 </r>
       <r>  -15.3801    1.0000 </r>
       <r>  -15.3682    1.0000 </r>
       <r>  -15.3648    1.0000 </r>
       <r>  -15.3530    1.0000 </r>
       <r>  -15.3508    1.0000 </r>
       <r>  -15.3381    1.0000 </r>
       <r>  -15.3373    1.0000 </r>
       <r>  -15.3323    1.0000 </r>
       <r>  -15.3296    1.0000 </r>
       <r>  -15.3155    1.0000 </r>
       <r>  -15.3148    1.0000 </r>
       <r>   -7.1127    1.0000 </r>
       <r>   -6.8835    1.0000 </r>
       <r>   -6.8038    1.0000 </r>
       <r>   -6.6010    1.0000 </r>
       <r>   -1.8863    1.0000 </r>
       <r>   -1.3922    1.0000 </r>
       <r>   -0.7434    1.0000 </r>
       <r>   -0.7173    1.0000 </r>
       <r>    0.7343    1.0000 </r>
       <r>    1.1375    1.0000 </r>
       <r>    1.5534    1.0000 </r>
       <r>    1.8520    1.0000 </r>
       <r>    2.1855    1.0000 </r>
       <r>    2.6778    1.0000 </r>
       <r>    2.9316    1.0000 </r>
       <r>    3.4764    1.0000 </r>
       <r>    3.6080    1.0000 </r>
       <r>    4.1119    1.0000 </r>
       <r>    4.6551    1.0000 </r>
       <r>    4.7880    1.0000 </r>
       <r>    6.8375    0.0000 </r>
       <r>    8.4315    0.0000 </r>
       <r>    8.9531    0.0000 </r>
       <r>    9.1883    0.0000 </r>
       <r>    9.9141    0.0000 </r>
       <r>    9.9244    0.0000 </r>
       <r>   10.3611    0.0000 </r>
       <r>   10.6930    0.0000 </r>
       <r>   10.7318    0.0000 </r>
       <r>   10.9602    0.0000 </r>
       <r>   11.5125    0.0000 </r>
       <r>   11.6265    0.0000 </r>
       <r>   11.8294    0.0000 </r>
       <r>   12.1824    0.0000 </r>
       <r>   12.7349    0.0000 </r>
       <r>   13.4319    0.0000 </r>
       <r>   15.1670    0.0000 </r>
       <r>   15.3290    0.0000 </r>
       <r>   15.7531    0.0000 </r>
       <r>   15.8291    0.0000 </r>
       <r>   16.0729    0.0000 </r>
       <r>   16.5583    0.0000 </r>
       <r>   16.8580    0.0000 </r>
       <r>   17.1856    0.0000 </r>
      </set>
      <set comment="kpoint 28">
       <r>  -15.4151    1.0000 </r>
       <r>  -15.4128    1.0000 </r>
       <r>  -15.4043    1.0000 </r>
       <r>  -15.4039    1.0000 </r>
       <r>  -15.3909    1.0000 </r>
       <r>  -15.3892    1.0000 </r>
       <r>  -15.3840    1.0000 </r>
       <r>  -15.3817    1.0000 </r>
       <r>  -15.3806    1.0000 </r>
       <r>  -15.3799    1.0000 </r>
       <r>  -15.3681    1.0000 </r>
       <r>  -15.3649    1.0000 </r>
       <r>  -15.3530    1.0000 </r>
       <r>  -15.3508    1.0000 </r>
       <r>  -15.3381    1.0000 </r>
       <r>  -15.3374    1.0000 </r>
       <r>  -15.3324    1.0000 </r>
       <r>  -15.3294    1.0000 </r>
       <r>  -15.3155    1.0000 </r>
       <r>  -15.3149    1.0000 </r>
       <r>   -7.1126    1.0000 </r>
       <r>   -6.8836    1.0000 </r>
       <r>   -6.8038    1.0000 </r>
       <r>   -6.6009    1.0000 </r>
       <r>   -1.8869    1.0000 </r>
       <r>   -1.3960    1.0000 </r>
       <r>   -0.7430    1.0000 </r>
       <r>   -0.7120    1.0000 </r>
       <r>    0.7344    1.0000 </r>
       <r>    1.1393    1.0000 </r>
       <r>    1.5517    1.0000 </r>
       <r>    1.8523    1.0000 </r>
       <r>    2.1820    1.0000 </r>
       <r>    2.6809    1.0000 </r>
       <r>    2.9309    1.0000 </r>
       <r>    3.4825    1.0000 </r>
       <r>    3.6003    1.0000 </r>
       <r>    4.1086    1.0000 </r>
       <r>    4.6481    1.0000 </r>
       <r>    4.8003    1.0000 </r>
       <r>    6.8364    0.0000 </r>
       <r>    8.4272    0.0000 </r>
       <r>    8.9531    0.0000 </r>
       <r>    9.1928    0.0000 </r>
       <r>    9.9165    0.0000 </r>
       <r>    9.9267    0.0000 </r>
       <r>   10.3679    0.0000 </r>
       <r>   10.6803    0.0000 </r>
       <r>   10.7326    0.0000 </r>
       <r>   10.9538    0.0000 </r>
       <r>   11.5064    0.0000 </r>
       <r>   11.6366    0.0000 </r>
       <r>   11.8331    0.0000 </r>
       <r>   12.1800    0.0000 </r>
       <r>   12.7304    0.0000 </r>
       <r>   13.4375    0.0000 </r>
       <r>   15.1716    0.0000 </r>
       <r>   15.3292    0.0000 </r>
       <r>   15.7512    0.0000 </r>
       <r>   15.8284    0.0000 </r>
       <r>   16.0765    0.0000 </r>
       <r>   16.5600    0.0000 </r>
       <r>   16.8562    0.0000 </r>
       <r>   17.1866    0.0000 </r>
      </set>
      <set comment="kpoint 29">
       <r>  -15.4160    1.0000 </r>
       <r>  -15.4160    1.0000 </r>
       <r>  -15.4057    1.0000 </r>
       <r>  -15.4056    1.0000 </r>
       <r>  -15.3902    1.0000 </r>
       <r>  -15.3899    1.0000 </r>
       <r>  -15.3826    1.0000 </r>
       <r>  -15.3825    1.0000 </r>
       <r>  -15.3797    1.0000 </r>
       <r>  -15.3794    1.0000 </r>
       <r>  -15.3662    1.0000 </r>
       <r>  -15.3661    1.0000 </r>
       <r>  -15.3508    1.0000 </r>
       <r>  -15.3508    1.0000 </r>
       <r>  -15.3371    1.0000 </r>
       <r>  -15.3371    1.0000 </r>
       <r>  -15.3309    1.0000 </r>
       <r>  -15.3307    1.0000 </r>
       <r>  -15.3150    1.0000 </r>
       <r>  -15.3150    1.0000 </r>
       <r>   -6.9070    1.0000 </r>
       <r>   -6.9070    1.0000 </r>
       <r>   -6.7038    1.0000 </r>
       <r>   -6.7037    1.0000 </r>
       <r>   -1.7022    1.0000 </r>
       <r>   -1.7012    1.0000 </r>
       <r>   -0.6361    1.0000 </r>
       <r>   -0.6338    1.0000 </r>
       <r>    0.9933    1.0000 </r>
       <r>    0.9964    1.0000 </r>
       <r>    1.4247    1.0000 </r>
       <r>    1.4252    1.0000 </r>
       <r>    2.2790    1.0000 </r>
       <r>    2.2798    1.0000 </r>
       <r>    2.9904    1.0000 </r>
       <r>    2.9938    1.0000 </r>
       <r>    3.6481    1.0000 </r>
       <r>    3.6556    1.0000 </r>
       <r>    4.6269    1.0000 </r>
       <r>    4.6376    1.0000 </r>
       <r>    7.6019    0.0000 </r>
       <r>    7.6026    0.0000 </r>
       <r>    9.5171    0.0000 </r>
       <r>    9.5184    0.0000 </r>
       <r>   10.3884    0.0000 </r>
       <r>   10.3964    0.0000 </r>
       <r>   10.7612    0.0000 </r>
       <r>   10.7630    0.0000 </r>
       <r>   10.8780    0.0000 </r>
       <r>   10.8868    0.0000 </r>
       <r>   11.6891    0.0000 </r>
       <r>   11.6910    0.0000 </r>
       <r>   11.9789    0.0000 </r>
       <r>   11.9834    0.0000 </r>
       <r>   12.7731    0.0000 </r>
       <r>   12.7799    0.0000 </r>
       <r>   15.8728    0.0000 </r>
       <r>   15.8822    0.0000 </r>
       <r>   16.4498    0.0000 </r>
       <r>   16.4521    0.0000 </r>
       <r>   16.6474    0.0000 </r>
       <r>   16.6481    0.0000 </r>
       <r>   17.3028    0.0000 </r>
       <r>   17.3033    0.0000 </r>
      </set>
      <set comment="kpoint 30">
       <r>  -15.4042    1.0000 </r>
       <r>  -15.4029    1.0000 </r>
       <r>  -15.3987    1.0000 </r>
       <r>  -15.3970    1.0000 </r>
       <r>  -15.3890    1.0000 </r>
       <r>  -15.3890    1.0000 </r>
       <r>  -15.3879    1.0000 </r>
       <r>  -15.3861    1.0000 </r>
       <r>  -15.3798    1.0000 </r>
       <r>  -15.3729    1.0000 </r>
       <r>  -15.3713    1.0000 </r>
       <r>  -15.3704    1.0000 </r>
       <r>  -15.3549    1.0000 </r>
       <r>  -15.3503    1.0000 </r>
       <r>  -15.3479    1.0000 </r>
       <r>  -15.3460    1.0000 </r>
       <r>  -15.3268    1.0000 </r>
       <r>  -15.3221    1.0000 </r>
       <r>  -15.3204    1.0000 </r>
       <r>  -15.3186    1.0000 </r>
       <r>   -7.2061    1.0000 </r>
       <r>   -7.0433    1.0000 </r>
       <r>   -6.8921    1.0000 </r>
       <r>   -6.8575    1.0000 </r>
       <r>   -2.2108    1.0000 </r>
       <r>   -1.9206    1.0000 </r>
       <r>   -1.4606    1.0000 </r>
       <r>   -1.1994    1.0000 </r>
       <r>    1.7725    1.0000 </r>
       <r>    2.3746    1.0000 </r>
       <r>    3.3421    1.0000 </r>
       <r>    3.5580    1.0000 </r>
       <r>    3.6809    1.0000 </r>
       <r>    3.7588    1.0000 </r>
       <r>    3.8208    1.0000 </r>
       <r>    4.3462    1.0000 </r>
       <r>    4.9224    1.0000 </r>
       <r>    4.9415    1.0000 </r>
       <r>    5.0299    1.0000 </r>
       <r>    5.1731    1.0000 </r>
       <r>    6.8040    0.0000 </r>
       <r>    6.9023    0.0000 </r>
       <r>    7.0080    0.0000 </r>
       <r>    7.3672    0.0000 </r>
       <r>    7.4340    0.0000 </r>
       <r>    7.6425    0.0000 </r>
       <r>    8.1860    0.0000 </r>
       <r>    8.5768    0.0000 </r>
       <r>    8.9519    0.0000 </r>
       <r>    9.1305    0.0000 </r>
       <r>   10.9501    0.0000 </r>
       <r>   11.1195    0.0000 </r>
       <r>   12.7616    0.0000 </r>
       <r>   12.9539    0.0000 </r>
       <r>   13.3696    0.0000 </r>
       <r>   13.5828    0.0000 </r>
       <r>   14.4762    0.0000 </r>
       <r>   14.9075    0.0000 </r>
       <r>   15.1405    0.0000 </r>
       <r>   15.6610    0.0000 </r>
       <r>   15.7458    0.0000 </r>
       <r>   16.2562    0.0000 </r>
       <r>   16.5654    0.0000 </r>
       <r>   16.7163    0.0000 </r>
      </set>
      <set comment="kpoint 31">
       <r>  -15.4072    1.0000 </r>
       <r>  -15.4057    1.0000 </r>
       <r>  -15.4002    1.0000 </r>
       <r>  -15.3989    1.0000 </r>
       <r>  -15.3896    1.0000 </r>
       <r>  -15.3886    1.0000 </r>
       <r>  -15.3861    1.0000 </r>
       <r>  -15.3855    1.0000 </r>
       <r>  -15.3786    1.0000 </r>
       <r>  -15.3730    1.0000 </r>
       <r>  -15.3710    1.0000 </r>
       <r>  -15.3698    1.0000 </r>
       <r>  -15.3541    1.0000 </r>
       <r>  -15.3504    1.0000 </r>
       <r>  -15.3462    1.0000 </r>
       <r>  -15.3451    1.0000 </r>
       <r>  -15.3270    1.0000 </r>
       <r>  -15.3233    1.0000 </r>
       <r>  -15.3195    1.0000 </r>
       <r>  -15.3184    1.0000 </r>
       <r>   -7.1552    1.0000 </r>
       <r>   -6.9992    1.0000 </r>
       <r>   -6.8597    1.0000 </r>
       <r>   -6.8243    1.0000 </r>
       <r>   -2.1146    1.0000 </r>
       <r>   -1.8210    1.0000 </r>
       <r>   -1.3755    1.0000 </r>
       <r>   -1.1562    1.0000 </r>
       <r>    1.8118    1.0000 </r>
       <r>    2.1440    1.0000 </r>
       <r>    2.3883    1.0000 </r>
       <r>    2.9444    1.0000 </r>
       <r>    3.2112    1.0000 </r>
       <r>    3.2547    1.0000 </r>
       <r>    4.2359    1.0000 </r>
       <r>    4.3198    1.0000 </r>
       <r>    4.3357    1.0000 </r>
       <r>    4.5794    1.0000 </r>
       <r>    5.1678    1.0000 </r>
       <r>    5.2230    1.0000 </r>
       <r>    6.6256    0.0000 </r>
       <r>    6.6294    0.0000 </r>
       <r>    7.2975    0.0000 </r>
       <r>    7.5817    0.0000 </r>
       <r>    8.4038    0.0000 </r>
       <r>    8.5244    0.0000 </r>
       <r>    8.8380    0.0000 </r>
       <r>    9.2860    0.0000 </r>
       <r>    9.4086    0.0000 </r>
       <r>   10.0471    0.0000 </r>
       <r>   10.7753    0.0000 </r>
       <r>   10.8885    0.0000 </r>
       <r>   11.8445    0.0000 </r>
       <r>   12.1903    0.0000 </r>
       <r>   14.0413    0.0000 </r>
       <r>   14.4299    0.0000 </r>
       <r>   14.6857    0.0000 </r>
       <r>   14.9324    0.0000 </r>
       <r>   15.1787    0.0000 </r>
       <r>   15.3322    0.0000 </r>
       <r>   15.7971    0.0000 </r>
       <r>   16.2183    0.0000 </r>
       <r>   16.4826    0.0000 </r>
       <r>   16.5410    0.0000 </r>
      </set>
      <set comment="kpoint 32">
       <r>  -15.4072    1.0000 </r>
       <r>  -15.4058    1.0000 </r>
       <r>  -15.4001    1.0000 </r>
       <r>  -15.3990    1.0000 </r>
       <r>  -15.3891    1.0000 </r>
       <r>  -15.3890    1.0000 </r>
       <r>  -15.3865    1.0000 </r>
       <r>  -15.3852    1.0000 </r>
       <r>  -15.3787    1.0000 </r>
       <r>  -15.3729    1.0000 </r>
       <r>  -15.3710    1.0000 </r>
       <r>  -15.3699    1.0000 </r>
       <r>  -15.3541    1.0000 </r>
       <r>  -15.3505    1.0000 </r>
       <r>  -15.3461    1.0000 </r>
       <r>  -15.3451    1.0000 </r>
       <r>  -15.3271    1.0000 </r>
       <r>  -15.3230    1.0000 </r>
       <r>  -15.3197    1.0000 </r>
       <r>  -15.3184    1.0000 </r>
       <r>   -7.1551    1.0000 </r>
       <r>   -6.9993    1.0000 </r>
       <r>   -6.8599    1.0000 </r>
       <r>   -6.8241    1.0000 </r>
       <r>   -2.1148    1.0000 </r>
       <r>   -1.8219    1.0000 </r>
       <r>   -1.3754    1.0000 </r>
       <r>   -1.1551    1.0000 </r>
       <r>    1.8119    1.0000 </r>
       <r>    2.1434    1.0000 </r>
       <r>    2.3911    1.0000 </r>
       <r>    2.9442    1.0000 </r>
       <r>    3.2114    1.0000 </r>
       <r>    3.2510    1.0000 </r>
       <r>    4.2347    1.0000 </r>
       <r>    4.3210    1.0000 </r>
       <r>    4.3386    1.0000 </r>
       <r>    4.5780    1.0000 </r>
       <r>    5.1697    1.0000 </r>
       <r>    5.2204    1.0000 </r>
       <r>    6.6264    0.0000 </r>
       <r>    6.6296    0.0000 </r>
       <r>    7.2954    0.0000 </r>
       <r>    7.5830    0.0000 </r>
       <r>    8.4037    0.0000 </r>
       <r>    8.5241    0.0000 </r>
       <r>    8.8411    0.0000 </r>
       <r>    9.2867    0.0000 </r>
       <r>    9.4026    0.0000 </r>
       <r>   10.0489    0.0000 </r>
       <r>   10.7762    0.0000 </r>
       <r>   10.8921    0.0000 </r>
       <r>   11.8358    0.0000 </r>
       <r>   12.1955    0.0000 </r>
       <r>   14.0464    0.0000 </r>
       <r>   14.4237    0.0000 </r>
       <r>   14.6850    0.0000 </r>
       <r>   14.9283    0.0000 </r>
       <r>   15.1818    0.0000 </r>
       <r>   15.3360    0.0000 </r>
       <r>   15.7969    0.0000 </r>
       <r>   16.2177    0.0000 </r>
       <r>   16.4820    0.0000 </r>
       <r>   16.5388    0.0000 </r>
      </set>
      <set comment="kpoint 33">
       <r>  -15.4135    1.0000 </r>
       <r>  -15.4121    1.0000 </r>
       <r>  -15.4043    1.0000 </r>
       <r>  -15.4037    1.0000 </r>
       <r>  -15.3894    1.0000 </r>
       <r>  -15.3880    1.0000 </r>
       <r>  -15.3839    1.0000 </r>
       <r>  -15.3835    1.0000 </r>
       <r>  -15.3765    1.0000 </r>
       <r>  -15.3733    1.0000 </r>
       <r>  -15.3702    1.0000 </r>
       <r>  -15.3688    1.0000 </r>
       <r>  -15.3518    1.0000 </r>
       <r>  -15.3496    1.0000 </r>
       <r>  -15.3430    1.0000 </r>
       <r>  -15.3428    1.0000 </r>
       <r>  -15.3272    1.0000 </r>
       <r>  -15.3246    1.0000 </r>
       <r>  -15.3185    1.0000 </r>
       <r>  -15.3181    1.0000 </r>
       <r>   -7.0212    1.0000 </r>
       <r>   -6.8852    1.0000 </r>
       <r>   -6.7843    1.0000 </r>
       <r>   -6.7447    1.0000 </r>
       <r>   -1.8445    1.0000 </r>
       <r>   -1.5427    1.0000 </r>
       <r>   -1.1433    1.0000 </r>
       <r>   -1.0604    1.0000 </r>
       <r>    1.2383    1.0000 </r>
       <r>    1.7333    1.0000 </r>
       <r>    1.7414    1.0000 </r>
       <r>    1.9893    1.0000 </r>
       <r>    2.4601    1.0000 </r>
       <r>    2.9298    1.0000 </r>
       <r>    3.3374    1.0000 </r>
       <r>    3.5634    1.0000 </r>
       <r>    3.6027    1.0000 </r>
       <r>    4.0730    1.0000 </r>
       <r>    4.8267    1.0000 </r>
       <r>    4.9942    1.0000 </r>
       <r>    6.7492    0.0000 </r>
       <r>    7.4614    0.0000 </r>
       <r>    8.5806    0.0000 </r>
       <r>    8.9166    0.0000 </r>
       <r>    9.4922    0.0000 </r>
       <r>    9.6031    0.0000 </r>
       <r>   10.0158    0.0000 </r>
       <r>   10.2362    0.0000 </r>
       <r>   10.3369    0.0000 </r>
       <r>   10.6031    0.0000 </r>
       <r>   10.7842    0.0000 </r>
       <r>   11.4174    0.0000 </r>
       <r>   11.4794    0.0000 </r>
       <r>   11.5505    0.0000 </r>
       <r>   13.3707    0.0000 </r>
       <r>   13.6442    0.0000 </r>
       <r>   15.2097    0.0000 </r>
       <r>   15.4338    0.0000 </r>
       <r>   15.6536    0.0000 </r>
       <r>   16.2887    0.0000 </r>
       <r>   16.3955    0.0000 </r>
       <r>   16.6832    0.0000 </r>
       <r>   16.9470    0.0000 </r>
       <r>   17.1738    0.0000 </r>
      </set>
      <set comment="kpoint 34">
       <r>  -15.4134    1.0000 </r>
       <r>  -15.4121    1.0000 </r>
       <r>  -15.4043    1.0000 </r>
       <r>  -15.4038    1.0000 </r>
       <r>  -15.3889    1.0000 </r>
       <r>  -15.3884    1.0000 </r>
       <r>  -15.3839    1.0000 </r>
       <r>  -15.3835    1.0000 </r>
       <r>  -15.3766    1.0000 </r>
       <r>  -15.3731    1.0000 </r>
       <r>  -15.3702    1.0000 </r>
       <r>  -15.3689    1.0000 </r>
       <r>  -15.3518    1.0000 </r>
       <r>  -15.3497    1.0000 </r>
       <r>  -15.3430    1.0000 </r>
       <r>  -15.3428    1.0000 </r>
       <r>  -15.3273    1.0000 </r>
       <r>  -15.3244    1.0000 </r>
       <r>  -15.3187    1.0000 </r>
       <r>  -15.3180    1.0000 </r>
       <r>   -7.0211    1.0000 </r>
       <r>   -6.8853    1.0000 </r>
       <r>   -6.7847    1.0000 </r>
       <r>   -6.7442    1.0000 </r>
       <r>   -1.8448    1.0000 </r>
       <r>   -1.5452    1.0000 </r>
       <r>   -1.1431    1.0000 </r>
       <r>   -1.0573    1.0000 </r>
       <r>    1.2377    1.0000 </r>
       <r>    1.7340    1.0000 </r>
       <r>    1.7443    1.0000 </r>
       <r>    1.9876    1.0000 </r>
       <r>    2.4587    1.0000 </r>
       <r>    2.9276    1.0000 </r>
       <r>    3.3430    1.0000 </r>
       <r>    3.5570    1.0000 </r>
       <r>    3.6034    1.0000 </r>
       <r>    4.0744    1.0000 </r>
       <r>    4.8210    1.0000 </r>
       <r>    5.0010    1.0000 </r>
       <r>    6.7477    0.0000 </r>
       <r>    7.4620    0.0000 </r>
       <r>    8.5809    0.0000 </r>
       <r>    8.9163    0.0000 </r>
       <r>    9.4927    0.0000 </r>
       <r>    9.6033    0.0000 </r>
       <r>   10.0188    0.0000 </r>
       <r>   10.2252    0.0000 </r>
       <r>   10.3376    0.0000 </r>
       <r>   10.6085    0.0000 </r>
       <r>   10.7852    0.0000 </r>
       <r>   11.4268    0.0000 </r>
       <r>   11.4726    0.0000 </r>
       <r>   11.5486    0.0000 </r>
       <r>   13.3689    0.0000 </r>
       <r>   13.6440    0.0000 </r>
       <r>   15.2151    0.0000 </r>
       <r>   15.4364    0.0000 </r>
       <r>   15.6483    0.0000 </r>
       <r>   16.2899    0.0000 </r>
       <r>   16.3953    0.0000 </r>
       <r>   16.6781    0.0000 </r>
       <r>   16.9485    0.0000 </r>
       <r>   17.1722    0.0000 </r>
      </set>
      <set comment="kpoint 35">
       <r>  -15.4190    1.0000 </r>
       <r>  -15.4182    1.0000 </r>
       <r>  -15.4087    1.0000 </r>
       <r>  -15.4084    1.0000 </r>
       <r>  -15.3892    1.0000 </r>
       <r>  -15.3879    1.0000 </r>
       <r>  -15.3822    1.0000 </r>
       <r>  -15.3815    1.0000 </r>
       <r>  -15.3749    1.0000 </r>
       <r>  -15.3736    1.0000 </r>
       <r>  -15.3694    1.0000 </r>
       <r>  -15.3683    1.0000 </r>
       <r>  -15.3490    1.0000 </r>
       <r>  -15.3481    1.0000 </r>
       <r>  -15.3405    1.0000 </r>
       <r>  -15.3404    1.0000 </r>
       <r>  -15.3267    1.0000 </r>
       <r>  -15.3256    1.0000 </r>
       <r>  -15.3178    1.0000 </r>
       <r>  -15.3177    1.0000 </r>
       <r>   -6.8589    1.0000 </r>
       <r>   -6.7526    1.0000 </r>
       <r>   -6.7239    1.0000 </r>
       <r>   -6.6725    1.0000 </r>
       <r>   -1.4802    1.0000 </r>
       <r>   -1.2089    1.0000 </r>
       <r>   -0.9574    1.0000 </r>
       <r>   -0.8600    1.0000 </r>
       <r>    0.6193    1.0000 </r>
       <r>    1.0084    1.0000 </r>
       <r>    1.2603    1.0000 </r>
       <r>    1.5529    1.0000 </r>
       <r>    2.0455    1.0000 </r>
       <r>    2.2116    1.0000 </r>
       <r>    2.7133    1.0000 </r>
       <r>    3.1484    1.0000 </r>
       <r>    3.3015    1.0000 </r>
       <r>    3.4446    1.0000 </r>
       <r>    4.5021    1.0000 </r>
       <r>    4.5634    1.0000 </r>
       <r>    7.5138    0.0000 </r>
       <r>    8.2743    0.0000 </r>
       <r>    9.0582    0.0000 </r>
       <r>    9.3869    0.0000 </r>
       <r>   10.2546    0.0000 </r>
       <r>   10.3063    0.0000 </r>
       <r>   10.4432    0.0000 </r>
       <r>   10.8182    0.0000 </r>
       <r>   10.8332    0.0000 </r>
       <r>   11.3301    0.0000 </r>
       <r>   11.7907    0.0000 </r>
       <r>   11.9216    0.0000 </r>
       <r>   12.0531    0.0000 </r>
       <r>   12.4284    0.0000 </r>
       <r>   12.7939    0.0000 </r>
       <r>   13.0704    0.0000 </r>
       <r>   15.5879    0.0000 </r>
       <r>   15.7646    0.0000 </r>
       <r>   16.6797    0.0000 </r>
       <r>   16.7598    0.0000 </r>
       <r>   16.9894    0.0000 </r>
       <r>   17.1409    0.0000 </r>
       <r>   17.5932    0.0000 </r>
       <r>   17.6379    0.0000 </r>
      </set>
      <set comment="kpoint 36">
       <r>  -15.4190    1.0000 </r>
       <r>  -15.4182    1.0000 </r>
       <r>  -15.4086    1.0000 </r>
       <r>  -15.4085    1.0000 </r>
       <r>  -15.3887    1.0000 </r>
       <r>  -15.3884    1.0000 </r>
       <r>  -15.3819    1.0000 </r>
       <r>  -15.3818    1.0000 </r>
       <r>  -15.3750    1.0000 </r>
       <r>  -15.3735    1.0000 </r>
       <r>  -15.3693    1.0000 </r>
       <r>  -15.3684    1.0000 </r>
       <r>  -15.3490    1.0000 </r>
       <r>  -15.3481    1.0000 </r>
       <r>  -15.3405    1.0000 </r>
       <r>  -15.3404    1.0000 </r>
       <r>  -15.3270    1.0000 </r>
       <r>  -15.3252    1.0000 </r>
       <r>  -15.3180    1.0000 </r>
       <r>  -15.3176    1.0000 </r>
       <r>   -6.8587    1.0000 </r>
       <r>   -6.7528    1.0000 </r>
       <r>   -6.7243    1.0000 </r>
       <r>   -6.6720    1.0000 </r>
       <r>   -1.4803    1.0000 </r>
       <r>   -1.2157    1.0000 </r>
       <r>   -0.9496    1.0000 </r>
       <r>   -0.8599    1.0000 </r>
       <r>    0.6186    1.0000 </r>
       <r>    1.0077    1.0000 </r>
       <r>    1.2625    1.0000 </r>
       <r>    1.5528    1.0000 </r>
       <r>    2.0406    1.0000 </r>
       <r>    2.2128    1.0000 </r>
       <r>    2.7159    1.0000 </r>
       <r>    3.1582    1.0000 </r>
       <r>    3.3016    1.0000 </r>
       <r>    3.4302    1.0000 </r>
       <r>    4.5158    1.0000 </r>
       <r>    4.5540    1.0000 </r>
       <r>    7.5142    0.0000 </r>
       <r>    8.2704    0.0000 </r>
       <r>    9.0609    0.0000 </r>
       <r>    9.3880    0.0000 </r>
       <r>   10.2654    0.0000 </r>
       <r>   10.3127    0.0000 </r>
       <r>   10.4257    0.0000 </r>
       <r>   10.8242    0.0000 </r>
       <r>   10.8262    0.0000 </r>
       <r>   11.3265    0.0000 </r>
       <r>   11.7912    0.0000 </r>
       <r>   11.9226    0.0000 </r>
       <r>   12.0558    0.0000 </r>
       <r>   12.4286    0.0000 </r>
       <r>   12.7864    0.0000 </r>
       <r>   13.0774    0.0000 </r>
       <r>   15.5979    0.0000 </r>
       <r>   15.7583    0.0000 </r>
       <r>   16.6821    0.0000 </r>
       <r>   16.7598    0.0000 </r>
       <r>   16.9850    0.0000 </r>
       <r>   17.1375    0.0000 </r>
       <r>   17.5927    0.0000 </r>
       <r>   17.6345    0.0000 </r>
      </set>
      <set comment="kpoint 37">
       <r>  -15.4210    1.0000 </r>
       <r>  -15.4209    1.0000 </r>
       <r>  -15.4105    1.0000 </r>
       <r>  -15.4104    1.0000 </r>
       <r>  -15.3889    1.0000 </r>
       <r>  -15.3884    1.0000 </r>
       <r>  -15.3814    1.0000 </r>
       <r>  -15.3809    1.0000 </r>
       <r>  -15.3741    1.0000 </r>
       <r>  -15.3740    1.0000 </r>
       <r>  -15.3687    1.0000 </r>
       <r>  -15.3686    1.0000 </r>
       <r>  -15.3475    1.0000 </r>
       <r>  -15.3475    1.0000 </r>
       <r>  -15.3396    1.0000 </r>
       <r>  -15.3394    1.0000 </r>
       <r>  -15.3263    1.0000 </r>
       <r>  -15.3259    1.0000 </r>
       <r>  -15.3177    1.0000 </r>
       <r>  -15.3175    1.0000 </r>
       <r>   -6.7432    1.0000 </r>
       <r>   -6.7429    1.0000 </r>
       <r>   -6.6685    1.0000 </r>
       <r>   -6.6681    1.0000 </r>
       <r>   -1.2090    1.0000 </r>
       <r>   -1.2067    1.0000 </r>
       <r>   -0.7631    1.0000 </r>
       <r>   -0.7599    1.0000 </r>
       <r>    0.5467    1.0000 </r>
       <r>    0.5475    1.0000 </r>
       <r>    1.1622    1.0000 </r>
       <r>    1.1624    1.0000 </r>
       <r>    1.9091    1.0000 </r>
       <r>    1.9135    1.0000 </r>
       <r>    2.6473    1.0000 </r>
       <r>    2.6492    1.0000 </r>
       <r>    3.3444    1.0000 </r>
       <r>    3.3595    1.0000 </r>
       <r>    4.3740    1.0000 </r>
       <r>    4.3891    1.0000 </r>
       <r>    8.2165    0.0000 </r>
       <r>    8.2213    0.0000 </r>
       <r>    9.0857    0.0000 </r>
       <r>    9.0894    0.0000 </r>
       <r>   10.3549    0.0000 </r>
       <r>   10.3721    0.0000 </r>
       <r>   10.7984    0.0000 </r>
       <r>   10.8090    0.0000 </r>
       <r>   11.7048    0.0000 </r>
       <r>   11.7110    0.0000 </r>
       <r>   12.3425    0.0000 </r>
       <r>   12.3464    0.0000 </r>
       <r>   12.6702    0.0000 </r>
       <r>   12.6728    0.0000 </r>
       <r>   12.8429    0.0000 </r>
       <r>   12.8526    0.0000 </r>
       <r>   15.9943    0.0000 </r>
       <r>   16.0024    0.0000 </r>
       <r>   16.6983    0.0000 </r>
       <r>   16.6997    0.0000 </r>
       <r>   16.9495    0.0000 </r>
       <r>   16.9500    0.0000 </r>
       <r>   17.7971    0.0000 </r>
       <r>   17.7971    0.0000 </r>
      </set>
      <set comment="kpoint 38">
       <r>  -15.4149    1.0000 </r>
       <r>  -15.4061    1.0000 </r>
       <r>  -15.3967    1.0000 </r>
       <r>  -15.3940    1.0000 </r>
       <r>  -15.3906    1.0000 </r>
       <r>  -15.3885    1.0000 </r>
       <r>  -15.3883    1.0000 </r>
       <r>  -15.3845    1.0000 </r>
       <r>  -15.3792    1.0000 </r>
       <r>  -15.3780    1.0000 </r>
       <r>  -15.3772    1.0000 </r>
       <r>  -15.3756    1.0000 </r>
       <r>  -15.3647    1.0000 </r>
       <r>  -15.3621    1.0000 </r>
       <r>  -15.3431    1.0000 </r>
       <r>  -15.3392    1.0000 </r>
       <r>  -15.3313    1.0000 </r>
       <r>  -15.3282    1.0000 </r>
       <r>  -15.3119    1.0000 </r>
       <r>  -15.3072    1.0000 </r>
       <r>   -8.1039    1.0000 </r>
       <r>   -7.9124    1.0000 </r>
       <r>   -6.9089    1.0000 </r>
       <r>   -6.6212    1.0000 </r>
       <r>   -1.3099    1.0000 </r>
       <r>   -0.8662    1.0000 </r>
       <r>    0.7161    1.0000 </r>
       <r>    0.8311    1.0000 </r>
       <r>    1.2160    1.0000 </r>
       <r>    2.0488    1.0000 </r>
       <r>    2.4196    1.0000 </r>
       <r>    2.5418    1.0000 </r>
       <r>    2.6750    1.0000 </r>
       <r>    3.0380    1.0000 </r>
       <r>    3.6846    1.0000 </r>
       <r>    3.7024    1.0000 </r>
       <r>    3.7161    1.0000 </r>
       <r>    4.0702    1.0000 </r>
       <r>    5.2337    1.0000 </r>
       <r>    5.3056    1.0000 </r>
       <r>    7.6380    0.0000 </r>
       <r>    8.4638    0.0000 </r>
       <r>    8.5522    0.0000 </r>
       <r>    9.0524    0.0000 </r>
       <r>    9.5014    0.0000 </r>
       <r>    9.6466    0.0000 </r>
       <r>    9.9043    0.0000 </r>
       <r>   10.1166    0.0000 </r>
       <r>   10.6491    0.0000 </r>
       <r>   10.8254    0.0000 </r>
       <r>   11.3391    0.0000 </r>
       <r>   11.3771    0.0000 </r>
       <r>   11.6226    0.0000 </r>
       <r>   11.8762    0.0000 </r>
       <r>   12.1986    0.0000 </r>
       <r>   12.4623    0.0000 </r>
       <r>   13.0147    0.0000 </r>
       <r>   13.4062    0.0000 </r>
       <r>   13.9249    0.0000 </r>
       <r>   14.3283    0.0000 </r>
       <r>   14.5221    0.0000 </r>
       <r>   14.5400    0.0000 </r>
       <r>   14.8579    0.0000 </r>
       <r>   14.8662    0.0000 </r>
      </set>
      <set comment="kpoint 39">
       <r>  -15.4139    1.0000 </r>
       <r>  -15.4057    1.0000 </r>
       <r>  -15.3955    1.0000 </r>
       <r>  -15.3931    1.0000 </r>
       <r>  -15.3914    1.0000 </r>
       <r>  -15.3894    1.0000 </r>
       <r>  -15.3889    1.0000 </r>
       <r>  -15.3848    1.0000 </r>
       <r>  -15.3795    1.0000 </r>
       <r>  -15.3777    1.0000 </r>
       <r>  -15.3769    1.0000 </r>
       <r>  -15.3738    1.0000 </r>
       <r>  -15.3639    1.0000 </r>
       <r>  -15.3622    1.0000 </r>
       <r>  -15.3432    1.0000 </r>
       <r>  -15.3393    1.0000 </r>
       <r>  -15.3316    1.0000 </r>
       <r>  -15.3286    1.0000 </r>
       <r>  -15.3117    1.0000 </r>
       <r>  -15.3074    1.0000 </r>
       <r>   -8.0312    1.0000 </r>
       <r>   -7.8433    1.0000 </r>
       <r>   -6.8937    1.0000 </r>
       <r>   -6.6220    1.0000 </r>
       <r>   -1.5786    1.0000 </r>
       <r>   -1.0925    1.0000 </r>
       <r>    0.2683    1.0000 </r>
       <r>    0.4970    1.0000 </r>
       <r>    1.2665    1.0000 </r>
       <r>    2.2062    1.0000 </r>
       <r>    2.5295    1.0000 </r>
       <r>    2.7802    1.0000 </r>
       <r>    2.8319    1.0000 </r>
       <r>    3.2231    1.0000 </r>
       <r>    3.7765    1.0000 </r>
       <r>    3.8795    1.0000 </r>
       <r>    4.1280    1.0000 </r>
       <r>    4.2444    1.0000 </r>
       <r>    5.1267    1.0000 </r>
       <r>    5.3068    1.0000 </r>
       <r>    7.5935    0.0000 </r>
       <r>    8.3031    0.0000 </r>
       <r>    8.7467    0.0000 </r>
       <r>    9.0028    0.0000 </r>
       <r>    9.0071    0.0000 </r>
       <r>    9.3287    0.0000 </r>
       <r>    9.4365    0.0000 </r>
       <r>    9.9358    0.0000 </r>
       <r>   10.4709    0.0000 </r>
       <r>   10.8573    0.0000 </r>
       <r>   10.9898    0.0000 </r>
       <r>   11.2815    0.0000 </r>
       <r>   11.3742    0.0000 </r>
       <r>   11.5316    0.0000 </r>
       <r>   12.1288    0.0000 </r>
       <r>   12.6608    0.0000 </r>
       <r>   12.9693    0.0000 </r>
       <r>   13.4764    0.0000 </r>
       <r>   13.9358    0.0000 </r>
       <r>   14.1458    0.0000 </r>
       <r>   15.0398    0.0000 </r>
       <r>   15.2510    0.0000 </r>
       <r>   15.4273    0.0000 </r>
       <r>   15.5286    0.0000 </r>
      </set>
      <set comment="kpoint 40">
       <r>  -15.4112    1.0000 </r>
       <r>  -15.4047    1.0000 </r>
       <r>  -15.3937    1.0000 </r>
       <r>  -15.3931    1.0000 </r>
       <r>  -15.3921    1.0000 </r>
       <r>  -15.3912    1.0000 </r>
       <r>  -15.3894    1.0000 </r>
       <r>  -15.3861    1.0000 </r>
       <r>  -15.3802    1.0000 </r>
       <r>  -15.3787    1.0000 </r>
       <r>  -15.3738    1.0000 </r>
       <r>  -15.3697    1.0000 </r>
       <r>  -15.3629    1.0000 </r>
       <r>  -15.3615    1.0000 </r>
       <r>  -15.3431    1.0000 </r>
       <r>  -15.3395    1.0000 </r>
       <r>  -15.3318    1.0000 </r>
       <r>  -15.3295    1.0000 </r>
       <r>  -15.3112    1.0000 </r>
       <r>  -15.3080    1.0000 </r>
       <r>   -7.8265    1.0000 </r>
       <r>   -7.6502    1.0000 </r>
       <r>   -6.8774    1.0000 </r>
       <r>   -6.6492    1.0000 </r>
       <r>   -2.0920    1.0000 </r>
       <r>   -1.6065    1.0000 </r>
       <r>   -0.4949    1.0000 </r>
       <r>   -0.1444    1.0000 </r>
       <r>    1.4556    1.0000 </r>
       <r>    2.4978    1.0000 </r>
       <r>    2.8436    1.0000 </r>
       <r>    3.0782    1.0000 </r>
       <r>    3.3249    1.0000 </r>
       <r>    3.6310    1.0000 </r>
       <r>    3.9537    1.0000 </r>
       <r>    4.2514    1.0000 </r>
       <r>    4.4987    1.0000 </r>
       <r>    4.7499    1.0000 </r>
       <r>    5.0976    1.0000 </r>
       <r>    5.3945    1.0000 </r>
       <r>    7.4685    0.0000 </r>
       <r>    7.7927    0.0000 </r>
       <r>    8.0798    0.0000 </r>
       <r>    8.3031    0.0000 </r>
       <r>    8.5172    0.0000 </r>
       <r>    8.6394    0.0000 </r>
       <r>    9.1202    0.0000 </r>
       <r>    9.8372    0.0000 </r>
       <r>    9.8689    0.0000 </r>
       <r>   10.3649    0.0000 </r>
       <r>   10.6812    0.0000 </r>
       <r>   10.8284    0.0000 </r>
       <r>   11.4165    0.0000 </r>
       <r>   11.6883    0.0000 </r>
       <r>   12.6004    0.0000 </r>
       <r>   13.1156    0.0000 </r>
       <r>   13.2947    0.0000 </r>
       <r>   13.8886    0.0000 </r>
       <r>   14.1990    0.0000 </r>
       <r>   14.2198    0.0000 </r>
       <r>   15.2503    0.0000 </r>
       <r>   15.6541    0.0000 </r>
       <r>   16.4096    0.0000 </r>
       <r>   16.5557    0.0000 </r>
      </set>
      <set comment="kpoint 41">
       <r>  -15.4079    1.0000 </r>
       <r>  -15.4042    1.0000 </r>
       <r>  -15.3958    1.0000 </r>
       <r>  -15.3950    1.0000 </r>
       <r>  -15.3914    1.0000 </r>
       <r>  -15.3902    1.0000 </r>
       <r>  -15.3898    1.0000 </r>
       <r>  -15.3881    1.0000 </r>
       <r>  -15.3804    1.0000 </r>
       <r>  -15.3795    1.0000 </r>
       <r>  -15.3698    1.0000 </r>
       <r>  -15.3664    1.0000 </r>
       <r>  -15.3624    1.0000 </r>
       <r>  -15.3605    1.0000 </r>
       <r>  -15.3421    1.0000 </r>
       <r>  -15.3399    1.0000 </r>
       <r>  -15.3316    1.0000 </r>
       <r>  -15.3304    1.0000 </r>
       <r>  -15.3106    1.0000 </r>
       <r>  -15.3088    1.0000 </r>
       <r>   -7.5376    1.0000 </r>
       <r>   -7.3876    1.0000 </r>
       <r>   -6.9247    1.0000 </r>
       <r>   -6.7561    1.0000 </r>
       <r>   -2.4432    1.0000 </r>
       <r>   -2.1140    1.0000 </r>
       <r>   -1.0313    1.0000 </r>
       <r>   -0.7672    1.0000 </r>
       <r>    1.8765    1.0000 </r>
       <r>    2.8096    1.0000 </r>
       <r>    3.2843    1.0000 </r>
       <r>    3.3001    1.0000 </r>
       <r>    3.4973    1.0000 </r>
       <r>    3.9512    1.0000 </r>
       <r>    4.0757    1.0000 </r>
       <r>    4.2823    1.0000 </r>
       <r>    4.8149    1.0000 </r>
       <r>    4.9839    1.0000 </r>
       <r>    5.6235    1.0000 </r>
       <r>    5.8271    1.0000 </r>
       <r>    6.8892    0.0000 </r>
       <r>    7.3013    0.0000 </r>
       <r>    7.3916    0.0000 </r>
       <r>    7.7244    0.0000 </r>
       <r>    7.7625    0.0000 </r>
       <r>    8.1468    0.0000 </r>
       <r>    8.6027    0.0000 </r>
       <r>    9.0628    0.0000 </r>
       <r>    9.4132    0.0000 </r>
       <r>    9.4471    0.0000 </r>
       <r>   10.9306    0.0000 </r>
       <r>   11.1919    0.0000 </r>
       <r>   12.5592    0.0000 </r>
       <r>   12.8019    0.0000 </r>
       <r>   13.1954    0.0000 </r>
       <r>   13.5626    0.0000 </r>
       <r>   13.8601    0.0000 </r>
       <r>   14.3158    0.0000 </r>
       <r>   14.5750    0.0000 </r>
       <r>   14.5935    0.0000 </r>
       <r>   15.3817    0.0000 </r>
       <r>   15.5712    0.0000 </r>
       <r>   15.5850    0.0000 </r>
       <r>   16.3882    0.0000 </r>
      </set>
      <set comment="kpoint 42">
       <r>  -15.4052    1.0000 </r>
       <r>  -15.4052    1.0000 </r>
       <r>  -15.3964    1.0000 </r>
       <r>  -15.3964    1.0000 </r>
       <r>  -15.3905    1.0000 </r>
       <r>  -15.3905    1.0000 </r>
       <r>  -15.3895    1.0000 </r>
       <r>  -15.3895    1.0000 </r>
       <r>  -15.3800    1.0000 </r>
       <r>  -15.3800    1.0000 </r>
       <r>  -15.3667    1.0000 </r>
       <r>  -15.3667    1.0000 </r>
       <r>  -15.3610    1.0000 </r>
       <r>  -15.3610    1.0000 </r>
       <r>  -15.3408    1.0000 </r>
       <r>  -15.3408    1.0000 </r>
       <r>  -15.3311    1.0000 </r>
       <r>  -15.3311    1.0000 </r>
       <r>  -15.3097    1.0000 </r>
       <r>  -15.3097    1.0000 </r>
       <r>   -7.2861    1.0000 </r>
       <r>   -7.2861    1.0000 </r>
       <r>   -6.9341    1.0000 </r>
       <r>   -6.9341    1.0000 </r>
       <r>   -2.4393    1.0000 </r>
       <r>   -2.4393    1.0000 </r>
       <r>   -1.1179    1.0000 </r>
       <r>   -1.1179    1.0000 </r>
       <r>    2.4443    1.0000 </r>
       <r>    2.4443    1.0000 </r>
       <r>    3.5863    1.0000 </r>
       <r>    3.5863    1.0000 </r>
       <r>    3.7025    1.0000 </r>
       <r>    3.7025    1.0000 </r>
       <r>    4.1017    1.0000 </r>
       <r>    4.1017    1.0000 </r>
       <r>    5.3446    1.0000 </r>
       <r>    5.3446    1.0000 </r>
       <r>    5.7133    1.0000 </r>
       <r>    5.7133    1.0000 </r>
       <r>    6.9200    0.0000 </r>
       <r>    6.9200    0.0000 </r>
       <r>    7.2918    0.0000 </r>
       <r>    7.2918    0.0000 </r>
       <r>    7.5969    0.0000 </r>
       <r>    7.5969    0.0000 </r>
       <r>    8.8598    0.0000 </r>
       <r>    8.8598    0.0000 </r>
       <r>    8.8845    0.0000 </r>
       <r>    8.8845    0.0000 </r>
       <r>   11.2089    0.0000 </r>
       <r>   11.2089    0.0000 </r>
       <r>   13.4970    0.0000 </r>
       <r>   13.4970    0.0000 </r>
       <r>   14.1192    0.0000 </r>
       <r>   14.1192    0.0000 </r>
       <r>   14.2090    0.0000 </r>
       <r>   14.2090    0.0000 </r>
       <r>   14.5181    0.0000 </r>
       <r>   14.5181    0.0000 </r>
       <r>   15.7745    0.0000 </r>
       <r>   15.7745    0.0000 </r>
       <r>   15.7968    0.0000 </r>
       <r>   15.7968    0.0000 </r>
      </set>
      <set comment="kpoint 43">
       <r>  -15.4115    1.0000 </r>
       <r>  -15.4034    1.0000 </r>
       <r>  -15.3954    1.0000 </r>
       <r>  -15.3929    1.0000 </r>
       <r>  -15.3914    1.0000 </r>
       <r>  -15.3901    1.0000 </r>
       <r>  -15.3895    1.0000 </r>
       <r>  -15.3862    1.0000 </r>
       <r>  -15.3815    1.0000 </r>
       <r>  -15.3797    1.0000 </r>
       <r>  -15.3759    1.0000 </r>
       <r>  -15.3735    1.0000 </r>
       <r>  -15.3630    1.0000 </r>
       <r>  -15.3617    1.0000 </r>
       <r>  -15.3417    1.0000 </r>
       <r>  -15.3383    1.0000 </r>
       <r>  -15.3318    1.0000 </r>
       <r>  -15.3294    1.0000 </r>
       <r>  -15.3127    1.0000 </r>
       <r>  -15.3086    1.0000 </r>
       <r>   -8.0338    1.0000 </r>
       <r>   -7.8471    1.0000 </r>
       <r>   -6.8806    1.0000 </r>
       <r>   -6.6105    1.0000 </r>
       <r>   -1.4278    1.0000 </r>
       <r>   -0.9981    1.0000 </r>
       <r>    0.4379    1.0000 </r>
       <r>    0.4473    1.0000 </r>
       <r>    1.2333    1.0000 </r>
       <r>    2.1121    1.0000 </r>
       <r>    2.3367    1.0000 </r>
       <r>    2.6592    1.0000 </r>
       <r>    2.8600    1.0000 </r>
       <r>    3.1476    1.0000 </r>
       <r>    3.6639    1.0000 </r>
       <r>    3.7637    1.0000 </r>
       <r>    4.0641    1.0000 </r>
       <r>    4.1073    1.0000 </r>
       <r>    5.2619    1.0000 </r>
       <r>    5.2992    1.0000 </r>
       <r>    7.7325    0.0000 </r>
       <r>    8.4435    0.0000 </r>
       <r>    8.6723    0.0000 </r>
       <r>    8.9360    0.0000 </r>
       <r>    9.0931    0.0000 </r>
       <r>    9.4216    0.0000 </r>
       <r>    9.4290    0.0000 </r>
       <r>    9.9596    0.0000 </r>
       <r>   10.5490    0.0000 </r>
       <r>   11.0236    0.0000 </r>
       <r>   11.0351    0.0000 </r>
       <r>   11.3064    0.0000 </r>
       <r>   11.4953    0.0000 </r>
       <r>   11.6185    0.0000 </r>
       <r>   11.8239    0.0000 </r>
       <r>   12.2266    0.0000 </r>
       <r>   12.5744    0.0000 </r>
       <r>   13.5793    0.0000 </r>
       <r>   13.8622    0.0000 </r>
       <r>   14.3785    0.0000 </r>
       <r>   15.2786    0.0000 </r>
       <r>   15.2980    0.0000 </r>
       <r>   15.3390    0.0000 </r>
       <r>   15.4508    0.0000 </r>
      </set>
      <set comment="kpoint 44">
       <r>  -15.4108    1.0000 </r>
       <r>  -15.4031    1.0000 </r>
       <r>  -15.3943    1.0000 </r>
       <r>  -15.3926    1.0000 </r>
       <r>  -15.3919    1.0000 </r>
       <r>  -15.3911    1.0000 </r>
       <r>  -15.3896    1.0000 </r>
       <r>  -15.3867    1.0000 </r>
       <r>  -15.3819    1.0000 </r>
       <r>  -15.3803    1.0000 </r>
       <r>  -15.3748    1.0000 </r>
       <r>  -15.3719    1.0000 </r>
       <r>  -15.3627    1.0000 </r>
       <r>  -15.3614    1.0000 </r>
       <r>  -15.3418    1.0000 </r>
       <r>  -15.3382    1.0000 </r>
       <r>  -15.3321    1.0000 </r>
       <r>  -15.3298    1.0000 </r>
       <r>  -15.3125    1.0000 </r>
       <r>  -15.3087    1.0000 </r>
       <r>   -7.9619    1.0000 </r>
       <r>   -7.7791    1.0000 </r>
       <r>   -6.8651    1.0000 </r>
       <r>   -6.6100    1.0000 </r>
       <r>   -1.6276    1.0000 </r>
       <r>   -1.1535    1.0000 </r>
       <r>    0.0974    1.0000 </r>
       <r>    0.2634    1.0000 </r>
       <r>    1.2993    1.0000 </r>
       <r>    2.0355    1.0000 </r>
       <r>    2.2521    1.0000 </r>
       <r>    2.5817    1.0000 </r>
       <r>    3.0808    1.0000 </r>
       <r>    3.4260    1.0000 </r>
       <r>    3.5906    1.0000 </r>
       <r>    3.7464    1.0000 </r>
       <r>    4.4913    1.0000 </r>
       <r>    4.7374    1.0000 </r>
       <r>    5.1635    1.0000 </r>
       <r>    5.3198    1.0000 </r>
       <r>    7.6601    0.0000 </r>
       <r>    7.9226    0.0000 </r>
       <r>    8.3049    0.0000 </r>
       <r>    8.7479    0.0000 </r>
       <r>    8.9122    0.0000 </r>
       <r>    9.2011    0.0000 </r>
       <r>    9.6505    0.0000 </r>
       <r>    9.9741    0.0000 </r>
       <r>   10.3105    0.0000 </r>
       <r>   10.4868    0.0000 </r>
       <r>   10.8781    0.0000 </r>
       <r>   10.9887    0.0000 </r>
       <r>   11.7647    0.0000 </r>
       <r>   12.0133    0.0000 </r>
       <r>   12.1357    0.0000 </r>
       <r>   12.5094    0.0000 </r>
       <r>   12.9710    0.0000 </r>
       <r>   13.7389    0.0000 </r>
       <r>   14.0743    0.0000 </r>
       <r>   14.6183    0.0000 </r>
       <r>   14.8171    0.0000 </r>
       <r>   15.2149    0.0000 </r>
       <r>   15.5466    0.0000 </r>
       <r>   15.7679    0.0000 </r>
      </set>
      <set comment="kpoint 45">
       <r>  -15.4107    1.0000 </r>
       <r>  -15.4031    1.0000 </r>
       <r>  -15.3942    1.0000 </r>
       <r>  -15.3926    1.0000 </r>
       <r>  -15.3920    1.0000 </r>
       <r>  -15.3911    1.0000 </r>
       <r>  -15.3897    1.0000 </r>
       <r>  -15.3866    1.0000 </r>
       <r>  -15.3819    1.0000 </r>
       <r>  -15.3803    1.0000 </r>
       <r>  -15.3746    1.0000 </r>
       <r>  -15.3719    1.0000 </r>
       <r>  -15.3626    1.0000 </r>
       <r>  -15.3615    1.0000 </r>
       <r>  -15.3418    1.0000 </r>
       <r>  -15.3382    1.0000 </r>
       <r>  -15.3321    1.0000 </r>
       <r>  -15.3298    1.0000 </r>
       <r>  -15.3125    1.0000 </r>
       <r>  -15.3087    1.0000 </r>
       <r>   -7.9619    1.0000 </r>
       <r>   -7.7791    1.0000 </r>
       <r>   -6.8651    1.0000 </r>
       <r>   -6.6100    1.0000 </r>
       <r>   -1.6282    1.0000 </r>
       <r>   -1.1539    1.0000 </r>
       <r>    0.0967    1.0000 </r>
       <r>    0.2659    1.0000 </r>
       <r>    1.2995    1.0000 </r>
       <r>    2.0358    1.0000 </r>
       <r>    2.2507    1.0000 </r>
       <r>    2.5830    1.0000 </r>
       <r>    3.0801    1.0000 </r>
       <r>    3.4278    1.0000 </r>
       <r>    3.5906    1.0000 </r>
       <r>    3.7472    1.0000 </r>
       <r>    4.4869    1.0000 </r>
       <r>    4.7375    1.0000 </r>
       <r>    5.1621    1.0000 </r>
       <r>    5.3213    1.0000 </r>
       <r>    7.6559    0.0000 </r>
       <r>    7.9217    0.0000 </r>
       <r>    8.3104    0.0000 </r>
       <r>    8.7490    0.0000 </r>
       <r>    8.9130    0.0000 </r>
       <r>    9.2020    0.0000 </r>
       <r>    9.6487    0.0000 </r>
       <r>    9.9736    0.0000 </r>
       <r>   10.3124    0.0000 </r>
       <r>   10.4899    0.0000 </r>
       <r>   10.8798    0.0000 </r>
       <r>   10.9901    0.0000 </r>
       <r>   11.7522    0.0000 </r>
       <r>   12.0176    0.0000 </r>
       <r>   12.1281    0.0000 </r>
       <r>   12.5222    0.0000 </r>
       <r>   12.9629    0.0000 </r>
       <r>   13.7309    0.0000 </r>
       <r>   14.0796    0.0000 </r>
       <r>   14.6222    0.0000 </r>
       <r>   14.8213    0.0000 </r>
       <r>   15.2125    0.0000 </r>
       <r>   15.5471    0.0000 </r>
       <r>   15.7688    0.0000 </r>
      </set>
      <set comment="kpoint 46">
       <r>  -15.4087    1.0000 </r>
       <r>  -15.4025    1.0000 </r>
       <r>  -15.3957    1.0000 </r>
       <r>  -15.3946    1.0000 </r>
       <r>  -15.3913    1.0000 </r>
       <r>  -15.3901    1.0000 </r>
       <r>  -15.3899    1.0000 </r>
       <r>  -15.3874    1.0000 </r>
       <r>  -15.3825    1.0000 </r>
       <r>  -15.3813    1.0000 </r>
       <r>  -15.3721    1.0000 </r>
       <r>  -15.3683    1.0000 </r>
       <r>  -15.3620    1.0000 </r>
       <r>  -15.3601    1.0000 </r>
       <r>  -15.3416    1.0000 </r>
       <r>  -15.3382    1.0000 </r>
       <r>  -15.3327    1.0000 </r>
       <r>  -15.3306    1.0000 </r>
       <r>  -15.3120    1.0000 </r>
       <r>  -15.3091    1.0000 </r>
       <r>   -7.7604    1.0000 </r>
       <r>   -7.5894    1.0000 </r>
       <r>   -6.8471    1.0000 </r>
       <r>   -6.6323    1.0000 </r>
       <r>   -2.0495    1.0000 </r>
       <r>   -1.5682    1.0000 </r>
       <r>   -0.5141    1.0000 </r>
       <r>   -0.2110    1.0000 </r>
       <r>    1.5035    1.0000 </r>
       <r>    2.0498    1.0000 </r>
       <r>    2.2731    1.0000 </r>
       <r>    2.9131    1.0000 </r>
       <r>    3.0833    1.0000 </r>
       <r>    3.4454    1.0000 </r>
       <r>    4.0514    1.0000 </r>
       <r>    4.2131    1.0000 </r>
       <r>    4.9377    1.0000 </r>
       <r>    5.0683    1.0000 </r>
       <r>    5.1767    1.0000 </r>
       <r>    5.3815    1.0000 </r>
       <r>    7.2689    0.0000 </r>
       <r>    7.4284    0.0000 </r>
       <r>    7.8558    0.0000 </r>
       <r>    8.0314    0.0000 </r>
       <r>    8.6655    0.0000 </r>
       <r>    9.0133    0.0000 </r>
       <r>    9.3437    0.0000 </r>
       <r>    9.5157    0.0000 </r>
       <r>   10.1604    0.0000 </r>
       <r>   10.3102    0.0000 </r>
       <r>   10.8426    0.0000 </r>
       <r>   10.9366    0.0000 </r>
       <r>   12.0149    0.0000 </r>
       <r>   12.1003    0.0000 </r>
       <r>   12.8972    0.0000 </r>
       <r>   12.9884    0.0000 </r>
       <r>   13.4024    0.0000 </r>
       <r>   13.8820    0.0000 </r>
       <r>   14.1745    0.0000 </r>
       <r>   14.7424    0.0000 </r>
       <r>   14.9058    0.0000 </r>
       <r>   15.5203    0.0000 </r>
       <r>   15.8913    0.0000 </r>
       <r>   16.2289    0.0000 </r>
      </set>
      <set comment="kpoint 47">
       <r>  -15.4087    1.0000 </r>
       <r>  -15.4025    1.0000 </r>
       <r>  -15.3957    1.0000 </r>
       <r>  -15.3946    1.0000 </r>
       <r>  -15.3911    1.0000 </r>
       <r>  -15.3903    1.0000 </r>
       <r>  -15.3899    1.0000 </r>
       <r>  -15.3872    1.0000 </r>
       <r>  -15.3826    1.0000 </r>
       <r>  -15.3813    1.0000 </r>
       <r>  -15.3719    1.0000 </r>
       <r>  -15.3683    1.0000 </r>
       <r>  -15.3620    1.0000 </r>
       <r>  -15.3602    1.0000 </r>
       <r>  -15.3417    1.0000 </r>
       <r>  -15.3382    1.0000 </r>
       <r>  -15.3326    1.0000 </r>
       <r>  -15.3306    1.0000 </r>
       <r>  -15.3120    1.0000 </r>
       <r>  -15.3091    1.0000 </r>
       <r>   -7.7604    1.0000 </r>
       <r>   -7.5894    1.0000 </r>
       <r>   -6.8471    1.0000 </r>
       <r>   -6.6322    1.0000 </r>
       <r>   -2.0501    1.0000 </r>
       <r>   -1.5689    1.0000 </r>
       <r>   -0.5139    1.0000 </r>
       <r>   -0.2096    1.0000 </r>
       <r>    1.5032    1.0000 </r>
       <r>    2.0518    1.0000 </r>
       <r>    2.2715    1.0000 </r>
       <r>    2.9148    1.0000 </r>
       <r>    3.0834    1.0000 </r>
       <r>    3.4472    1.0000 </r>
       <r>    4.0496    1.0000 </r>
       <r>    4.2125    1.0000 </r>
       <r>    4.9352    1.0000 </r>
       <r>    5.0693    1.0000 </r>
       <r>    5.1761    1.0000 </r>
       <r>    5.3782    1.0000 </r>
       <r>    7.2686    0.0000 </r>
       <r>    7.4290    0.0000 </r>
       <r>    7.8572    0.0000 </r>
       <r>    8.0323    0.0000 </r>
       <r>    8.6657    0.0000 </r>
       <r>    9.0148    0.0000 </r>
       <r>    9.3461    0.0000 </r>
       <r>    9.5144    0.0000 </r>
       <r>   10.1597    0.0000 </r>
       <r>   10.3073    0.0000 </r>
       <r>   10.8495    0.0000 </r>
       <r>   10.9408    0.0000 </r>
       <r>   12.0039    0.0000 </r>
       <r>   12.0970    0.0000 </r>
       <r>   12.8994    0.0000 </r>
       <r>   12.9843    0.0000 </r>
       <r>   13.4087    0.0000 </r>
       <r>   13.8779    0.0000 </r>
       <r>   14.1708    0.0000 </r>
       <r>   14.7460    0.0000 </r>
       <r>   14.9084    0.0000 </r>
       <r>   15.5228    0.0000 </r>
       <r>   15.8933    0.0000 </r>
       <r>   16.2313    0.0000 </r>
      </set>
      <set comment="kpoint 48">
       <r>  -15.4061    1.0000 </r>
       <r>  -15.4020    1.0000 </r>
       <r>  -15.3988    1.0000 </r>
       <r>  -15.3974    1.0000 </r>
       <r>  -15.3911    1.0000 </r>
       <r>  -15.3907    1.0000 </r>
       <r>  -15.3884    1.0000 </r>
       <r>  -15.3871    1.0000 </r>
       <r>  -15.3828    1.0000 </r>
       <r>  -15.3821    1.0000 </r>
       <r>  -15.3688    1.0000 </r>
       <r>  -15.3658    1.0000 </r>
       <r>  -15.3607    1.0000 </r>
       <r>  -15.3589    1.0000 </r>
       <r>  -15.3406    1.0000 </r>
       <r>  -15.3385    1.0000 </r>
       <r>  -15.3327    1.0000 </r>
       <r>  -15.3315    1.0000 </r>
       <r>  -15.3112    1.0000 </r>
       <r>  -15.3097    1.0000 </r>
       <r>   -7.4778    1.0000 </r>
       <r>   -7.3330    1.0000 </r>
       <r>   -6.8895    1.0000 </r>
       <r>   -6.7299    1.0000 </r>
       <r>   -2.3586    1.0000 </r>
       <r>   -2.0350    1.0000 </r>
       <r>   -0.9734    1.0000 </r>
       <r>   -0.7338    1.0000 </r>
       <r>    1.8742    1.0000 </r>
       <r>    2.3418    1.0000 </r>
       <r>    2.6216    1.0000 </r>
       <r>    3.0236    1.0000 </r>
       <r>    3.3338    1.0000 </r>
       <r>    3.4493    1.0000 </r>
       <r>    3.8583    1.0000 </r>
       <r>    4.3322    1.0000 </r>
       <r>    4.9511    1.0000 </r>
       <r>    5.1389    1.0000 </r>
       <r>    5.2943    1.0000 </r>
       <r>    5.3906    1.0000 </r>
       <r>    7.0865    0.0000 </r>
       <r>    7.3429    0.0000 </r>
       <r>    7.5795    0.0000 </r>
       <r>    7.9316    0.0000 </r>
       <r>    8.2257    0.0000 </r>
       <r>    8.6487    0.0000 </r>
       <r>    8.7344    0.0000 </r>
       <r>    9.0366    0.0000 </r>
       <r>   10.0416    0.0000 </r>
       <r>   10.1937    0.0000 </r>
       <r>   10.8152    0.0000 </r>
       <r>   11.0793    0.0000 </r>
       <r>   12.6062    0.0000 </r>
       <r>   12.8868    0.0000 </r>
       <r>   13.1268    0.0000 </r>
       <r>   13.3907    0.0000 </r>
       <r>   13.9323    0.0000 </r>
       <r>   14.2781    0.0000 </r>
       <r>   14.4483    0.0000 </r>
       <r>   14.6403    0.0000 </r>
       <r>   15.3065    0.0000 </r>
       <r>   15.6857    0.0000 </r>
       <r>   15.9460    0.0000 </r>
       <r>   16.6483    0.0000 </r>
      </set>
      <set comment="kpoint 49">
       <r>  -15.4060    1.0000 </r>
       <r>  -15.4021    1.0000 </r>
       <r>  -15.3988    1.0000 </r>
       <r>  -15.3975    1.0000 </r>
       <r>  -15.3910    1.0000 </r>
       <r>  -15.3909    1.0000 </r>
       <r>  -15.3884    1.0000 </r>
       <r>  -15.3870    1.0000 </r>
       <r>  -15.3829    1.0000 </r>
       <r>  -15.3821    1.0000 </r>
       <r>  -15.3686    1.0000 </r>
       <r>  -15.3658    1.0000 </r>
       <r>  -15.3607    1.0000 </r>
       <r>  -15.3589    1.0000 </r>
       <r>  -15.3407    1.0000 </r>
       <r>  -15.3384    1.0000 </r>
       <r>  -15.3326    1.0000 </r>
       <r>  -15.3315    1.0000 </r>
       <r>  -15.3112    1.0000 </r>
       <r>  -15.3097    1.0000 </r>
       <r>   -7.4778    1.0000 </r>
       <r>   -7.3330    1.0000 </r>
       <r>   -6.8895    1.0000 </r>
       <r>   -6.7298    1.0000 </r>
       <r>   -2.3588    1.0000 </r>
       <r>   -2.0355    1.0000 </r>
       <r>   -0.9733    1.0000 </r>
       <r>   -0.7332    1.0000 </r>
       <r>    1.8740    1.0000 </r>
       <r>    2.3436    1.0000 </r>
       <r>    2.6212    1.0000 </r>
       <r>    3.0238    1.0000 </r>
       <r>    3.3344    1.0000 </r>
       <r>    3.4506    1.0000 </r>
       <r>    3.8561    1.0000 </r>
       <r>    4.3322    1.0000 </r>
       <r>    4.9527    1.0000 </r>
       <r>    5.1418    1.0000 </r>
       <r>    5.2913    1.0000 </r>
       <r>    5.3847    1.0000 </r>
       <r>    7.0875    0.0000 </r>
       <r>    7.3424    0.0000 </r>
       <r>    7.5809    0.0000 </r>
       <r>    7.9316    0.0000 </r>
       <r>    8.2260    0.0000 </r>
       <r>    8.6531    0.0000 </r>
       <r>    8.7341    0.0000 </r>
       <r>    9.0362    0.0000 </r>
       <r>   10.0352    0.0000 </r>
       <r>   10.1917    0.0000 </r>
       <r>   10.8213    0.0000 </r>
       <r>   11.0860    0.0000 </r>
       <r>   12.5935    0.0000 </r>
       <r>   12.8837    0.0000 </r>
       <r>   13.1288    0.0000 </r>
       <r>   13.3936    0.0000 </r>
       <r>   13.9271    0.0000 </r>
       <r>   14.2732    0.0000 </r>
       <r>   14.4553    0.0000 </r>
       <r>   14.6444    0.0000 </r>
       <r>   15.3114    0.0000 </r>
       <r>   15.6889    0.0000 </r>
       <r>   15.9479    0.0000 </r>
       <r>   16.6478    0.0000 </r>
      </set>
      <set comment="kpoint 50">
       <r>  -15.4035    1.0000 </r>
       <r>  -15.4034    1.0000 </r>
       <r>  -15.3994    1.0000 </r>
       <r>  -15.3993    1.0000 </r>
       <r>  -15.3915    1.0000 </r>
       <r>  -15.3913    1.0000 </r>
       <r>  -15.3873    1.0000 </r>
       <r>  -15.3872    1.0000 </r>
       <r>  -15.3827    1.0000 </r>
       <r>  -15.3826    1.0000 </r>
       <r>  -15.3663    1.0000 </r>
       <r>  -15.3662    1.0000 </r>
       <r>  -15.3591    1.0000 </r>
       <r>  -15.3591    1.0000 </r>
       <r>  -15.3393    1.0000 </r>
       <r>  -15.3392    1.0000 </r>
       <r>  -15.3322    1.0000 </r>
       <r>  -15.3321    1.0000 </r>
       <r>  -15.3104    1.0000 </r>
       <r>  -15.3104    1.0000 </r>
       <r>   -7.2341    1.0000 </r>
       <r>   -7.2341    1.0000 </r>
       <r>   -6.8974    1.0000 </r>
       <r>   -6.8974    1.0000 </r>
       <r>   -2.3484    1.0000 </r>
       <r>   -2.3483    1.0000 </r>
       <r>   -1.0467    1.0000 </r>
       <r>   -1.0465    1.0000 </r>
       <r>    2.3435    1.0000 </r>
       <r>    2.3439    1.0000 </r>
       <r>    2.9735    1.0000 </r>
       <r>    2.9757    1.0000 </r>
       <r>    3.3236    1.0000 </r>
       <r>    3.3249    1.0000 </r>
       <r>    3.9610    1.0000 </r>
       <r>    3.9648    1.0000 </r>
       <r>    5.0201    1.0000 </r>
       <r>    5.0245    1.0000 </r>
       <r>    5.3770    1.0000 </r>
       <r>    5.3803    1.0000 </r>
       <r>    7.2381    0.0000 </r>
       <r>    7.2401    0.0000 </r>
       <r>    7.6501    0.0000 </r>
       <r>    7.6518    0.0000 </r>
       <r>    8.2384    0.0000 </r>
       <r>    8.2404    0.0000 </r>
       <r>    8.9015    0.0000 </r>
       <r>    8.9056    0.0000 </r>
       <r>    9.7793    0.0000 </r>
       <r>    9.7841    0.0000 </r>
       <r>   11.0590    0.0000 </r>
       <r>   11.0613    0.0000 </r>
       <r>   12.8147    0.0000 </r>
       <r>   12.8187    0.0000 </r>
       <r>   13.9218    0.0000 </r>
       <r>   13.9339    0.0000 </r>
       <r>   14.3096    0.0000 </r>
       <r>   14.3152    0.0000 </r>
       <r>   15.2134    0.0000 </r>
       <r>   15.2158    0.0000 </r>
       <r>   15.7454    0.0000 </r>
       <r>   15.7494    0.0000 </r>
       <r>   15.9339    0.0000 </r>
       <r>   15.9367    0.0000 </r>
      </set>
      <set comment="kpoint 51">
       <r>  -15.4034    1.0000 </r>
       <r>  -15.3998    1.0000 </r>
       <r>  -15.3938    1.0000 </r>
       <r>  -15.3927    1.0000 </r>
       <r>  -15.3919    1.0000 </r>
       <r>  -15.3904    1.0000 </r>
       <r>  -15.3897    1.0000 </r>
       <r>  -15.3891    1.0000 </r>
       <r>  -15.3856    1.0000 </r>
       <r>  -15.3847    1.0000 </r>
       <r>  -15.3726    1.0000 </r>
       <r>  -15.3696    1.0000 </r>
       <r>  -15.3609    1.0000 </r>
       <r>  -15.3597    1.0000 </r>
       <r>  -15.3384    1.0000 </r>
       <r>  -15.3378    1.0000 </r>
       <r>  -15.3328    1.0000 </r>
       <r>  -15.3316    1.0000 </r>
       <r>  -15.3144    1.0000 </r>
       <r>  -15.3118    1.0000 </r>
       <r>   -7.8317    1.0000 </r>
       <r>   -7.6615    1.0000 </r>
       <r>   -6.8181    1.0000 </r>
       <r>   -6.6032    1.0000 </r>
       <r>   -1.7224    1.0000 </r>
       <r>   -1.3343    1.0000 </r>
       <r>   -0.3471    1.0000 </r>
       <r>   -0.1771    1.0000 </r>
       <r>    1.3747    1.0000 </r>
       <r>    2.3097    1.0000 </r>
       <r>    2.5041    1.0000 </r>
       <r>    2.7810    1.0000 </r>
       <r>    3.1994    1.0000 </r>
       <r>    3.3858    1.0000 </r>
       <r>    3.8036    1.0000 </r>
       <r>    3.9044    1.0000 </r>
       <r>    4.1998    1.0000 </r>
       <r>    4.5036    1.0000 </r>
       <r>    5.2562    1.0000 </r>
       <r>    5.3965    1.0000 </r>
       <r>    7.3197    0.0000 </r>
       <r>    8.0079    0.0000 </r>
       <r>    8.0459    0.0000 </r>
       <r>    8.4901    0.0000 </r>
       <r>    8.6487    0.0000 </r>
       <r>    9.1852    0.0000 </r>
       <r>    9.2817    0.0000 </r>
       <r>    9.8858    0.0000 </r>
       <r>   10.0593    0.0000 </r>
       <r>   10.4640    0.0000 </r>
       <r>   10.6008    0.0000 </r>
       <r>   10.6391    0.0000 </r>
       <r>   11.2832    0.0000 </r>
       <r>   11.4503    0.0000 </r>
       <r>   12.3662    0.0000 </r>
       <r>   12.3801    0.0000 </r>
       <r>   12.9032    0.0000 </r>
       <r>   13.4694    0.0000 </r>
       <r>   14.5343    0.0000 </r>
       <r>   14.7480    0.0000 </r>
       <r>   15.8063    0.0000 </r>
       <r>   15.9459    0.0000 </r>
       <r>   16.0213    0.0000 </r>
       <r>   16.4100    0.0000 </r>
      </set>
      <set comment="kpoint 52">
       <r>  -15.4042    1.0000 </r>
       <r>  -15.4003    1.0000 </r>
       <r>  -15.3954    1.0000 </r>
       <r>  -15.3929    1.0000 </r>
       <r>  -15.3919    1.0000 </r>
       <r>  -15.3902    1.0000 </r>
       <r>  -15.3897    1.0000 </r>
       <r>  -15.3880    1.0000 </r>
       <r>  -15.3859    1.0000 </r>
       <r>  -15.3845    1.0000 </r>
       <r>  -15.3718    1.0000 </r>
       <r>  -15.3684    1.0000 </r>
       <r>  -15.3609    1.0000 </r>
       <r>  -15.3588    1.0000 </r>
       <r>  -15.3384    1.0000 </r>
       <r>  -15.3375    1.0000 </r>
       <r>  -15.3331    1.0000 </r>
       <r>  -15.3322    1.0000 </r>
       <r>  -15.3142    1.0000 </r>
       <r>  -15.3117    1.0000 </r>
       <r>   -7.7632    1.0000 </r>
       <r>   -7.5969    1.0000 </r>
       <r>   -6.8011    1.0000 </r>
       <r>   -6.5976    1.0000 </r>
       <r>   -1.7786    1.0000 </r>
       <r>   -1.3482    1.0000 </r>
       <r>   -0.4103    1.0000 </r>
       <r>   -0.2874    1.0000 </r>
       <r>    1.4336    1.0000 </r>
       <r>    1.8194    1.0000 </r>
       <r>    2.1424    1.0000 </r>
       <r>    2.6482    1.0000 </r>
       <r>    3.0008    1.0000 </r>
       <r>    3.3763    1.0000 </r>
       <r>    3.9265    1.0000 </r>
       <r>    4.0180    1.0000 </r>
       <r>    4.7232    1.0000 </r>
       <r>    4.8841    1.0000 </r>
       <r>    5.2729    1.0000 </r>
       <r>    5.3745    1.0000 </r>
       <r>    7.1252    0.0000 </r>
       <r>    7.3793    0.0000 </r>
       <r>    8.0492    0.0000 </r>
       <r>    8.2609    0.0000 </r>
       <r>    8.7446    0.0000 </r>
       <r>    9.0459    0.0000 </r>
       <r>    9.4616    0.0000 </r>
       <r>    9.6333    0.0000 </r>
       <r>   10.0698    0.0000 </r>
       <r>   10.4246    0.0000 </r>
       <r>   10.6951    0.0000 </r>
       <r>   10.9814    0.0000 </r>
       <r>   11.8445    0.0000 </r>
       <r>   12.2759    0.0000 </r>
       <r>   12.6984    0.0000 </r>
       <r>   12.7206    0.0000 </r>
       <r>   13.1165    0.0000 </r>
       <r>   13.7756    0.0000 </r>
       <r>   14.3561    0.0000 </r>
       <r>   14.6411    0.0000 </r>
       <r>   15.1763    0.0000 </r>
       <r>   15.5761    0.0000 </r>
       <r>   15.7771    0.0000 </r>
       <r>   16.0036    0.0000 </r>
      </set>
      <set comment="kpoint 53">
       <r>  -15.4041    1.0000 </r>
       <r>  -15.4004    1.0000 </r>
       <r>  -15.3954    1.0000 </r>
       <r>  -15.3930    1.0000 </r>
       <r>  -15.3919    1.0000 </r>
       <r>  -15.3901    1.0000 </r>
       <r>  -15.3897    1.0000 </r>
       <r>  -15.3878    1.0000 </r>
       <r>  -15.3860    1.0000 </r>
       <r>  -15.3846    1.0000 </r>
       <r>  -15.3718    1.0000 </r>
       <r>  -15.3684    1.0000 </r>
       <r>  -15.3609    1.0000 </r>
       <r>  -15.3589    1.0000 </r>
       <r>  -15.3386    1.0000 </r>
       <r>  -15.3374    1.0000 </r>
       <r>  -15.3330    1.0000 </r>
       <r>  -15.3321    1.0000 </r>
       <r>  -15.3142    1.0000 </r>
       <r>  -15.3118    1.0000 </r>
       <r>   -7.7632    1.0000 </r>
       <r>   -7.5969    1.0000 </r>
       <r>   -6.8011    1.0000 </r>
       <r>   -6.5976    1.0000 </r>
       <r>   -1.7796    1.0000 </r>
       <r>   -1.3490    1.0000 </r>
       <r>   -0.4118    1.0000 </r>
       <r>   -0.2834    1.0000 </r>
       <r>    1.4339    1.0000 </r>
       <r>    1.8186    1.0000 </r>
       <r>    2.1421    1.0000 </r>
       <r>    2.6493    1.0000 </r>
       <r>    3.0013    1.0000 </r>
       <r>    3.3785    1.0000 </r>
       <r>    3.9251    1.0000 </r>
       <r>    4.0176    1.0000 </r>
       <r>    4.7208    1.0000 </r>
       <r>    4.8842    1.0000 </r>
       <r>    5.2702    1.0000 </r>
       <r>    5.3741    1.0000 </r>
       <r>    7.1256    0.0000 </r>
       <r>    7.3804    0.0000 </r>
       <r>    8.0501    0.0000 </r>
       <r>    8.2593    0.0000 </r>
       <r>    8.7441    0.0000 </r>
       <r>    9.0485    0.0000 </r>
       <r>    9.4579    0.0000 </r>
       <r>    9.6349    0.0000 </r>
       <r>   10.0746    0.0000 </r>
       <r>   10.4258    0.0000 </r>
       <r>   10.6959    0.0000 </r>
       <r>   10.9849    0.0000 </r>
       <r>   11.8410    0.0000 </r>
       <r>   12.2700    0.0000 </r>
       <r>   12.7011    0.0000 </r>
       <r>   12.7170    0.0000 </r>
       <r>   13.1180    0.0000 </r>
       <r>   13.7631    0.0000 </r>
       <r>   14.3598    0.0000 </r>
       <r>   14.6469    0.0000 </r>
       <r>   15.1781    0.0000 </r>
       <r>   15.5773    0.0000 </r>
       <r>   15.7782    0.0000 </r>
       <r>   16.0065    0.0000 </r>
      </set>
      <set comment="kpoint 54">
       <r>  -15.4061    1.0000 </r>
       <r>  -15.4019    1.0000 </r>
       <r>  -15.3990    1.0000 </r>
       <r>  -15.3961    1.0000 </r>
       <r>  -15.3907    1.0000 </r>
       <r>  -15.3900    1.0000 </r>
       <r>  -15.3887    1.0000 </r>
       <r>  -15.3865    1.0000 </r>
       <r>  -15.3850    1.0000 </r>
       <r>  -15.3841    1.0000 </r>
       <r>  -15.3701    1.0000 </r>
       <r>  -15.3663    1.0000 </r>
       <r>  -15.3594    1.0000 </r>
       <r>  -15.3569    1.0000 </r>
       <r>  -15.3380    1.0000 </r>
       <r>  -15.3366    1.0000 </r>
       <r>  -15.3338    1.0000 </r>
       <r>  -15.3333    1.0000 </r>
       <r>  -15.3136    1.0000 </r>
       <r>  -15.3118    1.0000 </r>
       <r>   -7.5727    1.0000 </r>
       <r>   -7.4187    1.0000 </r>
       <r>   -6.7763    1.0000 </r>
       <r>   -6.6031    1.0000 </r>
       <r>   -1.9489    1.0000 </r>
       <r>   -1.4889    1.0000 </r>
       <r>   -0.6432    1.0000 </r>
       <r>   -0.4674    1.0000 </r>
       <r>    1.3811    1.0000 </r>
       <r>    1.5019    1.0000 </r>
       <r>    1.9158    1.0000 </r>
       <r>    2.5311    1.0000 </r>
       <r>    2.5713    1.0000 </r>
       <r>    3.2045    1.0000 </r>
       <r>    4.1339    1.0000 </r>
       <r>    4.3885    1.0000 </r>
       <r>    4.4671    1.0000 </r>
       <r>    4.6206    1.0000 </r>
       <r>    5.2685    1.0000 </r>
       <r>    5.4132    1.0000 </r>
       <r>    7.2664    0.0000 </r>
       <r>    7.6550    0.0000 </r>
       <r>    7.7546    0.0000 </r>
       <r>    8.1887    0.0000 </r>
       <r>    8.4642    0.0000 </r>
       <r>    8.8987    0.0000 </r>
       <r>    9.3336    0.0000 </r>
       <r>    9.9095    0.0000 </r>
       <r>   10.4287    0.0000 </r>
       <r>   10.7841    0.0000 </r>
       <r>   11.0404    0.0000 </r>
       <r>   11.1691    0.0000 </r>
       <r>   12.2205    0.0000 </r>
       <r>   13.0090    0.0000 </r>
       <r>   13.3270    0.0000 </r>
       <r>   13.4022    0.0000 </r>
       <r>   13.6567    0.0000 </r>
       <r>   13.9325    0.0000 </r>
       <r>   14.2061    0.0000 </r>
       <r>   14.6565    0.0000 </r>
       <r>   14.8634    0.0000 </r>
       <r>   15.2710    0.0000 </r>
       <r>   15.9815    0.0000 </r>
       <r>   16.1121    0.0000 </r>
      </set>
      <set comment="kpoint 55">
       <r>  -15.4059    1.0000 </r>
       <r>  -15.4020    1.0000 </r>
       <r>  -15.3991    1.0000 </r>
       <r>  -15.3962    1.0000 </r>
       <r>  -15.3907    1.0000 </r>
       <r>  -15.3896    1.0000 </r>
       <r>  -15.3888    1.0000 </r>
       <r>  -15.3864    1.0000 </r>
       <r>  -15.3852    1.0000 </r>
       <r>  -15.3842    1.0000 </r>
       <r>  -15.3699    1.0000 </r>
       <r>  -15.3663    1.0000 </r>
       <r>  -15.3594    1.0000 </r>
       <r>  -15.3569    1.0000 </r>
       <r>  -15.3383    1.0000 </r>
       <r>  -15.3366    1.0000 </r>
       <r>  -15.3336    1.0000 </r>
       <r>  -15.3332    1.0000 </r>
       <r>  -15.3136    1.0000 </r>
       <r>  -15.3118    1.0000 </r>
       <r>   -7.5727    1.0000 </r>
       <r>   -7.4187    1.0000 </r>
       <r>   -6.7763    1.0000 </r>
       <r>   -6.6030    1.0000 </r>
       <r>   -1.9501    1.0000 </r>
       <r>   -1.4906    1.0000 </r>
       <r>   -0.6428    1.0000 </r>
       <r>   -0.4638    1.0000 </r>
       <r>    1.3791    1.0000 </r>
       <r>    1.5037    1.0000 </r>
       <r>    1.9151    1.0000 </r>
       <r>    2.5302    1.0000 </r>
       <r>    2.5751    1.0000 </r>
       <r>    3.2052    1.0000 </r>
       <r>    4.1296    1.0000 </r>
       <r>    4.3913    1.0000 </r>
       <r>    4.4673    1.0000 </r>
       <r>    4.6196    1.0000 </r>
       <r>    5.2637    1.0000 </r>
       <r>    5.4127    1.0000 </r>
       <r>    7.2702    0.0000 </r>
       <r>    7.6555    0.0000 </r>
       <r>    7.7515    0.0000 </r>
       <r>    8.1867    0.0000 </r>
       <r>    8.4651    0.0000 </r>
       <r>    8.8985    0.0000 </r>
       <r>    9.3377    0.0000 </r>
       <r>    9.9121    0.0000 </r>
       <r>   10.4319    0.0000 </r>
       <r>   10.7861    0.0000 </r>
       <r>   11.0412    0.0000 </r>
       <r>   11.1711    0.0000 </r>
       <r>   12.2063    0.0000 </r>
       <r>   12.9982    0.0000 </r>
       <r>   13.3275    0.0000 </r>
       <r>   13.4055    0.0000 </r>
       <r>   13.6555    0.0000 </r>
       <r>   13.9315    0.0000 </r>
       <r>   14.2085    0.0000 </r>
       <r>   14.6644    0.0000 </r>
       <r>   14.8661    0.0000 </r>
       <r>   15.2744    0.0000 </r>
       <r>   15.9796    0.0000 </r>
       <r>   16.1151    0.0000 </r>
      </set>
      <set comment="kpoint 56">
       <r>  -15.4077    1.0000 </r>
       <r>  -15.4051    1.0000 </r>
       <r>  -15.4015    1.0000 </r>
       <r>  -15.3997    1.0000 </r>
       <r>  -15.3903    1.0000 </r>
       <r>  -15.3893    1.0000 </r>
       <r>  -15.3885    1.0000 </r>
       <r>  -15.3860    1.0000 </r>
       <r>  -15.3837    1.0000 </r>
       <r>  -15.3829    1.0000 </r>
       <r>  -15.3680    1.0000 </r>
       <r>  -15.3655    1.0000 </r>
       <r>  -15.3566    1.0000 </r>
       <r>  -15.3551    1.0000 </r>
       <r>  -15.3369    1.0000 </r>
       <r>  -15.3356    1.0000 </r>
       <r>  -15.3348    1.0000 </r>
       <r>  -15.3341    1.0000 </r>
       <r>  -15.3129    1.0000 </r>
       <r>  -15.3119    1.0000 </r>
       <r>   -7.3110    1.0000 </r>
       <r>   -7.1829    1.0000 </r>
       <r>   -6.8019    1.0000 </r>
       <r>   -6.6702    1.0000 </r>
       <r>   -2.1168    1.0000 </r>
       <r>   -1.8139    1.0000 </r>
       <r>   -0.8413    1.0000 </r>
       <r>   -0.6862    1.0000 </r>
       <r>    1.4162    1.0000 </r>
       <r>    1.5581    1.0000 </r>
       <r>    2.1614    1.0000 </r>
       <r>    2.3104    1.0000 </r>
       <r>    2.5553    1.0000 </r>
       <r>    3.2751    1.0000 </r>
       <r>    3.6999    1.0000 </r>
       <r>    3.8811    1.0000 </r>
       <r>    4.1402    1.0000 </r>
       <r>    4.2118    1.0000 </r>
       <r>    4.9697    1.0000 </r>
       <r>    5.2032    1.0000 </r>
       <r>    7.4393    0.0000 </r>
       <r>    8.0048    0.0000 </r>
       <r>    8.2044    0.0000 </r>
       <r>    8.3746    0.0000 </r>
       <r>    8.9791    0.0000 </r>
       <r>    9.2129    0.0000 </r>
       <r>    9.4253    0.0000 </r>
       <r>    9.9320    0.0000 </r>
       <r>   10.4567    0.0000 </r>
       <r>   10.7859    0.0000 </r>
       <r>   11.1456    0.0000 </r>
       <r>   11.2869    0.0000 </r>
       <r>   12.2004    0.0000 </r>
       <r>   12.6544    0.0000 </r>
       <r>   13.2333    0.0000 </r>
       <r>   13.8070    0.0000 </r>
       <r>   14.0034    0.0000 </r>
       <r>   14.3803    0.0000 </r>
       <r>   14.9389    0.0000 </r>
       <r>   15.1277    0.0000 </r>
       <r>   15.4571    0.0000 </r>
       <r>   15.6059    0.0000 </r>
       <r>   16.5840    0.0000 </r>
       <r>   17.0040    0.0000 </r>
      </set>
      <set comment="kpoint 57">
       <r>  -15.4076    1.0000 </r>
       <r>  -15.4052    1.0000 </r>
       <r>  -15.4016    1.0000 </r>
       <r>  -15.3997    1.0000 </r>
       <r>  -15.3903    1.0000 </r>
       <r>  -15.3893    1.0000 </r>
       <r>  -15.3884    1.0000 </r>
       <r>  -15.3860    1.0000 </r>
       <r>  -15.3837    1.0000 </r>
       <r>  -15.3830    1.0000 </r>
       <r>  -15.3678    1.0000 </r>
       <r>  -15.3656    1.0000 </r>
       <r>  -15.3566    1.0000 </r>
       <r>  -15.3551    1.0000 </r>
       <r>  -15.3372    1.0000 </r>
       <r>  -15.3356    1.0000 </r>
       <r>  -15.3344    1.0000 </r>
       <r>  -15.3341    1.0000 </r>
       <r>  -15.3129    1.0000 </r>
       <r>  -15.3119    1.0000 </r>
       <r>   -7.3110    1.0000 </r>
       <r>   -7.1829    1.0000 </r>
       <r>   -6.8019    1.0000 </r>
       <r>   -6.6702    1.0000 </r>
       <r>   -2.1173    1.0000 </r>
       <r>   -1.8152    1.0000 </r>
       <r>   -0.8409    1.0000 </r>
       <r>   -0.6845    1.0000 </r>
       <r>    1.4160    1.0000 </r>
       <r>    1.5588    1.0000 </r>
       <r>    2.1605    1.0000 </r>
       <r>    2.3109    1.0000 </r>
       <r>    2.5563    1.0000 </r>
       <r>    3.2751    1.0000 </r>
       <r>    3.6998    1.0000 </r>
       <r>    3.8827    1.0000 </r>
       <r>    4.1357    1.0000 </r>
       <r>    4.2143    1.0000 </r>
       <r>    4.9646    1.0000 </r>
       <r>    5.2056    1.0000 </r>
       <r>    7.4389    0.0000 </r>
       <r>    8.0036    0.0000 </r>
       <r>    8.2052    0.0000 </r>
       <r>    8.3750    0.0000 </r>
       <r>    8.9778    0.0000 </r>
       <r>    9.2143    0.0000 </r>
       <r>    9.4275    0.0000 </r>
       <r>    9.9319    0.0000 </r>
       <r>   10.4628    0.0000 </r>
       <r>   10.7860    0.0000 </r>
       <r>   11.1468    0.0000 </r>
       <r>   11.2864    0.0000 </r>
       <r>   12.1901    0.0000 </r>
       <r>   12.6522    0.0000 </r>
       <r>   13.2227    0.0000 </r>
       <r>   13.8186    0.0000 </r>
       <r>   14.0054    0.0000 </r>
       <r>   14.3773    0.0000 </r>
       <r>   14.9415    0.0000 </r>
       <r>   15.1251    0.0000 </r>
       <r>   15.4651    0.0000 </r>
       <r>   15.6126    0.0000 </r>
       <r>   16.5832    0.0000 </r>
       <r>   17.0037    0.0000 </r>
      </set>
      <set comment="kpoint 58">
       <r>  -15.4077    1.0000 </r>
       <r>  -15.4076    1.0000 </r>
       <r>  -15.4018    1.0000 </r>
       <r>  -15.4017    1.0000 </r>
       <r>  -15.3898    1.0000 </r>
       <r>  -15.3897    1.0000 </r>
       <r>  -15.3872    1.0000 </r>
       <r>  -15.3870    1.0000 </r>
       <r>  -15.3827    1.0000 </r>
       <r>  -15.3825    1.0000 </r>
       <r>  -15.3662    1.0000 </r>
       <r>  -15.3661    1.0000 </r>
       <r>  -15.3548    1.0000 </r>
       <r>  -15.3548    1.0000 </r>
       <r>  -15.3359    1.0000 </r>
       <r>  -15.3355    1.0000 </r>
       <r>  -15.3349    1.0000 </r>
       <r>  -15.3345    1.0000 </r>
       <r>  -15.3123    1.0000 </r>
       <r>  -15.3123    1.0000 </r>
       <r>   -7.0925    1.0000 </r>
       <r>   -7.0925    1.0000 </r>
       <r>   -6.8045    1.0000 </r>
       <r>   -6.8045    1.0000 </r>
       <r>   -2.0838    1.0000 </r>
       <r>   -2.0835    1.0000 </r>
       <r>   -0.8610    1.0000 </r>
       <r>   -0.8604    1.0000 </r>
       <r>    1.7769    1.0000 </r>
       <r>    1.7786    1.0000 </r>
       <r>    2.0049    1.0000 </r>
       <r>    2.0071    1.0000 </r>
       <r>    2.9427    1.0000 </r>
       <r>    2.9439    1.0000 </r>
       <r>    3.6538    1.0000 </r>
       <r>    3.6566    1.0000 </r>
       <r>    4.0238    1.0000 </r>
       <r>    4.0312    1.0000 </r>
       <r>    4.8156    1.0000 </r>
       <r>    4.8206    1.0000 </r>
       <r>    7.7733    0.0000 </r>
       <r>    7.7756    0.0000 </r>
       <r>    8.7676    0.0000 </r>
       <r>    8.7697    0.0000 </r>
       <r>    9.0270    0.0000 </r>
       <r>    9.0297    0.0000 </r>
       <r>    9.9014    0.0000 </r>
       <r>    9.9056    0.0000 </r>
       <r>   10.6396    0.0000 </r>
       <r>   10.6443    0.0000 </r>
       <r>   10.9685    0.0000 </r>
       <r>   10.9725    0.0000 </r>
       <r>   12.2840    0.0000 </r>
       <r>   12.2927    0.0000 </r>
       <r>   13.4880    0.0000 </r>
       <r>   13.5032    0.0000 </r>
       <r>   14.6881    0.0000 </r>
       <r>   14.6926    0.0000 </r>
       <r>   15.8833    0.0000 </r>
       <r>   15.8843    0.0000 </r>
       <r>   16.0245    0.0000 </r>
       <r>   16.0270    0.0000 </r>
       <r>   16.6261    0.0000 </r>
       <r>   16.6299    0.0000 </r>
      </set>
      <set comment="kpoint 59">
       <r>  -15.4020    1.0000 </r>
       <r>  -15.4003    1.0000 </r>
       <r>  -15.3969    1.0000 </r>
       <r>  -15.3948    1.0000 </r>
       <r>  -15.3891    1.0000 </r>
       <r>  -15.3889    1.0000 </r>
       <r>  -15.3883    1.0000 </r>
       <r>  -15.3881    1.0000 </r>
       <r>  -15.3860    1.0000 </r>
       <r>  -15.3819    1.0000 </r>
       <r>  -15.3703    1.0000 </r>
       <r>  -15.3673    1.0000 </r>
       <r>  -15.3587    1.0000 </r>
       <r>  -15.3558    1.0000 </r>
       <r>  -15.3415    1.0000 </r>
       <r>  -15.3409    1.0000 </r>
       <r>  -15.3314    1.0000 </r>
       <r>  -15.3281    1.0000 </r>
       <r>  -15.3163    1.0000 </r>
       <r>  -15.3155    1.0000 </r>
       <r>   -7.5262    1.0000 </r>
       <r>   -7.3893    1.0000 </r>
       <r>   -6.7879    1.0000 </r>
       <r>   -6.6650    1.0000 </r>
       <r>   -2.0091    1.0000 </r>
       <r>   -1.6477    1.0000 </r>
       <r>   -1.1504    1.0000 </r>
       <r>   -0.8533    1.0000 </r>
       <r>    1.7228    1.0000 </r>
       <r>    2.6699    1.0000 </r>
       <r>    2.8497    1.0000 </r>
       <r>    3.0856    1.0000 </r>
       <r>    3.2942    1.0000 </r>
       <r>    3.7199    1.0000 </r>
       <r>    3.9675    1.0000 </r>
       <r>    4.0258    1.0000 </r>
       <r>    4.3129    1.0000 </r>
       <r>    4.5069    1.0000 </r>
       <r>    5.3056    1.0000 </r>
       <r>    5.6064    1.0000 </r>
       <r>    6.6013    0.0000 </r>
       <r>    7.1247    0.0000 </r>
       <r>    7.8358    0.0000 </r>
       <r>    7.8693    0.0000 </r>
       <r>    8.3342    0.0000 </r>
       <r>    8.5482    0.0000 </r>
       <r>    8.5614    0.0000 </r>
       <r>    9.1006    0.0000 </r>
       <r>    9.3355    0.0000 </r>
       <r>    9.9430    0.0000 </r>
       <r>   10.0617    0.0000 </r>
       <r>   10.4848    0.0000 </r>
       <r>   12.4122    0.0000 </r>
       <r>   12.7547    0.0000 </r>
       <r>   12.7570    0.0000 </r>
       <r>   13.4050    0.0000 </r>
       <r>   13.7989    0.0000 </r>
       <r>   14.1165    0.0000 </r>
       <r>   14.4917    0.0000 </r>
       <r>   15.1004    0.0000 </r>
       <r>   15.1877    0.0000 </r>
       <r>   15.4124    0.0000 </r>
       <r>   16.3708    0.0000 </r>
       <r>   16.4842    0.0000 </r>
      </set>
      <set comment="kpoint 60">
       <r>  -15.4045    1.0000 </r>
       <r>  -15.4017    1.0000 </r>
       <r>  -15.3992    1.0000 </r>
       <r>  -15.3965    1.0000 </r>
       <r>  -15.3901    1.0000 </r>
       <r>  -15.3886    1.0000 </r>
       <r>  -15.3869    1.0000 </r>
       <r>  -15.3863    1.0000 </r>
       <r>  -15.3850    1.0000 </r>
       <r>  -15.3813    1.0000 </r>
       <r>  -15.3700    1.0000 </r>
       <r>  -15.3670    1.0000 </r>
       <r>  -15.3578    1.0000 </r>
       <r>  -15.3550    1.0000 </r>
       <r>  -15.3412    1.0000 </r>
       <r>  -15.3405    1.0000 </r>
       <r>  -15.3315    1.0000 </r>
       <r>  -15.3284    1.0000 </r>
       <r>  -15.3161    1.0000 </r>
       <r>  -15.3154    1.0000 </r>
       <r>   -7.4646    1.0000 </r>
       <r>   -7.3318    1.0000 </r>
       <r>   -6.7660    1.0000 </r>
       <r>   -6.6487    1.0000 </r>
       <r>   -1.9558    1.0000 </r>
       <r>   -1.5758    1.0000 </r>
       <r>   -1.1028    1.0000 </r>
       <r>   -0.8582    1.0000 </r>
       <r>    1.7120    1.0000 </r>
       <r>    1.9092    1.0000 </r>
       <r>    2.3658    1.0000 </r>
       <r>    2.8220    1.0000 </r>
       <r>    3.1518    1.0000 </r>
       <r>    3.4077    1.0000 </r>
       <r>    3.8740    1.0000 </r>
       <r>    4.2292    1.0000 </r>
       <r>    4.6036    1.0000 </r>
       <r>    4.6569    1.0000 </r>
       <r>    5.0659    1.0000 </r>
       <r>    5.1889    1.0000 </r>
       <r>    7.1362    0.0000 </r>
       <r>    7.2083    0.0000 </r>
       <r>    7.5596    0.0000 </r>
       <r>    7.7751    0.0000 </r>
       <r>    8.5200    0.0000 </r>
       <r>    8.8079    0.0000 </r>
       <r>    8.9381    0.0000 </r>
       <r>    9.3690    0.0000 </r>
       <r>    9.7500    0.0000 </r>
       <r>   10.2041    0.0000 </r>
       <r>   10.5364    0.0000 </r>
       <r>   10.7530    0.0000 </r>
       <r>   12.2660    0.0000 </r>
       <r>   12.8890    0.0000 </r>
       <r>   13.1898    0.0000 </r>
       <r>   13.5456    0.0000 </r>
       <r>   13.8620    0.0000 </r>
       <r>   13.8957    0.0000 </r>
       <r>   14.2884    0.0000 </r>
       <r>   14.9420    0.0000 </r>
       <r>   15.3013    0.0000 </r>
       <r>   15.4483    0.0000 </r>
       <r>   16.5075    0.0000 </r>
       <r>   16.6871    0.0000 </r>
      </set>
      <set comment="kpoint 61">
       <r>  -15.4044    1.0000 </r>
       <r>  -15.4017    1.0000 </r>
       <r>  -15.3992    1.0000 </r>
       <r>  -15.3966    1.0000 </r>
       <r>  -15.3897    1.0000 </r>
       <r>  -15.3887    1.0000 </r>
       <r>  -15.3870    1.0000 </r>
       <r>  -15.3863    1.0000 </r>
       <r>  -15.3851    1.0000 </r>
       <r>  -15.3813    1.0000 </r>
       <r>  -15.3700    1.0000 </r>
       <r>  -15.3670    1.0000 </r>
       <r>  -15.3578    1.0000 </r>
       <r>  -15.3550    1.0000 </r>
       <r>  -15.3412    1.0000 </r>
       <r>  -15.3405    1.0000 </r>
       <r>  -15.3314    1.0000 </r>
       <r>  -15.3283    1.0000 </r>
       <r>  -15.3161    1.0000 </r>
       <r>  -15.3154    1.0000 </r>
       <r>   -7.4646    1.0000 </r>
       <r>   -7.3318    1.0000 </r>
       <r>   -6.7660    1.0000 </r>
       <r>   -6.6486    1.0000 </r>
       <r>   -1.9567    1.0000 </r>
       <r>   -1.5770    1.0000 </r>
       <r>   -1.1024    1.0000 </r>
       <r>   -0.8562    1.0000 </r>
       <r>    1.7124    1.0000 </r>
       <r>    1.9088    1.0000 </r>
       <r>    2.3662    1.0000 </r>
       <r>    2.8233    1.0000 </r>
       <r>    3.1519    1.0000 </r>
       <r>    3.4091    1.0000 </r>
       <r>    3.8716    1.0000 </r>
       <r>    4.2291    1.0000 </r>
       <r>    4.6032    1.0000 </r>
       <r>    4.6569    1.0000 </r>
       <r>    5.0644    1.0000 </r>
       <r>    5.1873    1.0000 </r>
       <r>    7.1393    0.0000 </r>
       <r>    7.2103    0.0000 </r>
       <r>    7.5589    0.0000 </r>
       <r>    7.7715    0.0000 </r>
       <r>    8.5165    0.0000 </r>
       <r>    8.8061    0.0000 </r>
       <r>    8.9397    0.0000 </r>
       <r>    9.3696    0.0000 </r>
       <r>    9.7558    0.0000 </r>
       <r>   10.2098    0.0000 </r>
       <r>   10.5363    0.0000 </r>
       <r>   10.7523    0.0000 </r>
       <r>   12.2592    0.0000 </r>
       <r>   12.8862    0.0000 </r>
       <r>   13.1881    0.0000 </r>
       <r>   13.5445    0.0000 </r>
       <r>   13.8592    0.0000 </r>
       <r>   13.8997    0.0000 </r>
       <r>   14.2875    0.0000 </r>
       <r>   14.9441    0.0000 </r>
       <r>   15.3039    0.0000 </r>
       <r>   15.4515    0.0000 </r>
       <r>   16.5037    0.0000 </r>
       <r>   16.6866    0.0000 </r>
      </set>
      <set comment="kpoint 62">
       <r>  -15.4094    1.0000 </r>
       <r>  -15.4063    1.0000 </r>
       <r>  -15.4034    1.0000 </r>
       <r>  -15.4008    1.0000 </r>
       <r>  -15.3905    1.0000 </r>
       <r>  -15.3889    1.0000 </r>
       <r>  -15.3841    1.0000 </r>
       <r>  -15.3838    1.0000 </r>
       <r>  -15.3827    1.0000 </r>
       <r>  -15.3801    1.0000 </r>
       <r>  -15.3693    1.0000 </r>
       <r>  -15.3665    1.0000 </r>
       <r>  -15.3550    1.0000 </r>
       <r>  -15.3528    1.0000 </r>
       <r>  -15.3402    1.0000 </r>
       <r>  -15.3395    1.0000 </r>
       <r>  -15.3315    1.0000 </r>
       <r>  -15.3291    1.0000 </r>
       <r>  -15.3157    1.0000 </r>
       <r>  -15.3151    1.0000 </r>
       <r>   -7.2968    1.0000 </r>
       <r>   -7.1764    1.0000 </r>
       <r>   -6.7235    1.0000 </r>
       <r>   -6.6204    1.0000 </r>
       <r>   -1.8426    1.0000 </r>
       <r>   -1.4432    1.0000 </r>
       <r>   -0.9794    1.0000 </r>
       <r>   -0.8629    1.0000 </r>
       <r>    1.1580    1.0000 </r>
       <r>    1.3671    1.0000 </r>
       <r>    2.1120    1.0000 </r>
       <r>    2.2373    1.0000 </r>
       <r>    2.4248    1.0000 </r>
       <r>    3.1045    1.0000 </r>
       <r>    3.6055    1.0000 </r>
       <r>    3.8501    1.0000 </r>
       <r>    3.9763    1.0000 </r>
       <r>    4.2968    1.0000 </r>
       <r>    4.7978    1.0000 </r>
       <r>    5.2145    1.0000 </r>
       <r>    7.3060    0.0000 </r>
       <r>    7.8852    0.0000 </r>
       <r>    8.2293    0.0000 </r>
       <r>    8.4229    0.0000 </r>
       <r>    8.7661    0.0000 </r>
       <r>    8.9513    0.0000 </r>
       <r>    9.7392    0.0000 </r>
       <r>   10.0050    0.0000 </r>
       <r>   10.2005    0.0000 </r>
       <r>   10.4803    0.0000 </r>
       <r>   11.4363    0.0000 </r>
       <r>   11.6660    0.0000 </r>
       <r>   12.1645    0.0000 </r>
       <r>   12.6614    0.0000 </r>
       <r>   13.3314    0.0000 </r>
       <r>   13.9436    0.0000 </r>
       <r>   14.1911    0.0000 </r>
       <r>   14.3015    0.0000 </r>
       <r>   14.6411    0.0000 </r>
       <r>   14.8918    0.0000 </r>
       <r>   15.4043    0.0000 </r>
       <r>   16.0052    0.0000 </r>
       <r>   16.1439    0.0000 </r>
       <r>   16.5289    0.0000 </r>
      </set>
      <set comment="kpoint 63">
       <r>  -15.4093    1.0000 </r>
       <r>  -15.4063    1.0000 </r>
       <r>  -15.4034    1.0000 </r>
       <r>  -15.4009    1.0000 </r>
       <r>  -15.3902    1.0000 </r>
       <r>  -15.3890    1.0000 </r>
       <r>  -15.3843    1.0000 </r>
       <r>  -15.3837    1.0000 </r>
       <r>  -15.3828    1.0000 </r>
       <r>  -15.3801    1.0000 </r>
       <r>  -15.3692    1.0000 </r>
       <r>  -15.3665    1.0000 </r>
       <r>  -15.3550    1.0000 </r>
       <r>  -15.3529    1.0000 </r>
       <r>  -15.3402    1.0000 </r>
       <r>  -15.3395    1.0000 </r>
       <r>  -15.3315    1.0000 </r>
       <r>  -15.3290    1.0000 </r>
       <r>  -15.3157    1.0000 </r>
       <r>  -15.3152    1.0000 </r>
       <r>   -7.2968    1.0000 </r>
       <r>   -7.1764    1.0000 </r>
       <r>   -6.7235    1.0000 </r>
       <r>   -6.6203    1.0000 </r>
       <r>   -1.8442    1.0000 </r>
       <r>   -1.4464    1.0000 </r>
       <r>   -0.9781    1.0000 </r>
       <r>   -0.8581    1.0000 </r>
       <r>    1.1563    1.0000 </r>
       <r>    1.3680    1.0000 </r>
       <r>    2.1114    1.0000 </r>
       <r>    2.2388    1.0000 </r>
       <r>    2.4252    1.0000 </r>
       <r>    3.1049    1.0000 </r>
       <r>    3.6075    1.0000 </r>
       <r>    3.8514    1.0000 </r>
       <r>    3.9713    1.0000 </r>
       <r>    4.2974    1.0000 </r>
       <r>    4.7931    1.0000 </r>
       <r>    5.2168    1.0000 </r>
       <r>    7.3062    0.0000 </r>
       <r>    7.8837    0.0000 </r>
       <r>    8.2293    0.0000 </r>
       <r>    8.4248    0.0000 </r>
       <r>    8.7628    0.0000 </r>
       <r>    8.9503    0.0000 </r>
       <r>    9.7448    0.0000 </r>
       <r>   10.0102    0.0000 </r>
       <r>   10.2007    0.0000 </r>
       <r>   10.4820    0.0000 </r>
       <r>   11.4360    0.0000 </r>
       <r>   11.6637    0.0000 </r>
       <r>   12.1595    0.0000 </r>
       <r>   12.6562    0.0000 </r>
       <r>   13.3249    0.0000 </r>
       <r>   13.9529    0.0000 </r>
       <r>   14.1927    0.0000 </r>
       <r>   14.2973    0.0000 </r>
       <r>   14.6436    0.0000 </r>
       <r>   14.8878    0.0000 </r>
       <r>   15.4134    0.0000 </r>
       <r>   16.0065    0.0000 </r>
       <r>   16.1464    0.0000 </r>
       <r>   16.5258    0.0000 </r>
      </set>
      <set comment="kpoint 64">
       <r>  -15.4135    1.0000 </r>
       <r>  -15.4116    1.0000 </r>
       <r>  -15.4069    1.0000 </r>
       <r>  -15.4055    1.0000 </r>
       <r>  -15.3905    1.0000 </r>
       <r>  -15.3894    1.0000 </r>
       <r>  -15.3822    1.0000 </r>
       <r>  -15.3819    1.0000 </r>
       <r>  -15.3805    1.0000 </r>
       <r>  -15.3794    1.0000 </r>
       <r>  -15.3683    1.0000 </r>
       <r>  -15.3664    1.0000 </r>
       <r>  -15.3517    1.0000 </r>
       <r>  -15.3506    1.0000 </r>
       <r>  -15.3389    1.0000 </r>
       <r>  -15.3385    1.0000 </r>
       <r>  -15.3311    1.0000 </r>
       <r>  -15.3298    1.0000 </r>
       <r>  -15.3152    1.0000 </r>
       <r>  -15.3149    1.0000 </r>
       <r>   -7.0764    1.0000 </r>
       <r>   -6.9800    1.0000 </r>
       <r>   -6.7140    1.0000 </r>
       <r>   -6.6309    1.0000 </r>
       <r>   -1.7626    1.0000 </r>
       <r>   -1.5076    1.0000 </r>
       <r>   -0.7926    1.0000 </r>
       <r>   -0.7671    1.0000 </r>
       <r>    0.8614    1.0000 </r>
       <r>    1.0920    1.0000 </r>
       <r>    1.6604    1.0000 </r>
       <r>    1.8929    1.0000 </r>
       <r>    2.1965    1.0000 </r>
       <r>    2.6233    1.0000 </r>
       <r>    2.8408    1.0000 </r>
       <r>    3.4528    1.0000 </r>
       <r>    3.7106    1.0000 </r>
       <r>    4.0699    1.0000 </r>
       <r>    4.4486    1.0000 </r>
       <r>    4.7788    1.0000 </r>
       <r>    7.6066    0.0000 </r>
       <r>    8.2452    0.0000 </r>
       <r>    8.8547    0.0000 </r>
       <r>    9.0686    0.0000 </r>
       <r>    9.1538    0.0000 </r>
       <r>    9.5636    0.0000 </r>
       <r>   10.5487    0.0000 </r>
       <r>   10.6307    0.0000 </r>
       <r>   10.7483    0.0000 </r>
       <r>   10.9135    0.0000 </r>
       <r>   11.9195    0.0000 </r>
       <r>   11.9915    0.0000 </r>
       <r>   12.1319    0.0000 </r>
       <r>   12.3619    0.0000 </r>
       <r>   13.1523    0.0000 </r>
       <r>   13.4755    0.0000 </r>
       <r>   14.9815    0.0000 </r>
       <r>   15.3668    0.0000 </r>
       <r>   15.5175    0.0000 </r>
       <r>   15.5366    0.0000 </r>
       <r>   16.0163    0.0000 </r>
       <r>   16.1792    0.0000 </r>
       <r>   16.4138    0.0000 </r>
       <r>   16.7555    0.0000 </r>
      </set>
      <set comment="kpoint 65">
       <r>  -15.4134    1.0000 </r>
       <r>  -15.4116    1.0000 </r>
       <r>  -15.4069    1.0000 </r>
       <r>  -15.4055    1.0000 </r>
       <r>  -15.3903    1.0000 </r>
       <r>  -15.3895    1.0000 </r>
       <r>  -15.3824    1.0000 </r>
       <r>  -15.3818    1.0000 </r>
       <r>  -15.3806    1.0000 </r>
       <r>  -15.3795    1.0000 </r>
       <r>  -15.3682    1.0000 </r>
       <r>  -15.3665    1.0000 </r>
       <r>  -15.3517    1.0000 </r>
       <r>  -15.3506    1.0000 </r>
       <r>  -15.3389    1.0000 </r>
       <r>  -15.3385    1.0000 </r>
       <r>  -15.3311    1.0000 </r>
       <r>  -15.3297    1.0000 </r>
       <r>  -15.3152    1.0000 </r>
       <r>  -15.3149    1.0000 </r>
       <r>   -7.0763    1.0000 </r>
       <r>   -6.9800    1.0000 </r>
       <r>   -6.7141    1.0000 </r>
       <r>   -6.6308    1.0000 </r>
       <r>   -1.7637    1.0000 </r>
       <r>   -1.5102    1.0000 </r>
       <r>   -0.7912    1.0000 </r>
       <r>   -0.7633    1.0000 </r>
       <r>    0.8601    1.0000 </r>
       <r>    1.0925    1.0000 </r>
       <r>    1.6590    1.0000 </r>
       <r>    1.8921    1.0000 </r>
       <r>    2.1977    1.0000 </r>
       <r>    2.6245    1.0000 </r>
       <r>    2.8425    1.0000 </r>
       <r>    3.4541    1.0000 </r>
       <r>    3.7082    1.0000 </r>
       <r>    4.0695    1.0000 </r>
       <r>    4.4411    1.0000 </r>
       <r>    4.7848    1.0000 </r>
       <r>    7.6042    0.0000 </r>
       <r>    8.2440    0.0000 </r>
       <r>    8.8609    0.0000 </r>
       <r>    9.0674    0.0000 </r>
       <r>    9.1589    0.0000 </r>
       <r>    9.5577    0.0000 </r>
       <r>   10.5463    0.0000 </r>
       <r>   10.6350    0.0000 </r>
       <r>   10.7479    0.0000 </r>
       <r>   10.9160    0.0000 </r>
       <r>   11.9209    0.0000 </r>
       <r>   11.9927    0.0000 </r>
       <r>   12.1299    0.0000 </r>
       <r>   12.3512    0.0000 </r>
       <r>   13.1415    0.0000 </r>
       <r>   13.4903    0.0000 </r>
       <r>   14.9846    0.0000 </r>
       <r>   15.3624    0.0000 </r>
       <r>   15.5188    0.0000 </r>
       <r>   15.5381    0.0000 </r>
       <r>   16.0134    0.0000 </r>
       <r>   16.1838    0.0000 </r>
       <r>   16.4201    0.0000 </r>
       <r>   16.7563    0.0000 </r>
      </set>
      <set comment="kpoint 66">
       <r>  -15.4144    1.0000 </r>
       <r>  -15.4144    1.0000 </r>
       <r>  -15.4079    1.0000 </r>
       <r>  -15.4078    1.0000 </r>
       <r>  -15.3902    1.0000 </r>
       <r>  -15.3900    1.0000 </r>
       <r>  -15.3815    1.0000 </r>
       <r>  -15.3814    1.0000 </r>
       <r>  -15.3796    1.0000 </r>
       <r>  -15.3794    1.0000 </r>
       <r>  -15.3671    1.0000 </r>
       <r>  -15.3670    1.0000 </r>
       <r>  -15.3499    1.0000 </r>
       <r>  -15.3499    1.0000 </r>
       <r>  -15.3382    1.0000 </r>
       <r>  -15.3382    1.0000 </r>
       <r>  -15.3304    1.0000 </r>
       <r>  -15.3303    1.0000 </r>
       <r>  -15.3149    1.0000 </r>
       <r>  -15.3149    1.0000 </r>
       <r>   -6.9056    1.0000 </r>
       <r>   -6.9055    1.0000 </r>
       <r>   -6.7056    1.0000 </r>
       <r>   -6.7055    1.0000 </r>
       <r>   -1.6765    1.0000 </r>
       <r>   -1.6760    1.0000 </r>
       <r>   -0.6897    1.0000 </r>
       <r>   -0.6885    1.0000 </r>
       <r>    1.0744    1.0000 </r>
       <r>    1.0753    1.0000 </r>
       <r>    1.3534    1.0000 </r>
       <r>    1.3547    1.0000 </r>
       <r>    2.3252    1.0000 </r>
       <r>    2.3274    1.0000 </r>
       <r>    2.9346    1.0000 </r>
       <r>    2.9367    1.0000 </r>
       <r>    3.7695    1.0000 </r>
       <r>    3.7792    1.0000 </r>
       <r>    4.5054    1.0000 </r>
       <r>    4.5116    1.0000 </r>
       <r>    7.8586    0.0000 </r>
       <r>    7.8604    0.0000 </r>
       <r>    9.1519    0.0000 </r>
       <r>    9.1529    0.0000 </r>
       <r>   10.1042    0.0000 </r>
       <r>   10.1086    0.0000 </r>
       <r>   10.3198    0.0000 </r>
       <r>   10.3263    0.0000 </r>
       <r>   11.4603    0.0000 </r>
       <r>   11.4659    0.0000 </r>
       <r>   11.8549    0.0000 </r>
       <r>   11.8584    0.0000 </r>
       <r>   12.2706    0.0000 </r>
       <r>   12.2817    0.0000 </r>
       <r>   13.1958    0.0000 </r>
       <r>   13.2126    0.0000 </r>
       <r>   15.1147    0.0000 </r>
       <r>   15.1183    0.0000 </r>
       <r>   16.3757    0.0000 </r>
       <r>   16.3777    0.0000 </r>
       <r>   16.6355    0.0000 </r>
       <r>   16.6382    0.0000 </r>
       <r>   17.1865    0.0000 </r>
       <r>   17.1901    0.0000 </r>
      </set>
      <set comment="kpoint 67">
       <r>  -15.4033    1.0000 </r>
       <r>  -15.4016    1.0000 </r>
       <r>  -15.4007    1.0000 </r>
       <r>  -15.3987    1.0000 </r>
       <r>  -15.3888    1.0000 </r>
       <r>  -15.3885    1.0000 </r>
       <r>  -15.3880    1.0000 </r>
       <r>  -15.3869    1.0000 </r>
       <r>  -15.3775    1.0000 </r>
       <r>  -15.3744    1.0000 </r>
       <r>  -15.3705    1.0000 </r>
       <r>  -15.3702    1.0000 </r>
       <r>  -15.3538    1.0000 </r>
       <r>  -15.3515    1.0000 </r>
       <r>  -15.3476    1.0000 </r>
       <r>  -15.3467    1.0000 </r>
       <r>  -15.3256    1.0000 </r>
       <r>  -15.3232    1.0000 </r>
       <r>  -15.3200    1.0000 </r>
       <r>  -15.3190    1.0000 </r>
       <r>   -7.1734    1.0000 </r>
       <r>   -7.0956    1.0000 </r>
       <r>   -6.8726    1.0000 </r>
       <r>   -6.8589    1.0000 </r>
       <r>   -2.0618    1.0000 </r>
       <r>   -1.7635    1.0000 </r>
       <r>   -1.6974    1.0000 </r>
       <r>   -1.4079    1.0000 </r>
       <r>    2.2396    1.0000 </r>
       <r>    2.7980    1.0000 </r>
       <r>    3.1715    1.0000 </r>
       <r>    3.4215    1.0000 </r>
       <r>    3.4231    1.0000 </r>
       <r>    3.8381    1.0000 </r>
       <r>    3.8519    1.0000 </r>
       <r>    3.8893    1.0000 </r>
       <r>    4.5583    1.0000 </r>
       <r>    4.7366    1.0000 </r>
       <r>    5.1125    1.0000 </r>
       <r>    5.2354    1.0000 </r>
       <r>    6.8308    0.0000 </r>
       <r>    7.0380    0.0000 </r>
       <r>    7.3334    0.0000 </r>
       <r>    7.5345    0.0000 </r>
       <r>    7.8313    0.0000 </r>
       <r>    8.0217    0.0000 </r>
       <r>    8.0273    0.0000 </r>
       <r>    8.3538    0.0000 </r>
       <r>    8.9636    0.0000 </r>
       <r>    9.3801    0.0000 </r>
       <r>   10.2048    0.0000 </r>
       <r>   10.3736    0.0000 </r>
       <r>   13.2154    0.0000 </r>
       <r>   13.5552    0.0000 </r>
       <r>   13.9523    0.0000 </r>
       <r>   14.0036    0.0000 </r>
       <r>   14.4507    0.0000 </r>
       <r>   14.5325    0.0000 </r>
       <r>   14.7291    0.0000 </r>
       <r>   15.1517    0.0000 </r>
       <r>   15.7865    0.0000 </r>
       <r>   15.8030    0.0000 </r>
       <r>   16.0403    0.0000 </r>
       <r>   16.3261    0.0000 </r>
      </set>
      <set comment="kpoint 68">
       <r>  -15.4059    1.0000 </r>
       <r>  -15.4042    1.0000 </r>
       <r>  -15.4024    1.0000 </r>
       <r>  -15.4007    1.0000 </r>
       <r>  -15.3889    1.0000 </r>
       <r>  -15.3884    1.0000 </r>
       <r>  -15.3865    1.0000 </r>
       <r>  -15.3863    1.0000 </r>
       <r>  -15.3766    1.0000 </r>
       <r>  -15.3740    1.0000 </r>
       <r>  -15.3704    1.0000 </r>
       <r>  -15.3699    1.0000 </r>
       <r>  -15.3528    1.0000 </r>
       <r>  -15.3508    1.0000 </r>
       <r>  -15.3467    1.0000 </r>
       <r>  -15.3459    1.0000 </r>
       <r>  -15.3256    1.0000 </r>
       <r>  -15.3236    1.0000 </r>
       <r>  -15.3197    1.0000 </r>
       <r>  -15.3190    1.0000 </r>
       <r>   -7.1239    1.0000 </r>
       <r>   -7.0495    1.0000 </r>
       <r>   -6.8403    1.0000 </r>
       <r>   -6.8261    1.0000 </r>
       <r>   -1.9666    1.0000 </r>
       <r>   -1.6779    1.0000 </r>
       <r>   -1.6048    1.0000 </r>
       <r>   -1.3466    1.0000 </r>
       <r>    2.1540    1.0000 </r>
       <r>    2.2977    1.0000 </r>
       <r>    2.6105    1.0000 </r>
       <r>    2.8730    1.0000 </r>
       <r>    3.0459    1.0000 </r>
       <r>    3.4567    1.0000 </r>
       <r>    3.6400    1.0000 </r>
       <r>    4.0208    1.0000 </r>
       <r>    4.4375    1.0000 </r>
       <r>    4.7339    1.0000 </r>
       <r>    4.7608    1.0000 </r>
       <r>    5.0305    1.0000 </r>
       <r>    7.1101    0.0000 </r>
       <r>    7.1738    0.0000 </r>
       <r>    7.3421    0.0000 </r>
       <r>    7.6035    0.0000 </r>
       <r>    8.4285    0.0000 </r>
       <r>    8.6968    0.0000 </r>
       <r>    8.8615    0.0000 </r>
       <r>    9.2392    0.0000 </r>
       <r>    9.3187    0.0000 </r>
       <r>    9.9286    0.0000 </r>
       <r>   10.2047    0.0000 </r>
       <r>   10.2943    0.0000 </r>
       <r>   12.4586    0.0000 </r>
       <r>   12.8357    0.0000 </r>
       <r>   13.8606    0.0000 </r>
       <r>   14.2579    0.0000 </r>
       <r>   14.6514    0.0000 </r>
       <r>   14.8502    0.0000 </r>
       <r>   14.9593    0.0000 </r>
       <r>   15.5097    0.0000 </r>
       <r>   15.8994    0.0000 </r>
       <r>   16.0099    0.0000 </r>
       <r>   16.4984    0.0000 </r>
       <r>   16.8093    0.0000 </r>
      </set>
      <set comment="kpoint 69">
       <r>  -15.4059    1.0000 </r>
       <r>  -15.4042    1.0000 </r>
       <r>  -15.4024    1.0000 </r>
       <r>  -15.4007    1.0000 </r>
       <r>  -15.3887    1.0000 </r>
       <r>  -15.3884    1.0000 </r>
       <r>  -15.3869    1.0000 </r>
       <r>  -15.3861    1.0000 </r>
       <r>  -15.3767    1.0000 </r>
       <r>  -15.3740    1.0000 </r>
       <r>  -15.3703    1.0000 </r>
       <r>  -15.3699    1.0000 </r>
       <r>  -15.3528    1.0000 </r>
       <r>  -15.3509    1.0000 </r>
       <r>  -15.3467    1.0000 </r>
       <r>  -15.3459    1.0000 </r>
       <r>  -15.3257    1.0000 </r>
       <r>  -15.3235    1.0000 </r>
       <r>  -15.3198    1.0000 </r>
       <r>  -15.3189    1.0000 </r>
       <r>   -7.1239    1.0000 </r>
       <r>   -7.0495    1.0000 </r>
       <r>   -6.8404    1.0000 </r>
       <r>   -6.8260    1.0000 </r>
       <r>   -1.9670    1.0000 </r>
       <r>   -1.6813    1.0000 </r>
       <r>   -1.6018    1.0000 </r>
       <r>   -1.3458    1.0000 </r>
       <r>    2.1544    1.0000 </r>
       <r>    2.2969    1.0000 </r>
       <r>    2.6129    1.0000 </r>
       <r>    2.8714    1.0000 </r>
       <r>    3.0472    1.0000 </r>
       <r>    3.4544    1.0000 </r>
       <r>    3.6405    1.0000 </r>
       <r>    4.0220    1.0000 </r>
       <r>    4.4376    1.0000 </r>
       <r>    4.7269    1.0000 </r>
       <r>    4.7665    1.0000 </r>
       <r>    5.0300    1.0000 </r>
       <r>    7.1139    0.0000 </r>
       <r>    7.1736    0.0000 </r>
       <r>    7.3394    0.0000 </r>
       <r>    7.6036    0.0000 </r>
       <r>    8.4262    0.0000 </r>
       <r>    8.6900    0.0000 </r>
       <r>    8.8651    0.0000 </r>
       <r>    9.2431    0.0000 </r>
       <r>    9.3226    0.0000 </r>
       <r>    9.9250    0.0000 </r>
       <r>   10.2078    0.0000 </r>
       <r>   10.2950    0.0000 </r>
       <r>   12.4521    0.0000 </r>
       <r>   12.8388    0.0000 </r>
       <r>   13.8547    0.0000 </r>
       <r>   14.2652    0.0000 </r>
       <r>   14.6472    0.0000 </r>
       <r>   14.8539    0.0000 </r>
       <r>   14.9586    0.0000 </r>
       <r>   15.5096    0.0000 </r>
       <r>   15.9000    0.0000 </r>
       <r>   16.0130    0.0000 </r>
       <r>   16.4962    0.0000 </r>
       <r>   16.8070    0.0000 </r>
      </set>
      <set comment="kpoint 70">
       <r>  -15.4115    1.0000 </r>
       <r>  -15.4101    1.0000 </r>
       <r>  -15.4069    1.0000 </r>
       <r>  -15.4056    1.0000 </r>
       <r>  -15.3889    1.0000 </r>
       <r>  -15.3879    1.0000 </r>
       <r>  -15.3851    1.0000 </r>
       <r>  -15.3845    1.0000 </r>
       <r>  -15.3748    1.0000 </r>
       <r>  -15.3732    1.0000 </r>
       <r>  -15.3698    1.0000 </r>
       <r>  -15.3691    1.0000 </r>
       <r>  -15.3503    1.0000 </r>
       <r>  -15.3490    1.0000 </r>
       <r>  -15.3445    1.0000 </r>
       <r>  -15.3439    1.0000 </r>
       <r>  -15.3256    1.0000 </r>
       <r>  -15.3241    1.0000 </r>
       <r>  -15.3192    1.0000 </r>
       <r>  -15.3188    1.0000 </r>
       <r>   -6.9944    1.0000 </r>
       <r>   -6.9302    1.0000 </r>
       <r>   -6.7639    1.0000 </r>
       <r>   -6.7479    1.0000 </r>
       <r>   -1.7051    1.0000 </r>
       <r>   -1.4513    1.0000 </r>
       <r>   -1.3457    1.0000 </r>
       <r>   -1.1866    1.0000 </r>
       <r>    1.3647    1.0000 </r>
       <r>    1.6191    1.0000 </r>
       <r>    1.9203    1.0000 </r>
       <r>    2.1113    1.0000 </r>
       <r>    2.4659    1.0000 </r>
       <r>    2.9407    1.0000 </r>
       <r>    3.1277    1.0000 </r>
       <r>    3.5699    1.0000 </r>
       <r>    3.7569    1.0000 </r>
       <r>    4.1355    1.0000 </r>
       <r>    4.3931    1.0000 </r>
       <r>    4.7863    1.0000 </r>
       <r>    7.5364    0.0000 </r>
       <r>    7.9079    0.0000 </r>
       <r>    8.4615    0.0000 </r>
       <r>    8.7446    0.0000 </r>
       <r>    9.0884    0.0000 </r>
       <r>    9.1897    0.0000 </r>
       <r>    9.6489    0.0000 </r>
       <r>    9.7741    0.0000 </r>
       <r>   10.4004    0.0000 </r>
       <r>   10.6458    0.0000 </r>
       <r>   11.0373    0.0000 </r>
       <r>   11.3967    0.0000 </r>
       <r>   12.0828    0.0000 </r>
       <r>   12.2576    0.0000 </r>
       <r>   13.5145    0.0000 </r>
       <r>   13.6114    0.0000 </r>
       <r>   14.9345    0.0000 </r>
       <r>   15.2702    0.0000 </r>
       <r>   15.4222    0.0000 </r>
       <r>   15.9966    0.0000 </r>
       <r>   16.3541    0.0000 </r>
       <r>   16.5263    0.0000 </r>
       <r>   16.9282    0.0000 </r>
       <r>   17.2132    0.0000 </r>
      </set>
      <set comment="kpoint 71">
       <r>  -15.4115    1.0000 </r>
       <r>  -15.4101    1.0000 </r>
       <r>  -15.4069    1.0000 </r>
       <r>  -15.4057    1.0000 </r>
       <r>  -15.3886    1.0000 </r>
       <r>  -15.3881    1.0000 </r>
       <r>  -15.3851    1.0000 </r>
       <r>  -15.3846    1.0000 </r>
       <r>  -15.3749    1.0000 </r>
       <r>  -15.3732    1.0000 </r>
       <r>  -15.3697    1.0000 </r>
       <r>  -15.3691    1.0000 </r>
       <r>  -15.3503    1.0000 </r>
       <r>  -15.3491    1.0000 </r>
       <r>  -15.3444    1.0000 </r>
       <r>  -15.3439    1.0000 </r>
       <r>  -15.3257    1.0000 </r>
       <r>  -15.3240    1.0000 </r>
       <r>  -15.3194    1.0000 </r>
       <r>  -15.3187    1.0000 </r>
       <r>   -6.9944    1.0000 </r>
       <r>   -6.9303    1.0000 </r>
       <r>   -6.7641    1.0000 </r>
       <r>   -6.7476    1.0000 </r>
       <r>   -1.7061    1.0000 </r>
       <r>   -1.4575    1.0000 </r>
       <r>   -1.3403    1.0000 </r>
       <r>   -1.1844    1.0000 </r>
       <r>    1.3640    1.0000 </r>
       <r>    1.6202    1.0000 </r>
       <r>    1.9204    1.0000 </r>
       <r>    2.1101    1.0000 </r>
       <r>    2.4657    1.0000 </r>
       <r>    2.9417    1.0000 </r>
       <r>    3.1284    1.0000 </r>
       <r>    3.5714    1.0000 </r>
       <r>    3.7561    1.0000 </r>
       <r>    4.1326    1.0000 </r>
       <r>    4.3916    1.0000 </r>
       <r>    4.7883    1.0000 </r>
       <r>    7.5346    0.0000 </r>
       <r>    7.9097    0.0000 </r>
       <r>    8.4612    0.0000 </r>
       <r>    8.7473    0.0000 </r>
       <r>    9.0842    0.0000 </r>
       <r>    9.1878    0.0000 </r>
       <r>    9.6478    0.0000 </r>
       <r>    9.7797    0.0000 </r>
       <r>   10.4031    0.0000 </r>
       <r>   10.6481    0.0000 </r>
       <r>   11.0350    0.0000 </r>
       <r>   11.3943    0.0000 </r>
       <r>   12.0874    0.0000 </r>
       <r>   12.2495    0.0000 </r>
       <r>   13.5090    0.0000 </r>
       <r>   13.6183    0.0000 </r>
       <r>   14.9326    0.0000 </r>
       <r>   15.2717    0.0000 </r>
       <r>   15.4225    0.0000 </r>
       <r>   16.0003    0.0000 </r>
       <r>   16.3539    0.0000 </r>
       <r>   16.5261    0.0000 </r>
       <r>   16.9326    0.0000 </r>
       <r>   17.2069    0.0000 </r>
      </set>
      <set comment="kpoint 72">
       <r>  -15.4167    1.0000 </r>
       <r>  -15.4158    1.0000 </r>
       <r>  -15.4114    1.0000 </r>
       <r>  -15.4106    1.0000 </r>
       <r>  -15.3889    1.0000 </r>
       <r>  -15.3880    1.0000 </r>
       <r>  -15.3840    1.0000 </r>
       <r>  -15.3834    1.0000 </r>
       <r>  -15.3732    1.0000 </r>
       <r>  -15.3725    1.0000 </r>
       <r>  -15.3690    1.0000 </r>
       <r>  -15.3684    1.0000 </r>
       <r>  -15.3474    1.0000 </r>
       <r>  -15.3468    1.0000 </r>
       <r>  -15.3421    1.0000 </r>
       <r>  -15.3418    1.0000 </r>
       <r>  -15.3253    1.0000 </r>
       <r>  -15.3246    1.0000 </r>
       <r>  -15.3187    1.0000 </r>
       <r>  -15.3186    1.0000 </r>
       <r>   -6.8401    1.0000 </r>
       <r>   -6.7936    1.0000 </r>
       <r>   -6.6969    1.0000 </r>
       <r>   -6.6778    1.0000 </r>
       <r>   -1.3859    1.0000 </r>
       <r>   -1.2229    1.0000 </r>
       <r>   -1.0175    1.0000 </r>
       <r>   -0.9462    1.0000 </r>
       <r>    0.7874    1.0000 </r>
       <r>    1.1369    1.0000 </r>
       <r>    1.1962    1.0000 </r>
       <r>    1.6214    1.0000 </r>
       <r>    1.8365    1.0000 </r>
       <r>    2.2149    1.0000 </r>
       <r>    2.3624    1.0000 </r>
       <r>    2.8491    1.0000 </r>
       <r>    3.6665    1.0000 </r>
       <r>    3.9846    1.0000 </r>
       <r>    4.3662    1.0000 </r>
       <r>    4.5302    1.0000 </r>
       <r>    7.8512    0.0000 </r>
       <r>    8.1774    0.0000 </r>
       <r>    8.5911    0.0000 </r>
       <r>    8.8926    0.0000 </r>
       <r>    9.9778    0.0000 </r>
       <r>   10.0321    0.0000 </r>
       <r>   10.4544    0.0000 </r>
       <r>   10.5789    0.0000 </r>
       <r>   11.5550    0.0000 </r>
       <r>   11.8154    0.0000 </r>
       <r>   12.1307    0.0000 </r>
       <r>   12.1584    0.0000 </r>
       <r>   12.2469    0.0000 </r>
       <r>   12.4978    0.0000 </r>
       <r>   13.1618    0.0000 </r>
       <r>   13.2798    0.0000 </r>
       <r>   15.1607    0.0000 </r>
       <r>   15.3718    0.0000 </r>
       <r>   16.1626    0.0000 </r>
       <r>   16.3662    0.0000 </r>
       <r>   16.8149    0.0000 </r>
       <r>   16.9314    0.0000 </r>
       <r>   17.1072    0.0000 </r>
       <r>   17.1542    0.0000 </r>
      </set>
      <set comment="kpoint 73">
       <r>  -15.4167    1.0000 </r>
       <r>  -15.4159    1.0000 </r>
       <r>  -15.4113    1.0000 </r>
       <r>  -15.4107    1.0000 </r>
       <r>  -15.3887    1.0000 </r>
       <r>  -15.3881    1.0000 </r>
       <r>  -15.3839    1.0000 </r>
       <r>  -15.3836    1.0000 </r>
       <r>  -15.3733    1.0000 </r>
       <r>  -15.3724    1.0000 </r>
       <r>  -15.3689    1.0000 </r>
       <r>  -15.3684    1.0000 </r>
       <r>  -15.3474    1.0000 </r>
       <r>  -15.3469    1.0000 </r>
       <r>  -15.3421    1.0000 </r>
       <r>  -15.3418    1.0000 </r>
       <r>  -15.3254    1.0000 </r>
       <r>  -15.3244    1.0000 </r>
       <r>  -15.3189    1.0000 </r>
       <r>  -15.3185    1.0000 </r>
       <r>   -6.8400    1.0000 </r>
       <r>   -6.7937    1.0000 </r>
       <r>   -6.6971    1.0000 </r>
       <r>   -6.6776    1.0000 </r>
       <r>   -1.3871    1.0000 </r>
       <r>   -1.2287    1.0000 </r>
       <r>   -1.0112    1.0000 </r>
       <r>   -0.9443    1.0000 </r>
       <r>    0.7864    1.0000 </r>
       <r>    1.1369    1.0000 </r>
       <r>    1.1958    1.0000 </r>
       <r>    1.6194    1.0000 </r>
       <r>    1.8382    1.0000 </r>
       <r>    2.2139    1.0000 </r>
       <r>    2.3662    1.0000 </r>
       <r>    2.8470    1.0000 </r>
       <r>    3.6712    1.0000 </r>
       <r>    3.9774    1.0000 </r>
       <r>    4.3636    1.0000 </r>
       <r>    4.5352    1.0000 </r>
       <r>    7.8491    0.0000 </r>
       <r>    8.1753    0.0000 </r>
       <r>    8.5975    0.0000 </r>
       <r>    8.8924    0.0000 </r>
       <r>    9.9801    0.0000 </r>
       <r>   10.0305    0.0000 </r>
       <r>   10.4506    0.0000 </r>
       <r>   10.5781    0.0000 </r>
       <r>   11.5587    0.0000 </r>
       <r>   11.8190    0.0000 </r>
       <r>   12.1362    0.0000 </r>
       <r>   12.1516    0.0000 </r>
       <r>   12.2429    0.0000 </r>
       <r>   12.4941    0.0000 </r>
       <r>   13.1531    0.0000 </r>
       <r>   13.2920    0.0000 </r>
       <r>   15.1649    0.0000 </r>
       <r>   15.3663    0.0000 </r>
       <r>   16.1658    0.0000 </r>
       <r>   16.3660    0.0000 </r>
       <r>   16.8138    0.0000 </r>
       <r>   16.9263    0.0000 </r>
       <r>   17.1141    0.0000 </r>
       <r>   17.1571    0.0000 </r>
      </set>
      <set comment="kpoint 74">
       <r>  -15.4185    1.0000 </r>
       <r>  -15.4185    1.0000 </r>
       <r>  -15.4130    1.0000 </r>
       <r>  -15.4129    1.0000 </r>
       <r>  -15.3887    1.0000 </r>
       <r>  -15.3883    1.0000 </r>
       <r>  -15.3836    1.0000 </r>
       <r>  -15.3832    1.0000 </r>
       <r>  -15.3724    1.0000 </r>
       <r>  -15.3724    1.0000 </r>
       <r>  -15.3684    1.0000 </r>
       <r>  -15.3683    1.0000 </r>
       <r>  -15.3460    1.0000 </r>
       <r>  -15.3460    1.0000 </r>
       <r>  -15.3410    1.0000 </r>
       <r>  -15.3409    1.0000 </r>
       <r>  -15.3250    1.0000 </r>
       <r>  -15.3248    1.0000 </r>
       <r>  -15.3186    1.0000 </r>
       <r>  -15.3185    1.0000 </r>
       <r>   -6.7423    1.0000 </r>
       <r>   -6.7421    1.0000 </r>
       <r>   -6.6693    1.0000 </r>
       <r>   -6.6692    1.0000 </r>
       <r>   -1.2042    1.0000 </r>
       <r>   -1.2032    1.0000 </r>
       <r>   -0.7973    1.0000 </r>
       <r>   -0.7956    1.0000 </r>
       <r>    0.7407    1.0000 </r>
       <r>    0.7441    1.0000 </r>
       <r>    1.1637    1.0000 </r>
       <r>    1.1666    1.0000 </r>
       <r>    1.7332    1.0000 </r>
       <r>    1.7344    1.0000 </r>
       <r>    2.2704    1.0000 </r>
       <r>    2.2746    1.0000 </r>
       <r>    3.8670    1.0000 </r>
       <r>    3.8772    1.0000 </r>
       <r>    4.4065    1.0000 </r>
       <r>    4.4121    1.0000 </r>
       <r>    8.0366    0.0000 </r>
       <r>    8.0382    0.0000 </r>
       <r>    8.5833    0.0000 </r>
       <r>    8.5888    0.0000 </r>
       <r>   10.6262    0.0000 </r>
       <r>   10.6303    0.0000 </r>
       <r>   10.8074    0.0000 </r>
       <r>   10.8109    0.0000 </r>
       <r>   12.2019    0.0000 </r>
       <r>   12.2109    0.0000 </r>
       <r>   12.4883    0.0000 </r>
       <r>   12.4917    0.0000 </r>
       <r>   12.6016    0.0000 </r>
       <r>   12.6032    0.0000 </r>
       <r>   13.1708    0.0000 </r>
       <r>   13.1858    0.0000 </r>
       <r>   15.4290    0.0000 </r>
       <r>   15.4361    0.0000 </r>
       <r>   16.3622    0.0000 </r>
       <r>   16.3697    0.0000 </r>
       <r>   16.9473    0.0000 </r>
       <r>   16.9478    0.0000 </r>
       <r>   17.1590    0.0000 </r>
       <r>   17.1646    0.0000 </r>
      </set>
     </set>
    </set>
   </array>
  </eigenvalues>
  <separator name="orbital magnetization" >
   <v name="MAGDIPOLOUT">      0.00000000      0.00000000      0.00000000</v>
  </separator>
  <dos>
   <i name="efermi">      5.96870953 </i>
   <total>
    <array>
     <dimension dim="1">gridpoints</dimension>
     <dimension dim="2">spin</dimension>
     <field>energy</field>
     <field>total</field>
     <field>integrated</field>
     <set>
      <set comment="spin 1">
       <r>   -17.0819     0.0000     0.0000 </r>
       <r>   -16.9601     0.0000     0.0000 </r>
       <r>   -16.8383     0.0000     0.0000 </r>
       <r>   -16.7165     0.0000     0.0000 </r>
       <r>   -16.5947     0.0000     0.0000 </r>
       <r>   -16.4729     0.0000     0.0000 </r>
       <r>   -16.3511     0.0000     0.0000 </r>
       <r>   -16.2293     0.0000     0.0000 </r>
       <r>   -16.1075     0.0000     0.0000 </r>
       <r>   -15.9857     0.0000     0.0000 </r>
       <r>   -15.8639     0.0000     0.0000 </r>
       <r>   -15.7421     0.0000     0.0000 </r>
       <r>   -15.6203     0.0000     0.0000 </r>
       <r>   -15.4985     0.0000     0.0000 </r>
       <r>   -15.3767   155.3629    18.9231 </r>
       <r>   -15.2549    65.3016    40.0000 </r>
       <r>   -15.1331     0.0000    40.0000 </r>
       <r>   -15.0113     0.0000    40.0000 </r>
       <r>   -14.8895     0.0000    40.0000 </r>
       <r>   -14.7677     0.0000    40.0000 </r>
       <r>   -14.6459     0.0000    40.0000 </r>
       <r>   -14.5241     0.0000    40.0000 </r>
       <r>   -14.4023     0.0000    40.0000 </r>
       <r>   -14.2805     0.0000    40.0000 </r>
       <r>   -14.1587     0.0000    40.0000 </r>
       <r>   -14.0369     0.0000    40.0000 </r>
       <r>   -13.9151     0.0000    40.0000 </r>
       <r>   -13.7933     0.0000    40.0000 </r>
       <r>   -13.6715     0.0000    40.0000 </r>
       <r>   -13.5497     0.0000    40.0000 </r>
       <r>   -13.4279     0.0000    40.0000 </r>
       <r>   -13.3061     0.0000    40.0000 </r>
       <r>   -13.1843     0.0000    40.0000 </r>
       <r>   -13.0625     0.0000    40.0000 </r>
       <r>   -12.9407     0.0000    40.0000 </r>
       <r>   -12.8189     0.0000    40.0000 </r>
       <r>   -12.6971     0.0000    40.0000 </r>
       <r>   -12.5753     0.0000    40.0000 </r>
       <r>   -12.4535     0.0000    40.0000 </r>
       <r>   -12.3317     0.0000    40.0000 </r>
       <r>   -12.2099     0.0000    40.0000 </r>
       <r>   -12.0881     0.0000    40.0000 </r>
       <r>   -11.9663     0.0000    40.0000 </r>
       <r>   -11.8445     0.0000    40.0000 </r>
       <r>   -11.7227     0.0000    40.0000 </r>
       <r>   -11.6009     0.0000    40.0000 </r>
       <r>   -11.4791     0.0000    40.0000 </r>
       <r>   -11.3573     0.0000    40.0000 </r>
       <r>   -11.2355     0.0000    40.0000 </r>
       <r>   -11.1137     0.0000    40.0000 </r>
       <r>   -10.9919     0.0000    40.0000 </r>
       <r>   -10.8701     0.0000    40.0000 </r>
       <r>   -10.7483     0.0000    40.0000 </r>
       <r>   -10.6265     0.0000    40.0000 </r>
       <r>   -10.5047     0.0000    40.0000 </r>
       <r>   -10.3829     0.0000    40.0000 </r>
       <r>   -10.2611     0.0000    40.0000 </r>
       <r>   -10.1393     0.0000    40.0000 </r>
       <r>   -10.0175     0.0000    40.0000 </r>
       <r>    -9.8957     0.0000    40.0000 </r>
       <r>    -9.7739     0.0000    40.0000 </r>
       <r>    -9.6521     0.0000    40.0000 </r>
       <r>    -9.5303     0.0000    40.0000 </r>
       <r>    -9.4085     0.0000    40.0000 </r>
       <r>    -9.2867     0.0000    40.0000 </r>
       <r>    -9.1649     0.0000    40.0000 </r>
       <r>    -9.0431     0.0000    40.0000 </r>
       <r>    -8.9213     0.0000    40.0000 </r>
       <r>    -8.7995     0.0000    40.0000 </r>
       <r>    -8.6777     0.0000    40.0000 </r>
       <r>    -8.5559     0.0000    40.0000 </r>
       <r>    -8.4341     0.0000    40.0000 </r>
       <r>    -8.3123     0.0000    40.0000 </r>
       <r>    -8.1905     0.0018    40.0002 </r>
       <r>    -8.0687     0.4561    40.0648 </r>
       <r>    -7.9469     0.5981    40.2488 </r>
       <r>    -7.8251     1.6656    40.4714 </r>
       <r>    -7.7033     1.9690    40.7676 </r>
       <r>    -7.5815     2.3082    41.1145 </r>
       <r>    -7.4597     2.8640    41.5525 </r>
       <r>    -7.3379     1.4187    41.8580 </r>
       <r>    -7.2161     2.2765    42.4069 </r>
       <r>    -7.0943     2.2640    42.8869 </r>
       <r>    -6.9725     3.9466    43.6011 </r>
       <r>    -6.8507     8.1467    44.7237 </r>
       <r>    -6.7289     8.4339    46.1476 </r>
       <r>    -6.6071     7.7493    47.4902 </r>
       <r>    -6.4853     1.8918    47.9989 </r>
       <r>    -6.3635     0.0000    48.0000 </r>
       <r>    -6.2417     0.0000    48.0000 </r>
       <r>    -6.1199     0.0000    48.0000 </r>
       <r>    -5.9981     0.0000    48.0000 </r>
       <r>    -5.8763     0.0000    48.0000 </r>
       <r>    -5.7545     0.0000    48.0000 </r>
       <r>    -5.6327     0.0000    48.0000 </r>
       <r>    -5.5109     0.0000    48.0000 </r>
       <r>    -5.3891     0.0000    48.0000 </r>
       <r>    -5.2673     0.0000    48.0000 </r>
       <r>    -5.1455     0.0000    48.0000 </r>
       <r>    -5.0237     0.0000    48.0000 </r>
       <r>    -4.9019     0.0000    48.0000 </r>
       <r>    -4.7801     0.0000    48.0000 </r>
       <r>    -4.6583     0.0000    48.0000 </r>
       <r>    -4.5365     0.0000    48.0000 </r>
       <r>    -4.4147     0.0000    48.0000 </r>
       <r>    -4.2929     0.0000    48.0000 </r>
       <r>    -4.1711     0.0000    48.0000 </r>
       <r>    -4.0493     0.0000    48.0000 </r>
       <r>    -3.9275     0.0000    48.0000 </r>
       <r>    -3.8057     0.0000    48.0000 </r>
       <r>    -3.6839     0.0000    48.0000 </r>
       <r>    -3.5621     0.0000    48.0000 </r>
       <r>    -3.4403     0.0000    48.0000 </r>
       <r>    -3.3185     0.0000    48.0000 </r>
       <r>    -3.1967     0.0000    48.0000 </r>
       <r>    -3.0749     0.0000    48.0000 </r>
       <r>    -2.9531     0.0000    48.0000 </r>
       <r>    -2.8313     0.0000    48.0000 </r>
       <r>    -2.7095     0.0000    48.0000 </r>
       <r>    -2.5877     0.1245    48.0152 </r>
       <r>    -2.4659     0.4563    48.0741 </r>
       <r>    -2.3441     1.3417    48.3116 </r>
       <r>    -2.2223     0.6370    48.4109 </r>
       <r>    -2.1005     2.1377    48.7048 </r>
       <r>    -1.9787     1.8532    49.0961 </r>
       <r>    -1.8569     1.1471    49.4730 </r>
       <r>    -1.7351     2.2444    49.9400 </r>
       <r>    -1.6133     2.5222    50.4368 </r>
       <r>    -1.4915     1.9301    50.8832 </r>
       <r>    -1.3697     2.4898    51.3681 </r>
       <r>    -1.2479     0.6106    51.7133 </r>
       <r>    -1.1261     3.2410    52.2929 </r>
       <r>    -1.0043     2.5869    52.8058 </r>
       <r>    -0.8825     1.5239    53.2504 </r>
       <r>    -0.7607     3.1972    54.0653 </r>
       <r>    -0.6389     2.1979    54.5547 </r>
       <r>    -0.5171     1.5690    54.7930 </r>
       <r>    -0.3953     1.6307    55.0783 </r>
       <r>    -0.2735     1.3367    55.2832 </r>
       <r>    -0.1517     1.1859    55.4685 </r>
       <r>    -0.0299     0.3041    55.5370 </r>
       <r>     0.0919     0.5215    55.6006 </r>
       <r>     0.2137     0.0000    55.6574 </r>
       <r>     0.3355     1.2163    55.8056 </r>
       <r>     0.4573     0.7380    55.8954 </r>
       <r>     0.5791     0.3041    55.9907 </r>
       <r>     0.7009     0.0024    56.0281 </r>
       <r>     0.8227     1.2326    56.2705 </r>
       <r>     0.9445     0.5261    56.4530 </r>
       <r>     1.0663     0.9813    56.6473 </r>
       <r>     1.1881     2.6636    57.1115 </r>
       <r>     1.3099     2.1082    57.4883 </r>
       <r>     1.4317     4.4350    58.0865 </r>
       <r>     1.5535     2.0771    58.4659 </r>
       <r>     1.6753     1.8159    58.8786 </r>
       <r>     1.7971     2.5888    59.3061 </r>
       <r>     1.9189     3.3105    59.9310 </r>
       <r>     2.0407     2.4730    60.3660 </r>
       <r>     2.1625     3.5083    60.9551 </r>
       <r>     2.2843     5.0025    61.7667 </r>
       <r>     2.4061     3.8051    62.5005 </r>
       <r>     2.5279     2.3108    62.9852 </r>
       <r>     2.6497     4.4539    63.7092 </r>
       <r>     2.7715     1.3633    64.0549 </r>
       <r>     2.8933     4.0242    64.7124 </r>
       <r>     3.0151     4.5706    65.5382 </r>
       <r>     3.1369     3.0191    66.0714 </r>
       <r>     3.2587     2.9752    66.6587 </r>
       <r>     3.3805     3.8823    67.3988 </r>
       <r>     3.5023     6.0063    68.4445 </r>
       <r>     3.6241     3.9635    68.9735 </r>
       <r>     3.7459     4.1223    69.8076 </r>
       <r>     3.8677     2.8465    70.4485 </r>
       <r>     3.9895     4.3298    71.2959 </r>
       <r>     4.1113     5.2404    72.2494 </r>
       <r>     4.2331     2.5116    72.8985 </r>
       <r>     4.3549     3.9832    73.5315 </r>
       <r>     4.4767     2.8628    74.2098 </r>
       <r>     4.5985     1.8863    74.8131 </r>
       <r>     4.7203     1.9944    75.2429 </r>
       <r>     4.8421     4.8998    76.1894 </r>
       <r>     4.9639     2.8446    76.5502 </r>
       <r>     5.0857     4.2408    77.2758 </r>
       <r>     5.2075     4.2147    77.9948 </r>
       <r>     5.3293     5.5168    79.0145 </r>
       <r>     5.4511     4.4099    79.6482 </r>
       <r>     5.5729     0.6195    79.7606 </r>
       <r>     5.6947     0.6094    79.8890 </r>
       <r>     5.8165     0.1720    79.9469 </r>
       <r>     5.9383     0.1520    80.0000 </r>
       <r>     6.0601     0.0000    80.0000 </r>
       <r>     6.1819     0.0000    80.0000 </r>
       <r>     6.3037     0.0114    80.0014 </r>
       <r>     6.4255     0.3042    80.0833 </r>
       <r>     6.5473     0.6078    80.1759 </r>
       <r>     6.6691     1.1165    80.3119 </r>
       <r>     6.7909     1.3445    80.4878 </r>
       <r>     6.9127     1.4086    80.7179 </r>
       <r>     7.0345     0.5497    80.8540 </r>
       <r>     7.1563     3.6538    81.4358 </r>
       <r>     7.2781     2.7706    81.9393 </r>
       <r>     7.3999     2.5462    82.5601 </r>
       <r>     7.5217     1.4225    82.9418 </r>
       <r>     7.6435     3.5293    83.6058 </r>
       <r>     7.7653     1.5294    84.0844 </r>
       <r>     7.8871     4.3431    84.8531 </r>
       <r>     8.0089     1.5777    85.2570 </r>
       <r>     8.1307     0.4595    85.6949 </r>
       <r>     8.2525     5.1541    86.3593 </r>
       <r>     8.3743     2.8676    86.8585 </r>
       <r>     8.4961     4.4949    87.5012 </r>
       <r>     8.6178     2.8921    88.1393 </r>
       <r>     8.7396     2.7442    88.6583 </r>
       <r>     8.8614     3.2796    89.4920 </r>
       <r>     8.9832     5.2831    90.5231 </r>
       <r>     9.1050     5.5298    91.4513 </r>
       <r>     9.2268     4.1777    92.0274 </r>
       <r>     9.3486     5.1041    92.7235 </r>
       <r>     9.4704     3.4622    93.3291 </r>
       <r>     9.5922     1.8981    93.6571 </r>
       <r>     9.7140     2.4327    94.1111 </r>
       <r>     9.8358     1.9828    94.5008 </r>
       <r>     9.9576     5.0616    95.2091 </r>
       <r>    10.0794     3.5513    95.8585 </r>
       <r>    10.2012     2.6062    96.2897 </r>
       <r>    10.3230     4.1755    97.0178 </r>
       <r>    10.4448     3.9003    97.6695 </r>
       <r>    10.5666     3.0068    98.4033 </r>
       <r>    10.6884     4.3339    99.2038 </r>
       <r>    10.8102     5.1777    99.9362 </r>
       <r>    10.9320     2.8752   100.6650 </r>
       <r>    11.0538     4.6511   101.5109 </r>
       <r>    11.1756     1.8462   101.8915 </r>
       <r>    11.2974     1.9560   102.2197 </r>
       <r>    11.4192     2.8192   102.6952 </r>
       <r>    11.5410     2.4842   103.2563 </r>
       <r>    11.6628     1.9123   103.6681 </r>
       <r>    11.7846     2.4126   104.1364 </r>
       <r>    11.9064     2.3667   104.6216 </r>
       <r>    12.0282     2.8688   105.0902 </r>
       <r>    12.1500     4.3854   105.6730 </r>
       <r>    12.2718     4.8008   106.4829 </r>
       <r>    12.3936     1.9701   106.9159 </r>
       <r>    12.5154     2.5736   107.3598 </r>
       <r>    12.6372     2.5175   107.7048 </r>
       <r>    12.7590     3.4536   108.3929 </r>
       <r>    12.8808     2.3465   108.8136 </r>
       <r>    13.0026     3.2622   109.4992 </r>
       <r>    13.1244     2.0797   109.8366 </r>
       <r>    13.2462     4.1973   110.5946 </r>
       <r>    13.3680     2.4657   110.9763 </r>
       <r>    13.4898     1.6880   111.4926 </r>
       <r>    13.6116     2.5507   111.9866 </r>
       <r>    13.7334     1.0424   112.2196 </r>
       <r>    13.8552     2.4709   112.6713 </r>
       <r>    13.9770     4.5702   113.5752 </r>
       <r>    14.0988     1.8292   114.0746 </r>
       <r>    14.2206     4.3886   114.7382 </r>
       <r>    14.3424     3.6765   115.2441 </r>
       <r>    14.4642     1.9395   115.7362 </r>
       <r>    14.5860     2.6792   116.1411 </r>
       <r>    14.7078     4.5381   116.8027 </r>
       <r>    14.8296     1.7410   117.2491 </r>
       <r>    14.9514     3.9273   117.9598 </r>
       <r>    15.0732     1.0643   118.2407 </r>
       <r>    15.1950     4.0396   118.8254 </r>
       <r>    15.3168     4.9324   119.6378 </r>
       <r>    15.4386     5.4213   120.4751 </r>
       <r>    15.5604     4.3548   121.2156 </r>
       <r>    15.6822     1.9240   121.6788 </r>
       <r>    15.8040     4.5941   122.4485 </r>
       <r>    15.9258     3.0100   122.9036 </r>
       <r>    16.0476     5.7415   123.8475 </r>
       <r>    16.1694     2.7667   124.2629 </r>
       <r>    16.2912     1.8833   124.6183 </r>
       <r>    16.4130     4.0948   125.1839 </r>
       <r>    16.5348     3.1139   125.7311 </r>
       <r>    16.6566     2.7873   126.2654 </r>
       <r>    16.7784     1.5850   126.6375 </r>
       <r>    16.9002     0.9005   126.9245 </r>
       <r>    17.0220     2.1258   127.3330 </r>
       <r>    17.1438     0.8687   127.4762 </r>
       <r>    17.2656     1.5204   127.8519 </r>
       <r>    17.3874     0.0000   127.8889 </r>
       <r>    17.5092     0.0000   127.8889 </r>
       <r>    17.6310     0.3763   127.9347 </r>
       <r>    17.7528     0.0000   127.9630 </r>
       <r>    17.8746     0.3041   128.0000 </r>
       <r>    17.9964     0.0000   128.0000 </r>
       <r>    18.1182     0.0000   128.0000 </r>
       <r>    18.2400     0.0000   128.0000 </r>
       <r>    18.3618     0.0000   128.0000 </r>
       <r>    18.4836     0.0000   128.0000 </r>
       <r>    18.6054     0.0000   128.0000 </r>
       <r>    18.7272     0.0000   128.0000 </r>
       <r>    18.8490     0.0000   128.0000 </r>
       <r>    18.9708     0.0000   128.0000 </r>
       <r>    19.0926     0.0000   128.0000 </r>
       <r>    19.2144     0.0000   128.0000 </r>
       <r>    19.3362     0.0000   128.0000 </r>
       <r>    19.4580     0.0000   128.0000 </r>
      </set>
     </set>
    </array>
   </total>
  </dos>
 </calculation>
 <structure name="finalpos" >
  <crystal>
   <varray name="basis" >
    <v>       4.34539863       0.00000000       0.00000000 </v>
    <v>       0.00000000       4.11936655       0.00000000 </v>
    <v>       0.00000000       0.00000000      11.35478920 </v>
   </varray>
   <i name="volume">    203.25401695 </i>
   <varray name="rec_basis" >
    <v>       0.23012848       0.00000000       0.00000000 </v>
    <v>       0.00000000       0.24275577       0.00000000 </v>
    <v>       0.00000000       0.00000000       0.08806857 </v>
   </varray>
  </crystal>
  <varray name="positions" >
   <v>       0.09903631       0.25086880       0.11539711 </v>
   <v>       0.40096369       0.24913120       0.61539711 </v>
   <v>       0.59903631       0.75086880       0.38460289 </v>
   <v>       0.90096369       0.74913120       0.88460289 </v>
   <v>       0.02605052       0.25085501       0.35675466 </v>
   <v>       0.47394948       0.24914499       0.85675466 </v>
   <v>       0.52605052       0.75085501       0.14324534 </v>
   <v>       0.97394948       0.74914499       0.64324534 </v>
  </varray>
 </structure>
</modeling>
