<?xml version="1.0" encoding="ISO-8859-1"?>
<modeling>
 <generator>
  <i name="program" type="string">vasp </i>
  <i name="version" type="string">6.2.0  </i>
  <i name="subversion" type="string">18Jan21 (build Mar  1 2021 20:13:55) complex                          parallel </i>
  <i name="platform" type="string">HPECrayEX_GCC </i>
  <i name="date" type="string">2026 03 07 </i>
  <i name="time" type="string">07:59:03 </i>
 </generator>
 <incar>
  <i type="string" name="SYSTEM">Pnma SnSe</i>
  <i type="string" name="PREC">Accurate</i>
  <i type="string" name="ALGO">Normal</i>
  <i type="logical" name="ADDGRID"> T  </i>
  <i type="int" name="NELM">   250</i>
  <i type="int" name="NELMIN">     5</i>
  <i name="EDIFF">      0.00000001</i>
  <i type="int" name="NSW">     0</i>
  <i type="int" name="ISIF">     2</i>
  <i name="ENCUT">    700.00000000</i>
  <i type="logical" name="LREAL"> F  </i>
  <i type="int" name="ISMEAR">     0</i>
  <i name="SIGMA">      0.01000000</i>
  <i type="logical" name="LWAVE"> F  </i>
  <i type="logical" name="LCHARG"> F  </i>
  <i type="logical" name="LASPH"> T  </i>
  <i type="string" name="GGA">PS</i>
  <i type="logical" name="LEPSILON"> T  </i>
  <i type="int" name="IVDW">    11</i>
 </incar>
 <primitive_cell>
  <structure name="primitive_cell" >
   <crystal>
    <varray name="basis" >
     <v>       4.34539863       0.00000000       0.00000000 </v>
     <v>       0.00000000       4.11936655       0.00000000 </v>
     <v>       0.00000000       0.00000000      11.35478920 </v>
    </varray>
    <i name="volume">    203.25401695 </i>
    <varray name="rec_basis" >
     <v>       0.23012848       0.00000000       0.00000000 </v>
     <v>       0.00000000       0.24275577       0.00000000 </v>
     <v>       0.00000000       0.00000000       0.08806857 </v>
    </varray>
   </crystal>
   <varray name="positions" >
    <v>       0.09993103       0.25000000       0.11530777 </v>
    <v>       0.40006897       0.25000000       0.61530777 </v>
    <v>       0.59993103       0.75000000       0.38469223 </v>
    <v>       0.90006897       0.75000000       0.88469223 </v>
    <v>       0.02667331       0.25000000       0.35673222 </v>
    <v>       0.47332669       0.25000000       0.85673222 </v>
    <v>       0.52667331       0.75000000       0.14326778 </v>
    <v>       0.97332669       0.75000000       0.64326778 </v>
   </varray>
  </structure>
  <varray name="primitive_index" >
   <v type="int" >        1 </v>
   <v type="int" >        2 </v>
   <v type="int" >        3 </v>
   <v type="int" >        4 </v>
   <v type="int" >        5 </v>
   <v type="int" >        6 </v>
   <v type="int" >        7 </v>
   <v type="int" >        8 </v>
  </varray>
 </primitive_cell>
 <kpoints>
  <generation param="Gamma">
   <v type="int" name="divisions">       8        9        3 </v>
   <v name="usershift">      0.00000000       0.00000000       0.00000000 </v>
   <v name="genvec1">      0.12500000       0.00000000       0.00000000 </v>
   <v name="genvec2">      0.00000000       0.11111111       0.00000000 </v>
   <v name="genvec3">      0.00000000       0.00000000       0.33333333 </v>
   <v name="shift">      0.00000000       0.00000000       0.00000000 </v>
  </generation>
  <varray name="kpointlist" >
   <v>       0.00000000       0.00000000       0.00000000 </v>
   <v>       0.12500000       0.00000000       0.00000000 </v>
   <v>       0.25000000       0.00000000       0.00000000 </v>
   <v>       0.37500000       0.00000000       0.00000000 </v>
   <v>       0.50000000       0.00000000       0.00000000 </v>
   <v>       0.00000000       0.11111111       0.00000000 </v>
   <v>       0.12500000       0.11111111       0.00000000 </v>
   <v>       0.25000000       0.11111111       0.00000000 </v>
   <v>       0.37500000       0.11111111       0.00000000 </v>
   <v>       0.50000000       0.11111111       0.00000000 </v>
   <v>       0.00000000       0.22222222       0.00000000 </v>
   <v>       0.12500000       0.22222222       0.00000000 </v>
   <v>       0.25000000       0.22222222       0.00000000 </v>
   <v>       0.37500000       0.22222222       0.00000000 </v>
   <v>       0.50000000       0.22222222       0.00000000 </v>
   <v>       0.00000000       0.33333333       0.00000000 </v>
   <v>       0.12500000       0.33333333       0.00000000 </v>
   <v>       0.25000000       0.33333333       0.00000000 </v>
   <v>       0.37500000       0.33333333       0.00000000 </v>
   <v>       0.50000000       0.33333333       0.00000000 </v>
   <v>       0.00000000       0.44444444       0.00000000 </v>
   <v>       0.12500000       0.44444444       0.00000000 </v>
   <v>       0.25000000       0.44444444       0.00000000 </v>
   <v>       0.37500000       0.44444444       0.00000000 </v>
   <v>       0.50000000       0.44444444       0.00000000 </v>
   <v>       0.00000000       0.00000000       0.33333333 </v>
   <v>       0.12500000       0.00000000       0.33333333 </v>
   <v>       0.25000000       0.00000000       0.33333333 </v>
   <v>       0.37500000       0.00000000       0.33333333 </v>
   <v>       0.50000000       0.00000000       0.33333333 </v>
   <v>       0.00000000       0.11111111       0.33333333 </v>
   <v>       0.12500000       0.11111111       0.33333333 </v>
   <v>       0.25000000       0.11111111       0.33333333 </v>
   <v>       0.37500000       0.11111111       0.33333333 </v>
   <v>       0.50000000       0.11111111       0.33333333 </v>
   <v>       0.00000000       0.22222222       0.33333333 </v>
   <v>       0.12500000       0.22222222       0.33333333 </v>
   <v>       0.25000000       0.22222222       0.33333333 </v>
   <v>       0.37500000       0.22222222       0.33333333 </v>
   <v>       0.50000000       0.22222222       0.33333333 </v>
   <v>       0.00000000       0.33333333       0.33333333 </v>
   <v>       0.12500000       0.33333333       0.33333333 </v>
   <v>       0.25000000       0.33333333       0.33333333 </v>
   <v>       0.37500000       0.33333333       0.33333333 </v>
   <v>       0.50000000       0.33333333       0.33333333 </v>
   <v>       0.00000000       0.44444444       0.33333333 </v>
   <v>       0.12500000       0.44444444       0.33333333 </v>
   <v>       0.25000000       0.44444444       0.33333333 </v>
   <v>       0.37500000       0.44444444       0.33333333 </v>
   <v>       0.50000000       0.44444444       0.33333333 </v>
  </varray>
  <varray name="weights" >
   <v>       0.00462963 </v>
   <v>       0.00925926 </v>
   <v>       0.00925926 </v>
   <v>       0.00925926 </v>
   <v>       0.00462963 </v>
   <v>       0.00925926 </v>
   <v>       0.01851852 </v>
   <v>       0.01851852 </v>
   <v>       0.01851852 </v>
   <v>       0.00925926 </v>
   <v>       0.00925926 </v>
   <v>       0.01851852 </v>
   <v>       0.01851852 </v>
   <v>       0.01851852 </v>
   <v>       0.00925926 </v>
   <v>       0.00925926 </v>
   <v>       0.01851852 </v>
   <v>       0.01851852 </v>
   <v>       0.01851852 </v>
   <v>       0.00925926 </v>
   <v>       0.00925926 </v>
   <v>       0.01851852 </v>
   <v>       0.01851852 </v>
   <v>       0.01851852 </v>
   <v>       0.00925926 </v>
   <v>       0.00925926 </v>
   <v>       0.01851852 </v>
   <v>       0.01851852 </v>
   <v>       0.01851852 </v>
   <v>       0.00925926 </v>
   <v>       0.01851852 </v>
   <v>       0.03703704 </v>
   <v>       0.03703704 </v>
   <v>       0.03703704 </v>
   <v>       0.01851852 </v>
   <v>       0.01851852 </v>
   <v>       0.03703704 </v>
   <v>       0.03703704 </v>
   <v>       0.03703704 </v>
   <v>       0.01851852 </v>
   <v>       0.01851852 </v>
   <v>       0.03703704 </v>
   <v>       0.03703704 </v>
   <v>       0.03703704 </v>
   <v>       0.01851852 </v>
   <v>       0.01851852 </v>
   <v>       0.03703704 </v>
   <v>       0.03703704 </v>
   <v>       0.03703704 </v>
   <v>       0.01851852 </v>
  </varray>
 </kpoints>
 <parameters>
  <separator name="general" >
   <i type="string" name="SYSTEM">Pnma SnSe</i>
   <i type="logical" name="LCOMPAT"> F  </i>
  </separator>
  <separator name="electronic" >
   <i type="string" name="PREC">accura</i>
   <i name="ENMAX">    700.00000000</i>
   <i name="ENAUG">    446.84200000</i>
   <i name="EDIFF">      0.00000001</i>
   <i type="int" name="IALGO">    38</i>
   <i type="int" name="IWAVPR">    10</i>
   <i type="int" name="NBANDS">    64</i>
   <i type="int" name="NBANDSLOW">    -1</i>
   <i type="int" name="NBANDSHIGH">    -1</i>
   <i name="NELECT">     80.00000000</i>
   <i type="int" name="TURBO">     0</i>
   <i type="int" name="IRESTART">     0</i>
   <i type="int" name="NREBOOT">     0</i>
   <i type="int" name="NMIN">     0</i>
   <i name="EREF">      0.00000000</i>
   <separator name="electronic smearing" >
    <i type="int" name="ISMEAR">     0</i>
    <i name="SIGMA">      0.01000000</i>
    <i name="KSPACING">      0.50000000</i>
    <i type="logical" name="KGAMMA"> T  </i>
    <i type="logical" name="KBLOWUP"> T  </i>
   </separator>
   <separator name="electronic projectors" >
    <i type="logical" name="LREAL"> F  </i>
    <v name="ROPT">      0.00000000      0.00000000</v>
    <i type="int" name="LMAXPAW">  -100</i>
    <i type="int" name="LMAXMIX">     2</i>
    <i type="logical" name="NLSPLINE"> F  </i>
   </separator>
   <separator name="electronic startup" >
    <i type="int" name="ISTART">     0</i>
    <i type="int" name="ICHARG">     2</i>
    <i type="int" name="INIWAV">     1</i>
   </separator>
   <separator name="electronic spin" >
    <i type="int" name="ISPIN">     1</i>
    <i type="logical" name="LNONCOLLINEAR"> F  </i>
    <v name="MAGMOM">      1.00000000      1.00000000      1.00000000      1.00000000      1.00000000      1.00000000      1.00000000      1.00000000</v>
    <i name="NUPDOWN">     -1.00000000</i>
    <i type="logical" name="LSORBIT"> F  </i>
    <v name="SAXIS">      0.00000000      0.00000000      1.00000000</v>
    <i type="logical" name="LSPIRAL"> F  </i>
    <v name="QSPIRAL">      0.00000000      0.00000000      0.00000000</v>
    <i type="logical" name="LZEROZ"> F  </i>
   </separator>
   <separator name="electronic exchange-correlation" >
    <i type="logical" name="LASPH"> T  </i>
    <i type="logical" name="LMETAGGA"> F  </i>
   </separator>
   <separator name="electronic convergence" >
    <i type="int" name="NELM">   250</i>
    <i type="int" name="NELMDL">    -5</i>
    <i type="int" name="NELMIN">     5</i>
    <i name="ENINI">    700.00000000</i>
    <separator name="electronic convergence detail" >
     <i type="logical" name="LDIAG"> T  </i>
     <i type="logical" name="LSUBROT"> F  </i>
     <i name="WEIMIN">      0.00000000</i>
     <i name="EBREAK">      0.00000000</i>
     <i name="DEPER">      0.30000000</i>
     <i type="int" name="NRMM">     4</i>
     <i name="TIME">      0.40000000</i>
    </separator>
   </separator>
   <separator name="electronic mixer" >
    <i name="AMIX">      0.40000000</i>
    <i name="BMIX">      1.00000000</i>
    <i name="AMIN">      0.10000000</i>
    <i name="AMIX_MAG">      1.60000000</i>
    <i name="BMIX_MAG">      1.00000000</i>
    <separator name="electronic mixer details" >
     <i type="int" name="IMIX">     4</i>
     <i type="logical" name="MIXFIRST"> F  </i>
     <i type="int" name="MAXMIX">   -45</i>
     <i name="WC">    100.00000000</i>
     <i type="int" name="INIMIX">     1</i>
     <i type="int" name="MIXPRE">     1</i>
     <i type="int" name="MREMOVE">     5</i>
    </separator>
   </separator>
   <separator name="electronic dipolcorrection" >
    <i type="logical" name="LDIPOL"> F  </i>
    <i type="logical" name="LMONO"> F  </i>
    <i type="int" name="IDIPOL">     0</i>
    <i name="EPSILON">      1.00000000</i>
    <v name="DIPOL">   -100.00000000   -100.00000000   -100.00000000</v>
    <i name="EFIELD">      0.00000000</i>
   </separator>
  </separator>
  <separator name="grids" >
   <i type="int" name="NGX">    40</i>
   <i type="int" name="NGY">    36</i>
   <i type="int" name="NGZ">    98</i>
   <i type="int" name="NGXF">    80</i>
   <i type="int" name="NGYF">    72</i>
   <i type="int" name="NGZF">   196</i>
   <i type="logical" name="ADDGRID"> T  </i>
  </separator>
  <separator name="ionic" >
   <i type="int" name="NSW">     0</i>
   <i type="int" name="IBRION">    -1</i>
   <i type="int" name="MDALGO">     0</i>
   <i type="int" name="ISIF">     2</i>
   <i name="PSTRESS">      0.00000000</i>
   <i name="EDIFFG">      0.00000010</i>
   <i type="int" name="NFREE">     0</i>
   <i name="POTIM">      0.50000000</i>
   <i name="SMASS">     -3.00000000</i>
   <i name="SCALEE">      1.00000000</i>
  </separator>
  <separator name="ionic md" >
   <i name="TEBEG">      0.00010000</i>
   <i name="TEEND">      0.00010000</i>
   <i type="int" name="NBLOCK">     1</i>
   <i type="int" name="KBLOCK">     1</i>
   <i type="int" name="NPACO">   256</i>
   <i name="APACO">     16.00000000</i>
  </separator>
  <separator name="symmetry" >
   <i type="int" name="ISYM">     2</i>
   <i name="SYMPREC">      0.00001000</i>
  </separator>
  <separator name="dos" >
   <i type="int" name="LORBIT">     0</i>
   <v name="RWIGS">     -1.00000000     -1.00000000</v>
   <i type="int" name="NEDOS">   301</i>
   <i name="EMIN">     10.00000000</i>
   <i name="EMAX">    -10.00000000</i>
   <i name="EFERMI">      0.00000000</i>
  </separator>
  <separator name="writing" >
   <i type="int" name="NWRITE">     2</i>
   <i type="logical" name="LWAVE"> F  </i>
   <i type="logical" name="LDOWNSAMPLE"> F  </i>
   <i type="logical" name="LCHARG"> F  </i>
   <i type="logical" name="LPARD"> F  </i>
   <i type="logical" name="LVTOT"> F  </i>
   <i type="logical" name="LVHAR"> F  </i>
   <i type="logical" name="LELF"> F  </i>
   <i type="logical" name="LOPTICS"> F  </i>
   <v name="STM">      0.00000000      0.00000000      0.00000000      0.00000000      0.00000000      0.00000000      0.00000000</v>
  </separator>
  <separator name="performance" >
   <i type="int" name="NPAR">    32</i>
   <i type="int" name="NSIM">     4</i>
   <i type="int" name="NBLK">    -1</i>
   <i type="logical" name="LPLANE"> T  </i>
   <i type="logical" name="LSCALAPACK"> T  </i>
   <i type="logical" name="LSCAAWARE"> F  </i>
   <i type="logical" name="LSCALU"> F  </i>
   <i type="logical" name="LASYNC"> F  </i>
   <i type="logical" name="LORBITALREAL"> F  </i>
  </separator>
  <separator name="miscellaneous" >
   <i type="int" name="IDIOT">     3</i>
   <i type="int" name="PHON_NSTRUCT">    -1</i>
   <i type="logical" name="LMUSIC"> F  </i>
   <v name="POMASS">    118.71000000     78.96000000</v>
   <v name="DARWINR">      0.00000000      0.00000000</v>
   <v name="DARWINV">      1.00000000      1.00000000</v>
   <i type="logical" name="LCORR"> T  </i>
  </separator>
  <i type="logical" name="GGA_COMPAT"> T  </i>
  <i type="logical" name="LBERRY"> F  </i>
  <i type="int" name="ICORELEVEL">     0</i>
  <i type="logical" name="LDAU"> F  </i>
  <i type="int" name="I_CONSTRAINED_M">     0</i>
  <separator name="electronic exchange-correlation" >
   <i type="string" name="GGA">PS</i>
   <i type="int" name="VOSKOWN">     0</i>
   <i type="logical" name="LHFCALC"> F  </i>
   <i type="string" name="PRECFOCK"></i>
   <i type="logical" name="LSYMGRAD"> F  </i>
   <i type="logical" name="LHFONE"> F  </i>
   <i type="logical" name="LRHFCALC"> F  </i>
   <i type="logical" name="LTHOMAS"> F  </i>
   <i type="logical" name="LMODELHF"> F  </i>
   <i type="logical" name="LFOCKACE"> F  </i>
   <i name="ENCUT4O">     -1.00000000</i>
   <i type="int" name="EXXOEP">     0</i>
   <i type="int" name="FOURORBIT">     0</i>
   <i name="AEXX">      0.00000000</i>
   <i name="HFALPHA">      0.00000000</i>
   <i name="MCALPHA">      0.00000000</i>
   <i name="ALDAX">      1.00000000</i>
   <i name="AGGAX">      1.00000000</i>
   <i name="ALDAC">      1.00000000</i>
   <i name="AGGAC">      1.00000000</i>
   <i type="int" name="NKREDX">     1</i>
   <i type="int" name="NKREDY">     1</i>
   <i type="int" name="NKREDZ">     1</i>
   <i type="logical" name="SHIFTRED"> F  </i>
   <i type="logical" name="ODDONLY"> F  </i>
   <i type="logical" name="EVENONLY"> F  </i>
   <i type="int" name="LMAXFOCK">     0</i>
   <i type="int" name="NMAXFOCKAE">     0</i>
   <i type="logical" name="LFOCKAEDFT"> F  </i>
   <i name="HFSCREEN">      0.00000000</i>
   <i name="HFSCREENC">      0.00000000</i>
   <i type="int" name="NBANDSGWLOW">     0</i>
  </separator>
  <separator name="vdW DFT" >
   <i type="logical" name="LUSE_VDW"> F  </i>
   <i name="Zab_VDW">     -0.84910000</i>
   <i name="PARAM1">      0.12340000</i>
   <i name="PARAM2">      1.00000000</i>
   <i name="PARAM3">      0.00000000</i>
  </separator>
  <separator name="model GW" >
   <i type="int" name="MODEL_GW">     0</i>
   <i name="MODEL_EPS0">     15.24405127</i>
   <i name="MODEL_ALPHA">      1.00000000</i>
  </separator>
  <separator name="linear response parameters" >
   <i type="logical" name="LEPSILON"> T  </i>
   <i type="logical" name="LRPA"> F  </i>
   <i type="logical" name="LNABLA"> F  </i>
   <i type="logical" name="LVEL"> F  </i>
   <i type="int" name="KINTER">     0</i>
   <i name="CSHIFT">      0.10000000</i>
   <i name="OMEGAMAX">     -1.00000000</i>
   <i name="DEG_THRESHOLD">      0.00200000</i>
   <i name="RTIME">     -0.10000000</i>
   <i name="WPLASMAI">      0.00000000</i>
   <v name="DFIELD">      0.00000000      0.00000000      0.00000000</v>
   <v name="WPLASMA">      0.00000000      0.00000000      0.00000000      0.00000000      0.00000000      0.00000000      0.00000000      0.00000000      0.00000000</v>
  </separator>
  <separator name="orbital magnetization" >
   <i type="logical" name="NUCIND"> F  </i>
   <v name="MAGPOS">      0.00000000      0.00000000      0.00000000</v>
   <i type="logical" name="LNICSALL"> T  </i>
   <i type="logical" name="ORBITALMAG"> F  </i>
   <i type="logical" name="LMAGBLOCH"> F  </i>
   <i type="logical" name="LCHIMAG"> F  </i>
   <i type="logical" name="LGAUGE"> T  </i>
   <i type="int" name="MAGATOM">     0</i>
   <v name="MAGDIPOL">      0.00000000      0.00000000      0.00000000</v>
   <v name="AVECCONST">      0.00000000      0.00000000      0.00000000</v>
  </separator>
  <separator name="response functions" >
   <i type="logical" name="LFINITE_TEMPERATURE"> F  </i>
   <i type="logical" name="LADDER"> F  </i>
   <i type="logical" name="LRPAFORCE"> F  </i>
   <i type="logical" name="LFXC"> F  </i>
   <i type="logical" name="LHARTREE"> T  </i>
   <i type="int" name="IBSE">     0</i>
   <v type="int" name="KPOINT">    -1     0     0     0</v>
   <i type="logical" name="LTCTC"> F  </i>
   <i type="logical" name="LTCTE"> F  </i>
   <i type="logical" name="LTETE"> F  </i>
   <i type="logical" name="LTRIPLET"> F  </i>
   <i type="logical" name="LFXCEPS"> F  </i>
   <i type="logical" name="LFXHEG"> F  </i>
   <i type="int" name="NATURALO">     2</i>
   <i type="logical" name="LHOLEGF"> F  </i>
   <i type="logical" name="L2ORDER"> F  </i>
   <i type="logical" name="LDMP1"> F  </i>
   <i type="logical" name="LMP2LT"> F  </i>
   <i type="logical" name="LSMP2LT"> F  </i>
   <i type="logical" name="LGWLF"> F  </i>
   <i name="ENCUTGW">     -2.00000000</i>
   <i name="ENCUTGWSOFT">     -2.00000000</i>
   <i name="ENCUTLF">     -1.00000000</i>
   <i type="logical" name="LESF_SPLINES"> F  </i>
   <i type="int" name="LMAXMP2">    -1</i>
   <i name="SCISSOR">      0.00000000</i>
   <i type="int" name="NOMEGA">     0</i>
   <i type="int" name="NOMEGAR">     0</i>
   <i type="int" name="NBANDSGW">    -1</i>
   <i type="int" name="NBANDSO">    -1</i>
   <i type="int" name="NBANDSV">    -1</i>
   <i type="int" name="NELM">   250</i>
   <i type="int" name="NELMHF">     1</i>
   <i type="int" name="DIM">     3</i>
   <i type="int" name="IESPILON">     4</i>
   <i type="int" name="ANTIRES">     0</i>
   <i name="OMEGAMAX">    -30.00000000</i>
   <i name="OMEGAMIN">    -30.00000000</i>
   <i name="OMEGATL">   -200.00000000</i>
   <i type="int" name="OMEGAGRID">     0</i>
   <i name="CSHIFT">     -0.10000000</i>
   <i type="logical" name="LSELFENERGY"> F  </i>
   <i type="logical" name="LSPECTRAL"> F  </i>
   <i type="logical" name="LSPECTRALGW"> F  </i>
   <i type="logical" name="LSINGLES"> F  </i>
   <i type="logical" name="LFERMIGW"> F  </i>
   <i type="logical" name="ODDONLYGW"> F  </i>
   <i type="logical" name="EVENONLYGW"> F  </i>
   <i type="int" name="NKREDLFX">     1</i>
   <i type="int" name="NKREDLFY">     1</i>
   <i type="int" name="NKREDLFZ">     1</i>
   <i type="int" name="MAXMEM">  2800</i>
   <i type="int" name="TELESCOPE">     0</i>
   <i type="int" name="NTAUPAR">    -1</i>
   <i type="int" name="NOMEGAPAR">    -1</i>
   <i name="DAMP_NEWTON">      0.80000001</i>
   <i name="LAMBDA">      1.00000000</i>
  </separator>
  <separator name="External order field" >
   <i name="OFIELD_KAPPA">      0.00000000</i>
   <v name="OFIELD_K">      0.00000000      0.00000000      0.00000000</v>
   <i name="OFIELD_Q6_NEAR">      0.00000000</i>
   <i name="OFIELD_Q6_FAR">      0.00000000</i>
   <i name="OFIELD_A">      0.00000000</i>
  </separator>
 </parameters>
 <atominfo>
  <atoms>       8 </atoms>
  <types>       2 </types>
  <array name="atoms" >
   <dimension dim="1">ion</dimension>
   <field type="string">element</field>
   <field type="int">atomtype</field>
   <set>
    <rc><c>Sn</c><c>   1</c></rc>
    <rc><c>Sn</c><c>   1</c></rc>
    <rc><c>Sn</c><c>   1</c></rc>
    <rc><c>Sn</c><c>   1</c></rc>
    <rc><c>Se</c><c>   2</c></rc>
    <rc><c>Se</c><c>   2</c></rc>
    <rc><c>Se</c><c>   2</c></rc>
    <rc><c>Se</c><c>   2</c></rc>
   </set>
  </array>
  <array name="atomtypes" >
   <dimension dim="1">type</dimension>
   <field type="int">atomspertype</field>
   <field type="string">element</field>
   <field>mass</field>
   <field>valence</field>
   <field type="string">pseudopotential</field>
   <set>
    <rc><c>   4</c><c>Sn</c><c>    118.71000000</c><c>     14.00000000</c><c>  PAW_PBE Sn_d 06Sep2000                </c></rc>
    <rc><c>   4</c><c>Se</c><c>     78.96000000</c><c>      6.00000000</c><c>  PAW_PBE Se 06Sep2000                  </c></rc>
   </set>
  </array>
 </atominfo>
 <structure name="initialpos" >
  <crystal>
   <varray name="basis" >
    <v>       4.34539863       0.00000000       0.00000000 </v>
    <v>       0.00000000       4.11936655       0.00000000 </v>
    <v>       0.00000000       0.00000000      11.35478920 </v>
   </varray>
   <i name="volume">    203.25401695 </i>
   <varray name="rec_basis" >
    <v>       0.23012848       0.00000000       0.00000000 </v>
    <v>       0.00000000       0.24275577       0.00000000 </v>
    <v>       0.00000000       0.00000000       0.08806857 </v>
   </varray>
  </crystal>
  <varray name="positions" >
   <v>       0.09993103       0.25000000       0.11530777 </v>
   <v>       0.40006897       0.25000000       0.61530777 </v>
   <v>       0.59993103       0.75000000       0.38469223 </v>
   <v>       0.90006897       0.75000000       0.88469223 </v>
   <v>       0.02667331       0.25000000       0.35673222 </v>
   <v>       0.47332669       0.25000000       0.85673222 </v>
   <v>       0.52667331       0.75000000       0.14326778 </v>
   <v>       0.97332669       0.75000000       0.64326778 </v>
  </varray>
 </structure>
 <calculation>
  <scstep>
   <time name="dav">   12.63   11.71</time>
   <time name="total">   12.92   11.97</time>
   <energy>
    <i name="alphaZ">    217.43841536 </i>
    <i name="ewald">  -6082.78628177 </i>
    <i name="hartreedc">  -2322.04462292 </i>
    <i name="XCdc">    230.11331435 </i>
    <i name="pawpsdc">   7112.06264409 </i>
    <i name="pawaedc">  -7207.42447429 </i>
    <i name="eentropy">     -0.00034027 </i>
    <i name="bandstr">     37.44942242 </i>
    <i name="atom">   8598.20158228 </i>
    <i name="e_fr_energy">    583.00965925 </i>
    <i name="e_wo_entrp">    583.00999952 </i>
    <i name="e_0_energy">    583.00982938 </i>
   </energy>
  </scstep>
  <scstep>
   <time name="dav">    1.53    0.79</time>
   <time name="total">    1.53    0.79</time>
   <energy>
    <i name="e_fr_energy">     16.20371086 </i>
    <i name="e_wo_entrp">     16.20397143 </i>
    <i name="e_0_energy">     16.20384114 </i>
   </energy>
  </scstep>
  <scstep>
   <time name="dav">    2.02    1.02</time>
   <time name="total">    2.02    1.02</time>
   <energy>
    <i name="e_fr_energy">    -35.44963935 </i>
    <i name="e_wo_entrp">    -35.44963935 </i>
    <i name="e_0_energy">    -35.44963935 </i>
   </energy>
  </scstep>
  <scstep>
   <time name="dav">    1.86    0.93</time>
   <time name="total">    1.87    0.93</time>
   <energy>
    <i name="e_fr_energy">    -36.55519483 </i>
    <i name="e_wo_entrp">    -36.55519483 </i>
    <i name="e_0_energy">    -36.55519483 </i>
   </energy>
  </scstep>
  <scstep>
   <time name="dav">    2.20    1.10</time>
   <time name="total">    2.47    1.26</time>
   <energy>
    <i name="e_fr_energy">    -36.58311662 </i>
    <i name="e_wo_entrp">    -36.58311662 </i>
    <i name="e_0_energy">    -36.58311662 </i>
   </energy>
  </scstep>
  <scstep>
   <time name="dav">    2.49    1.25</time>
   <time name="total">    3.00    1.87</time>
   <energy>
    <i name="e_fr_energy">    -35.95344494 </i>
    <i name="e_wo_entrp">    -35.95344494 </i>
    <i name="e_0_energy">    -35.95344494 </i>
   </energy>
  </scstep>
  <scstep>
   <time name="dav">    2.05    1.03</time>
   <time name="total">    2.50    1.39</time>
   <energy>
    <i name="e_fr_energy">    -35.91866951 </i>
    <i name="e_wo_entrp">    -35.91866951 </i>
    <i name="e_0_energy">    -35.91866951 </i>
   </energy>
  </scstep>
  <scstep>
   <time name="dav">    1.86    0.94</time>
   <time name="total">    2.31    1.29</time>
   <energy>
    <i name="e_fr_energy">    -35.91366139 </i>
    <i name="e_wo_entrp">    -35.91366139 </i>
    <i name="e_0_energy">    -35.91366139 </i>
   </energy>
  </scstep>
  <scstep>
   <time name="dav">    2.10    1.05</time>
   <time name="total">    2.57    1.41</time>
   <energy>
    <i name="e_fr_energy">    -35.91369503 </i>
    <i name="e_wo_entrp">    -35.91369503 </i>
    <i name="e_0_energy">    -35.91369503 </i>
   </energy>
  </scstep>
  <scstep>
   <time name="dav">    2.01    1.01</time>
   <time name="total">    2.48    1.36</time>
   <energy>
    <i name="e_fr_energy">    -35.91369725 </i>
    <i name="e_wo_entrp">    -35.91369725 </i>
    <i name="e_0_energy">    -35.91369725 </i>
   </energy>
  </scstep>
  <scstep>
   <time name="dav">    2.03    1.02</time>
   <time name="total">    2.52    1.38</time>
   <energy>
    <i name="e_fr_energy">    -35.91371058 </i>
    <i name="e_wo_entrp">    -35.91371058 </i>
    <i name="e_0_energy">    -35.91371058 </i>
   </energy>
  </scstep>
  <scstep>
   <time name="dav">    1.89    0.97</time>
   <time name="total">    2.23    1.32</time>
   <energy>
    <i name="e_fr_energy">    -35.91370889 </i>
    <i name="e_wo_entrp">    -35.91370889 </i>
    <i name="e_0_energy">    -35.91370889 </i>
   </energy>
  </scstep>
  <scstep>
   <time name="dav">    2.10    1.06</time>
   <time name="total">    2.55    1.41</time>
   <energy>
    <i name="e_fr_energy">    -35.91370882 </i>
    <i name="e_wo_entrp">    -35.91370882 </i>
    <i name="e_0_energy">    -35.91370882 </i>
   </energy>
  </scstep>
  <scstep>
   <time name="dav">    1.85    0.93</time>
   <time name="total">    2.28    1.28</time>
   <energy>
    <i name="e_fr_energy">    -35.91370884 </i>
    <i name="e_wo_entrp">    -35.91370884 </i>
    <i name="e_0_energy">    -35.91370884 </i>
   </energy>
  </scstep>
  <scstep>
   <time name="dav">    1.71    0.86</time>
   <time name="total">    2.17    1.21</time>
   <energy>
    <i name="e_fr_energy">    -35.91370878 </i>
    <i name="e_wo_entrp">    -35.91370878 </i>
    <i name="e_0_energy">    -35.91370878 </i>
   </energy>
  </scstep>
  <scstep>
   <time name="dav">    1.30    0.65</time>
   <time name="total">    1.77    1.01</time>
   <energy>
    <i name="e_fr_energy">    -35.91370877 </i>
    <i name="e_wo_entrp">    -35.91370877 </i>
    <i name="e_0_energy">    -35.91370877 </i>
   </energy>
  </scstep>
  <scstep>
   <time name="dav">    1.38    0.69</time>
   <time name="total">    1.62    0.94</time>
   <energy>
    <i name="alphaZ">    217.43841536 </i>
    <i name="ewald">  -6082.78628177 </i>
    <i name="hartreedc">  -2303.80865072 </i>
    <i name="XCdc">    230.43167287 </i>
    <i name="pawpsdc">   8471.87185404 </i>
    <i name="pawaedc">  -8567.77239044 </i>
    <i name="eentropy">     -0.00000000 </i>
    <i name="bandstr">   -599.48991038 </i>
    <i name="atom">   8598.20158228 </i>
    <i name="e_fr_energy">    -35.91370877 </i>
    <i name="e_wo_entrp">    -35.91370877 </i>
    <i name="e_0_energy">    -35.91370877 </i>
   </energy>
  </scstep>
  <structure>
   <crystal>
    <varray name="basis" >
     <v>       4.34539863       0.00000000       0.00000000 </v>
     <v>       0.00000000       4.11936655       0.00000000 </v>
     <v>       0.00000000       0.00000000      11.35478920 </v>
    </varray>
    <i name="volume">    203.25401695 </i>
    <varray name="rec_basis" >
     <v>       0.23012848       0.00000000       0.00000000 </v>
     <v>       0.00000000       0.24275577       0.00000000 </v>
     <v>       0.00000000       0.00000000       0.08806857 </v>
    </varray>
   </crystal>
   <varray name="positions" >
    <v>       0.09993103       0.25000000       0.11530777 </v>
    <v>       0.40006897       0.25000000       0.61530777 </v>
    <v>       0.59993103       0.75000000       0.38469223 </v>
    <v>       0.90006897       0.75000000       0.88469223 </v>
    <v>       0.02667331       0.25000000       0.35673222 </v>
    <v>       0.47332669       0.25000000       0.85673222 </v>
    <v>       0.52667331       0.75000000       0.14326778 </v>
    <v>       0.97332669       0.75000000       0.64326778 </v>
   </varray>
  </structure>
  <varray name="forces" >
   <v>      -0.00978224       0.00000000       0.00428192 </v>
   <v>       0.00978224      -0.00000000       0.00428192 </v>
   <v>      -0.00978224      -0.00000000      -0.00428192 </v>
   <v>       0.00978224      -0.00000000      -0.00428192 </v>
   <v>      -0.00449405       0.00000000      -0.00266682 </v>
   <v>       0.00449405      -0.00000000      -0.00266682 </v>
   <v>      -0.00449405       0.00000000       0.00266682 </v>
   <v>       0.00449405       0.00000000       0.00266682 </v>
  </varray>
  <varray name="stress" >
   <v>       0.15208846       0.00000000       0.00000000 </v>
   <v>       0.00000000       0.02128936       0.00000000 </v>
   <v>       0.00000000       0.00000000      -0.52285439 </v>
  </varray>
  <energy>
   <i name="e_fr_energy">    -37.43173563 </i>
   <i name="e_wo_entrp">    -37.43173563 </i>
   <i name="e_0_energy">    -37.43173563 </i>
  </energy>
  <scstep>
   <time name="total">    1.01    0.53</time>
   <energy>
    <i name="e_fr_energy">   -132.49067314 </i>
    <i name="e_wo_entrp">   -132.49067314 </i>
    <i name="e_0_energy">   -132.49067314 </i>
   </energy>
  </scstep>
  <scstep>
   <time name="total">    1.29    0.66</time>
   <energy>
    <i name="e_fr_energy">   -259.13447563 </i>
    <i name="e_wo_entrp">   -259.13447563 </i>
    <i name="e_0_energy">   -259.13447563 </i>
   </energy>
  </scstep>
  <scstep>
   <time name="total">    1.33    0.71</time>
   <energy>
    <i name="e_fr_energy">   -259.94130722 </i>
    <i name="e_wo_entrp">   -259.94130722 </i>
    <i name="e_0_energy">   -259.94130722 </i>
   </energy>
  </scstep>
  <scstep>
   <time name="total">    1.11    0.59</time>
   <energy>
    <i name="e_fr_energy">   -260.09880379 </i>
    <i name="e_wo_entrp">   -260.09880379 </i>
    <i name="e_0_energy">   -260.09880379 </i>
   </energy>
  </scstep>
  <scstep>
   <time name="total">    1.11    0.59</time>
   <energy>
    <i name="e_fr_energy">   -260.10232721 </i>
    <i name="e_wo_entrp">   -260.10232721 </i>
    <i name="e_0_energy">   -260.10232721 </i>
   </energy>
  </scstep>
  <scstep>
   <time name="total">    1.12    0.60</time>
   <energy>
    <i name="e_fr_energy">   -260.10458755 </i>
    <i name="e_wo_entrp">   -260.10458755 </i>
    <i name="e_0_energy">   -260.10458755 </i>
   </energy>
  </scstep>
  <scstep>
   <time name="total">    1.20    0.60</time>
   <energy>
    <i name="e_fr_energy">   -260.10476666 </i>
    <i name="e_wo_entrp">   -260.10476666 </i>
    <i name="e_0_energy">   -260.10476666 </i>
   </energy>
  </scstep>
  <scstep>
   <time name="total">    1.22    0.61</time>
   <energy>
    <i name="e_fr_energy">   -260.10477243 </i>
    <i name="e_wo_entrp">   -260.10477243 </i>
    <i name="e_0_energy">   -260.10477243 </i>
   </energy>
  </scstep>
  <scstep>
   <time name="total">    1.22    0.61</time>
   <energy>
    <i name="e_fr_energy">   -260.10477412 </i>
    <i name="e_wo_entrp">   -260.10477412 </i>
    <i name="e_0_energy">   -260.10477412 </i>
   </energy>
  </scstep>
  <scstep>
   <time name="total">    1.22    0.61</time>
   <energy>
    <i name="e_fr_energy">   -260.10477710 </i>
    <i name="e_wo_entrp">   -260.10477710 </i>
    <i name="e_0_energy">   -260.10477710 </i>
   </energy>
  </scstep>
  <scstep>
   <time name="total">    1.20    0.61</time>
   <energy>
    <i name="e_fr_energy">   -260.10477268 </i>
    <i name="e_wo_entrp">   -260.10477268 </i>
    <i name="e_0_energy">   -260.10477268 </i>
   </energy>
  </scstep>
  <scstep>
   <time name="total">    1.17    0.59</time>
   <energy>
    <i name="e_fr_energy">   -260.10477313 </i>
    <i name="e_wo_entrp">   -260.10477313 </i>
    <i name="e_0_energy">   -260.10477313 </i>
   </energy>
  </scstep>
  <scstep>
   <time name="total">    1.18    0.59</time>
   <energy>
    <i name="e_fr_energy">   -260.10477195 </i>
    <i name="e_wo_entrp">   -260.10477195 </i>
    <i name="e_0_energy">   -260.10477195 </i>
   </energy>
  </scstep>
  <scstep>
   <time name="total">    0.92    0.46</time>
   <energy>
    <i name="e_fr_energy">   -129.98422509 </i>
    <i name="e_wo_entrp">   -129.98422509 </i>
    <i name="e_0_energy">   -129.98422509 </i>
   </energy>
  </scstep>
  <scstep>
   <time name="total">    1.29    0.66</time>
   <energy>
    <i name="e_fr_energy">   -259.00090327 </i>
    <i name="e_wo_entrp">   -259.00090327 </i>
    <i name="e_0_energy">   -259.00090327 </i>
   </energy>
  </scstep>
  <scstep>
   <time name="total">    1.29    0.69</time>
   <energy>
    <i name="e_fr_energy">   -259.81670664 </i>
    <i name="e_wo_entrp">   -259.81670664 </i>
    <i name="e_0_energy">   -259.81670664 </i>
   </energy>
  </scstep>
  <scstep>
   <time name="total">    1.08    0.57</time>
   <energy>
    <i name="e_fr_energy">   -259.95487877 </i>
    <i name="e_wo_entrp">   -259.95487877 </i>
    <i name="e_0_energy">   -259.95487877 </i>
   </energy>
  </scstep>
  <scstep>
   <time name="total">    1.12    0.59</time>
   <energy>
    <i name="e_fr_energy">   -259.96605285 </i>
    <i name="e_wo_entrp">   -259.96605285 </i>
    <i name="e_0_energy">   -259.96605285 </i>
   </energy>
  </scstep>
  <scstep>
   <time name="total">    1.16    0.59</time>
   <energy>
    <i name="e_fr_energy">   -259.96935615 </i>
    <i name="e_wo_entrp">   -259.96935615 </i>
    <i name="e_0_energy">   -259.96935615 </i>
   </energy>
  </scstep>
  <scstep>
   <time name="total">    1.23    0.62</time>
   <energy>
    <i name="e_fr_energy">   -259.96938964 </i>
    <i name="e_wo_entrp">   -259.96938964 </i>
    <i name="e_0_energy">   -259.96938964 </i>
   </energy>
  </scstep>
  <scstep>
   <time name="total">    1.25    0.63</time>
   <energy>
    <i name="e_fr_energy">   -259.96937179 </i>
    <i name="e_wo_entrp">   -259.96937179 </i>
    <i name="e_0_energy">   -259.96937179 </i>
   </energy>
  </scstep>
  <scstep>
   <time name="total">    1.22    0.61</time>
   <energy>
    <i name="e_fr_energy">   -259.96936892 </i>
    <i name="e_wo_entrp">   -259.96936892 </i>
    <i name="e_0_energy">   -259.96936892 </i>
   </energy>
  </scstep>
  <scstep>
   <time name="total">    1.23    0.62</time>
   <energy>
    <i name="e_fr_energy">   -259.96940680 </i>
    <i name="e_wo_entrp">   -259.96940680 </i>
    <i name="e_0_energy">   -259.96940680 </i>
   </energy>
  </scstep>
  <scstep>
   <time name="total">    1.17    0.59</time>
   <energy>
    <i name="e_fr_energy">   -259.96936718 </i>
    <i name="e_wo_entrp">   -259.96936718 </i>
    <i name="e_0_energy">   -259.96936718 </i>
   </energy>
  </scstep>
  <scstep>
   <time name="total">    1.17    0.58</time>
   <energy>
    <i name="e_fr_energy">   -259.96939799 </i>
    <i name="e_wo_entrp">   -259.96939799 </i>
    <i name="e_0_energy">   -259.96939799 </i>
   </energy>
  </scstep>
  <scstep>
   <time name="total">    1.09    0.55</time>
   <energy>
    <i name="e_fr_energy">   -259.96940723 </i>
    <i name="e_wo_entrp">   -259.96940723 </i>
    <i name="e_0_energy">   -259.96940723 </i>
   </energy>
  </scstep>
  <scstep>
   <time name="total">    0.91    0.46</time>
   <energy>
    <i name="e_fr_energy">   -129.18384319 </i>
    <i name="e_wo_entrp">   -129.18384319 </i>
    <i name="e_0_energy">   -129.18384319 </i>
   </energy>
  </scstep>
  <scstep>
   <time name="total">    1.29    0.67</time>
   <energy>
    <i name="e_fr_energy">   -263.67420122 </i>
    <i name="e_wo_entrp">   -263.67420122 </i>
    <i name="e_0_energy">   -263.67420122 </i>
   </energy>
  </scstep>
  <scstep>
   <time name="total">    1.26    0.68</time>
   <energy>
    <i name="e_fr_energy">   -264.70656329 </i>
    <i name="e_wo_entrp">   -264.70656329 </i>
    <i name="e_0_energy">   -264.70656329 </i>
   </energy>
  </scstep>
  <scstep>
   <time name="total">    1.10    0.58</time>
   <energy>
    <i name="e_fr_energy">   -265.00377189 </i>
    <i name="e_wo_entrp">   -265.00377189 </i>
    <i name="e_0_energy">   -265.00377189 </i>
   </energy>
  </scstep>
  <scstep>
   <time name="total">    1.12    0.61</time>
   <energy>
    <i name="e_fr_energy">   -265.00203676 </i>
    <i name="e_wo_entrp">   -265.00203676 </i>
    <i name="e_0_energy">   -265.00203676 </i>
   </energy>
  </scstep>
  <scstep>
   <time name="total">    1.15    0.60</time>
   <energy>
    <i name="e_fr_energy">   -265.00589761 </i>
    <i name="e_wo_entrp">   -265.00589761 </i>
    <i name="e_0_energy">   -265.00589761 </i>
   </energy>
  </scstep>
  <scstep>
   <time name="total">    1.21    0.61</time>
   <energy>
    <i name="e_fr_energy">   -265.00613026 </i>
    <i name="e_wo_entrp">   -265.00613026 </i>
    <i name="e_0_energy">   -265.00613026 </i>
   </energy>
  </scstep>
  <scstep>
   <time name="total">    1.23    0.62</time>
   <energy>
    <i name="e_fr_energy">   -265.00609904 </i>
    <i name="e_wo_entrp">   -265.00609904 </i>
    <i name="e_0_energy">   -265.00609904 </i>
   </energy>
  </scstep>
  <scstep>
   <time name="total">    1.23    0.61</time>
   <energy>
    <i name="e_fr_energy">   -265.00608537 </i>
    <i name="e_wo_entrp">   -265.00608537 </i>
    <i name="e_0_energy">   -265.00608537 </i>
   </energy>
  </scstep>
  <scstep>
   <time name="total">    1.23    0.62</time>
   <energy>
    <i name="e_fr_energy">   -265.00610924 </i>
    <i name="e_wo_entrp">   -265.00610924 </i>
    <i name="e_0_energy">   -265.00610924 </i>
   </energy>
  </scstep>
  <scstep>
   <time name="total">    1.21    0.60</time>
   <energy>
    <i name="e_fr_energy">   -265.00610544 </i>
    <i name="e_wo_entrp">   -265.00610544 </i>
    <i name="e_0_energy">   -265.00610544 </i>
   </energy>
  </scstep>
  <scstep>
   <time name="total">    1.14    0.57</time>
   <energy>
    <i name="e_fr_energy">   -265.00609200 </i>
    <i name="e_wo_entrp">   -265.00609200 </i>
    <i name="e_0_energy">   -265.00609200 </i>
   </energy>
  </scstep>
  <scstep>
   <time name="total">    1.10    0.55</time>
   <energy>
    <i name="e_fr_energy">   -265.00611331 </i>
    <i name="e_wo_entrp">   -265.00611331 </i>
    <i name="e_0_energy">   -265.00611331 </i>
   </energy>
  </scstep>
  <scstep>
   <time name="total">    1.56    1.07</time>
   <energy>
    <i name="e_fr_energy">     -2.25105052 </i>
    <i name="e_wo_entrp">     -2.25105052 </i>
    <i name="e_0_energy">     -2.25105052 </i>
   </energy>
  </scstep>
  <scstep>
   <time name="total">    1.97    1.21</time>
   <energy>
    <i name="e_fr_energy">    -13.85229821 </i>
    <i name="e_wo_entrp">    -13.85229821 </i>
    <i name="e_0_energy">    -13.85229821 </i>
   </energy>
  </scstep>
  <scstep>
   <time name="total">    2.01    1.24</time>
   <energy>
    <i name="e_fr_energy">    -13.92644052 </i>
    <i name="e_wo_entrp">    -13.92644052 </i>
    <i name="e_0_energy">    -13.92644052 </i>
   </energy>
  </scstep>
  <scstep>
   <time name="total">    2.01    1.25</time>
   <energy>
    <i name="e_fr_energy">    -13.92687081 </i>
    <i name="e_wo_entrp">    -13.92687081 </i>
    <i name="e_0_energy">    -13.92687081 </i>
   </energy>
  </scstep>
  <scstep>
   <time name="total">    2.00    1.24</time>
   <energy>
    <i name="e_fr_energy">    -13.92696150 </i>
    <i name="e_wo_entrp">    -13.92696150 </i>
    <i name="e_0_energy">    -13.92696150 </i>
   </energy>
  </scstep>
  <scstep>
   <time name="total">    1.99    1.23</time>
   <energy>
    <i name="e_fr_energy">    -13.92696550 </i>
    <i name="e_wo_entrp">    -13.92696550 </i>
    <i name="e_0_energy">    -13.92696550 </i>
   </energy>
  </scstep>
  <scstep>
   <time name="total">    2.07    1.25</time>
   <energy>
    <i name="e_fr_energy">    -13.92696678 </i>
    <i name="e_wo_entrp">    -13.92696678 </i>
    <i name="e_0_energy">    -13.92696678 </i>
   </energy>
  </scstep>
  <scstep>
   <time name="total">    2.06    1.24</time>
   <energy>
    <i name="e_fr_energy">    -13.92696689 </i>
    <i name="e_wo_entrp">    -13.92696689 </i>
    <i name="e_0_energy">    -13.92696689 </i>
   </energy>
  </scstep>
  <scstep>
   <time name="total">    2.09    1.25</time>
   <energy>
    <i name="e_fr_energy">    -13.92696691 </i>
    <i name="e_wo_entrp">    -13.92696691 </i>
    <i name="e_0_energy">    -13.92696691 </i>
   </energy>
  </scstep>
  <scstep>
   <time name="total">    2.00    1.21</time>
   <energy>
    <i name="e_fr_energy">    -13.92696691 </i>
    <i name="e_wo_entrp">    -13.92696691 </i>
    <i name="e_0_energy">    -13.92696691 </i>
   </energy>
  </scstep>
  <scstep>
   <time name="total">    1.99    1.20</time>
   <energy>
    <i name="e_fr_energy">    -13.92696691 </i>
    <i name="e_wo_entrp">    -13.92696691 </i>
    <i name="e_0_energy">    -13.92696691 </i>
   </energy>
  </scstep>
  <scstep>
   <time name="total">    1.90    1.16</time>
   <energy>
    <i name="e_fr_energy">    -13.92696691 </i>
    <i name="e_wo_entrp">    -13.92696691 </i>
    <i name="e_0_energy">    -13.92696691 </i>
   </energy>
  </scstep>
  <scstep>
   <time name="total">    1.86    1.14</time>
   <energy>
    <i name="e_fr_energy">    -13.92696691 </i>
    <i name="e_wo_entrp">    -13.92696691 </i>
    <i name="e_0_energy">    -13.92696691 </i>
   </energy>
  </scstep>
  <scstep>
   <time name="total">    1.87    1.14</time>
   <energy>
    <i name="e_fr_energy">    -13.92696691 </i>
    <i name="e_wo_entrp">    -13.92696691 </i>
    <i name="e_0_energy">    -13.92696691 </i>
   </energy>
  </scstep>
  <scstep>
   <time name="total">    1.89    1.15</time>
   <energy>
    <i name="e_fr_energy">    -13.92696691 </i>
    <i name="e_wo_entrp">    -13.92696691 </i>
    <i name="e_0_energy">    -13.92696691 </i>
   </energy>
  </scstep>
  <scstep>
   <time name="total">    1.92    1.17</time>
   <energy>
    <i name="e_fr_energy">    -13.92696691 </i>
    <i name="e_wo_entrp">    -13.92696691 </i>
    <i name="e_0_energy">    -13.92696691 </i>
   </energy>
  </scstep>
  <scstep>
   <time name="total">    1.55    1.06</time>
   <energy>
    <i name="e_fr_energy">     -3.84719448 </i>
    <i name="e_wo_entrp">     -3.84719448 </i>
    <i name="e_0_energy">     -3.84719448 </i>
   </energy>
  </scstep>
  <scstep>
   <time name="total">    1.99    1.22</time>
   <energy>
    <i name="e_fr_energy">    -16.75324105 </i>
    <i name="e_wo_entrp">    -16.75324105 </i>
    <i name="e_0_energy">    -16.75324105 </i>
   </energy>
  </scstep>
  <scstep>
   <time name="total">    2.00    1.24</time>
   <energy>
    <i name="e_fr_energy">    -16.83928308 </i>
    <i name="e_wo_entrp">    -16.83928308 </i>
    <i name="e_0_energy">    -16.83928308 </i>
   </energy>
  </scstep>
  <scstep>
   <time name="total">    2.01    1.25</time>
   <energy>
    <i name="e_fr_energy">    -16.83972056 </i>
    <i name="e_wo_entrp">    -16.83972056 </i>
    <i name="e_0_energy">    -16.83972056 </i>
   </energy>
  </scstep>
  <scstep>
   <time name="total">    2.02    1.25</time>
   <energy>
    <i name="e_fr_energy">    -16.83979885 </i>
    <i name="e_wo_entrp">    -16.83979885 </i>
    <i name="e_0_energy">    -16.83979885 </i>
   </energy>
  </scstep>
  <scstep>
   <time name="total">    2.02    1.26</time>
   <energy>
    <i name="e_fr_energy">    -16.83980214 </i>
    <i name="e_wo_entrp">    -16.83980214 </i>
    <i name="e_0_energy">    -16.83980214 </i>
   </energy>
  </scstep>
  <scstep>
   <time name="total">    2.07    1.28</time>
   <energy>
    <i name="e_fr_energy">    -16.83980346 </i>
    <i name="e_wo_entrp">    -16.83980346 </i>
    <i name="e_0_energy">    -16.83980346 </i>
   </energy>
  </scstep>
  <scstep>
   <time name="total">    2.04    1.23</time>
   <energy>
    <i name="e_fr_energy">    -16.83980356 </i>
    <i name="e_wo_entrp">    -16.83980356 </i>
    <i name="e_0_energy">    -16.83980356 </i>
   </energy>
  </scstep>
  <scstep>
   <time name="total">    2.06    1.24</time>
   <energy>
    <i name="e_fr_energy">    -16.83980358 </i>
    <i name="e_wo_entrp">    -16.83980358 </i>
    <i name="e_0_energy">    -16.83980358 </i>
   </energy>
  </scstep>
  <scstep>
   <time name="total">    2.00    1.21</time>
   <energy>
    <i name="e_fr_energy">    -16.83980358 </i>
    <i name="e_wo_entrp">    -16.83980358 </i>
    <i name="e_0_energy">    -16.83980358 </i>
   </energy>
  </scstep>
  <scstep>
   <time name="total">    1.97    1.19</time>
   <energy>
    <i name="e_fr_energy">    -16.83980359 </i>
    <i name="e_wo_entrp">    -16.83980359 </i>
    <i name="e_0_energy">    -16.83980359 </i>
   </energy>
  </scstep>
  <scstep>
   <time name="total">    1.93    1.17</time>
   <energy>
    <i name="e_fr_energy">    -16.83980358 </i>
    <i name="e_wo_entrp">    -16.83980358 </i>
    <i name="e_0_energy">    -16.83980358 </i>
   </energy>
  </scstep>
  <scstep>
   <time name="total">    1.90    1.16</time>
   <energy>
    <i name="e_fr_energy">    -16.83980358 </i>
    <i name="e_wo_entrp">    -16.83980358 </i>
    <i name="e_0_energy">    -16.83980358 </i>
   </energy>
  </scstep>
  <scstep>
   <time name="total">    1.94    1.18</time>
   <energy>
    <i name="e_fr_energy">    -16.83980358 </i>
    <i name="e_wo_entrp">    -16.83980358 </i>
    <i name="e_0_energy">    -16.83980358 </i>
   </energy>
  </scstep>
  <scstep>
   <time name="total">    1.92    1.16</time>
   <energy>
    <i name="e_fr_energy">    -16.83980358 </i>
    <i name="e_wo_entrp">    -16.83980358 </i>
    <i name="e_0_energy">    -16.83980358 </i>
   </energy>
  </scstep>
  <scstep>
   <time name="total">    1.97    1.20</time>
   <energy>
    <i name="e_fr_energy">    -16.83980358 </i>
    <i name="e_wo_entrp">    -16.83980358 </i>
    <i name="e_0_energy">    -16.83980358 </i>
   </energy>
  </scstep>
  <scstep>
   <time name="total">    1.58    1.07</time>
   <energy>
    <i name="e_fr_energy">     -4.16836992 </i>
    <i name="e_wo_entrp">     -4.16836992 </i>
    <i name="e_0_energy">     -4.16836992 </i>
   </energy>
  </scstep>
  <scstep>
   <time name="total">    1.98    1.23</time>
   <energy>
    <i name="e_fr_energy">    -15.62363362 </i>
    <i name="e_wo_entrp">    -15.62363362 </i>
    <i name="e_0_energy">    -15.62363362 </i>
   </energy>
  </scstep>
  <scstep>
   <time name="total">    2.00    1.23</time>
   <energy>
    <i name="e_fr_energy">    -15.68666355 </i>
    <i name="e_wo_entrp">    -15.68666355 </i>
    <i name="e_0_energy">    -15.68666355 </i>
   </energy>
  </scstep>
  <scstep>
   <time name="total">    2.02    1.25</time>
   <energy>
    <i name="e_fr_energy">    -15.68706888 </i>
    <i name="e_wo_entrp">    -15.68706888 </i>
    <i name="e_0_energy">    -15.68706888 </i>
   </energy>
  </scstep>
  <scstep>
   <time name="total">    2.00    1.24</time>
   <energy>
    <i name="e_fr_energy">    -15.68716746 </i>
    <i name="e_wo_entrp">    -15.68716746 </i>
    <i name="e_0_energy">    -15.68716746 </i>
   </energy>
  </scstep>
  <scstep>
   <time name="total">    2.01    1.24</time>
   <energy>
    <i name="e_fr_energy">    -15.68717115 </i>
    <i name="e_wo_entrp">    -15.68717115 </i>
    <i name="e_0_energy">    -15.68717115 </i>
   </energy>
  </scstep>
  <scstep>
   <time name="total">    2.07    1.27</time>
   <energy>
    <i name="e_fr_energy">    -15.68717276 </i>
    <i name="e_wo_entrp">    -15.68717276 </i>
    <i name="e_0_energy">    -15.68717276 </i>
   </energy>
  </scstep>
  <scstep>
   <time name="total">    2.06    1.24</time>
   <energy>
    <i name="e_fr_energy">    -15.68717287 </i>
    <i name="e_wo_entrp">    -15.68717287 </i>
    <i name="e_0_energy">    -15.68717287 </i>
   </energy>
  </scstep>
  <scstep>
   <time name="total">    2.06    1.24</time>
   <energy>
    <i name="e_fr_energy">    -15.68717290 </i>
    <i name="e_wo_entrp">    -15.68717290 </i>
    <i name="e_0_energy">    -15.68717290 </i>
   </energy>
  </scstep>
  <scstep>
   <time name="total">    2.03    1.22</time>
   <energy>
    <i name="e_fr_energy">    -15.68717290 </i>
    <i name="e_wo_entrp">    -15.68717290 </i>
    <i name="e_0_energy">    -15.68717290 </i>
   </energy>
  </scstep>
  <scstep>
   <time name="total">    1.98    1.20</time>
   <energy>
    <i name="e_fr_energy">    -15.68717290 </i>
    <i name="e_wo_entrp">    -15.68717290 </i>
    <i name="e_0_energy">    -15.68717290 </i>
   </energy>
  </scstep>
  <varray name="dielectric_ipa" >
   <v>      25.79781150      -0.00000000       0.00000000 </v>
   <v>       0.00000000      30.98429262       0.00000000 </v>
   <v>       0.00000000       0.00000000      28.93196454 </v>
  </varray>
  <kpoints>
   <generation param="Gamma">
    <v type="int" name="divisions">       8        9        3 </v>
    <v name="usershift">      0.00000000       0.00000000       0.00000000 </v>
    <v name="genvec1">      0.12500000       0.00000000       0.00000000 </v>
    <v name="genvec2">      0.00000000       0.11111111       0.00000000 </v>
    <v name="genvec3">      0.00000000       0.00000000       0.33333333 </v>
    <v name="shift">      0.00000000       0.00000000       0.00000000 </v>
   </generation>
   <varray name="kpointlist" >
    <v>       0.00000000       0.00000000       0.00000000 </v>
    <v>       0.12500000       0.00000000       0.00000000 </v>
    <v>       0.25000000       0.00000000       0.00000000 </v>
    <v>       0.37500000       0.00000000       0.00000000 </v>
    <v>       0.50000000       0.00000000       0.00000000 </v>
    <v>       0.00000000       0.11111111       0.00000000 </v>
    <v>       0.12500000       0.11111111       0.00000000 </v>
    <v>       0.25000000       0.11111111       0.00000000 </v>
    <v>       0.37500000       0.11111111       0.00000000 </v>
    <v>       0.50000000       0.11111111       0.00000000 </v>
    <v>       0.00000000       0.22222222       0.00000000 </v>
    <v>       0.12500000       0.22222222       0.00000000 </v>
    <v>       0.25000000       0.22222222       0.00000000 </v>
    <v>       0.37500000       0.22222222       0.00000000 </v>
    <v>       0.50000000       0.22222222       0.00000000 </v>
    <v>       0.00000000       0.33333333       0.00000000 </v>
    <v>       0.12500000       0.33333333       0.00000000 </v>
    <v>       0.25000000       0.33333333       0.00000000 </v>
    <v>       0.37500000       0.33333333       0.00000000 </v>
    <v>       0.50000000       0.33333333       0.00000000 </v>
    <v>       0.00000000       0.44444444       0.00000000 </v>
    <v>       0.12500000       0.44444444       0.00000000 </v>
    <v>       0.25000000       0.44444444       0.00000000 </v>
    <v>       0.37500000       0.44444444       0.00000000 </v>
    <v>       0.50000000       0.44444444       0.00000000 </v>
    <v>       0.00000000       0.00000000       0.33333333 </v>
    <v>       0.12500000       0.00000000       0.33333333 </v>
    <v>       0.25000000       0.00000000       0.33333333 </v>
    <v>       0.37500000       0.00000000       0.33333333 </v>
    <v>       0.50000000       0.00000000       0.33333333 </v>
    <v>       0.00000000       0.11111111       0.33333333 </v>
    <v>       0.12500000       0.11111111       0.33333333 </v>
    <v>       0.25000000       0.11111111       0.33333333 </v>
    <v>       0.37500000       0.11111111       0.33333333 </v>
    <v>       0.50000000       0.11111111       0.33333333 </v>
    <v>       0.00000000       0.22222222       0.33333333 </v>
    <v>       0.12500000       0.22222222       0.33333333 </v>
    <v>       0.25000000       0.22222222       0.33333333 </v>
    <v>       0.37500000       0.22222222       0.33333333 </v>
    <v>       0.50000000       0.22222222       0.33333333 </v>
    <v>       0.00000000       0.33333333       0.33333333 </v>
    <v>       0.12500000       0.33333333       0.33333333 </v>
    <v>       0.25000000       0.33333333       0.33333333 </v>
    <v>       0.37500000       0.33333333       0.33333333 </v>
    <v>       0.50000000       0.33333333       0.33333333 </v>
    <v>       0.00000000       0.44444444       0.33333333 </v>
    <v>       0.12500000       0.44444444       0.33333333 </v>
    <v>       0.25000000       0.44444444       0.33333333 </v>
    <v>       0.37500000       0.44444444       0.33333333 </v>
    <v>       0.50000000       0.44444444       0.33333333 </v>
   </varray>
   <varray name="weights" >
    <v>       0.00462963 </v>
    <v>       0.00925926 </v>
    <v>       0.00925926 </v>
    <v>       0.00925926 </v>
    <v>       0.00462963 </v>
    <v>       0.00925926 </v>
    <v>       0.01851852 </v>
    <v>       0.01851852 </v>
    <v>       0.01851852 </v>
    <v>       0.00925926 </v>
    <v>       0.00925926 </v>
    <v>       0.01851852 </v>
    <v>       0.01851852 </v>
    <v>       0.01851852 </v>
    <v>       0.00925926 </v>
    <v>       0.00925926 </v>
    <v>       0.01851852 </v>
    <v>       0.01851852 </v>
    <v>       0.01851852 </v>
    <v>       0.00925926 </v>
    <v>       0.00925926 </v>
    <v>       0.01851852 </v>
    <v>       0.01851852 </v>
    <v>       0.01851852 </v>
    <v>       0.00925926 </v>
    <v>       0.00925926 </v>
    <v>       0.01851852 </v>
    <v>       0.01851852 </v>
    <v>       0.01851852 </v>
    <v>       0.00925926 </v>
    <v>       0.01851852 </v>
    <v>       0.03703704 </v>
    <v>       0.03703704 </v>
    <v>       0.03703704 </v>
    <v>       0.01851852 </v>
    <v>       0.01851852 </v>
    <v>       0.03703704 </v>
    <v>       0.03703704 </v>
    <v>       0.03703704 </v>
    <v>       0.01851852 </v>
    <v>       0.01851852 </v>
    <v>       0.03703704 </v>
    <v>       0.03703704 </v>
    <v>       0.03703704 </v>
    <v>       0.01851852 </v>
    <v>       0.01851852 </v>
    <v>       0.03703704 </v>
    <v>       0.03703704 </v>
    <v>       0.03703704 </v>
    <v>       0.01851852 </v>
   </varray>
  </kpoints>
  <scstep>
   <time name="total">    1.57    1.07</time>
   <energy>
    <i name="e_fr_energy">     -2.25105052 </i>
    <i name="e_wo_entrp">     -2.25105052 </i>
    <i name="e_0_energy">     -2.25105052 </i>
   </energy>
  </scstep>
  <scstep>
   <time name="total">    2.24    1.36</time>
   <energy>
    <i name="e_fr_energy">    -13.85229821 </i>
    <i name="e_wo_entrp">    -13.85229821 </i>
    <i name="e_0_energy">    -13.85229821 </i>
   </energy>
  </scstep>
  <scstep>
   <time name="total">    2.13    1.38</time>
   <energy>
    <i name="e_fr_energy">    -13.32276299 </i>
    <i name="e_wo_entrp">    -13.32276299 </i>
    <i name="e_0_energy">    -13.32276299 </i>
   </energy>
  </scstep>
  <scstep>
   <time name="total">    2.12    1.37</time>
   <energy>
    <i name="e_fr_energy">    -13.48649502 </i>
    <i name="e_wo_entrp">    -13.48649502 </i>
    <i name="e_0_energy">    -13.48649502 </i>
   </energy>
  </scstep>
  <scstep>
   <time name="total">    2.13    1.38</time>
   <energy>
    <i name="e_fr_energy">    -13.69049207 </i>
    <i name="e_wo_entrp">    -13.69049207 </i>
    <i name="e_0_energy">    -13.69049207 </i>
   </energy>
  </scstep>
  <scstep>
   <time name="total">    2.20    1.38</time>
   <energy>
    <i name="e_fr_energy">    -13.74787257 </i>
    <i name="e_wo_entrp">    -13.74787257 </i>
    <i name="e_0_energy">    -13.74787257 </i>
   </energy>
  </scstep>
  <scstep>
   <time name="total">    2.24    1.40</time>
   <energy>
    <i name="e_fr_energy">    -13.75607495 </i>
    <i name="e_wo_entrp">    -13.75607495 </i>
    <i name="e_0_energy">    -13.75607495 </i>
   </energy>
  </scstep>
  <scstep>
   <time name="total">    2.20    1.38</time>
   <energy>
    <i name="e_fr_energy">    -13.75397200 </i>
    <i name="e_wo_entrp">    -13.75397200 </i>
    <i name="e_0_energy">    -13.75397200 </i>
   </energy>
  </scstep>
  <scstep>
   <time name="total">    2.28    1.42</time>
   <energy>
    <i name="e_fr_energy">    -13.76277451 </i>
    <i name="e_wo_entrp">    -13.76277451 </i>
    <i name="e_0_energy">    -13.76277451 </i>
   </energy>
  </scstep>
  <scstep>
   <time name="total">    2.23    1.39</time>
   <energy>
    <i name="e_fr_energy">    -13.75477992 </i>
    <i name="e_wo_entrp">    -13.75477992 </i>
    <i name="e_0_energy">    -13.75477992 </i>
   </energy>
  </scstep>
  <scstep>
   <time name="total">    2.22    1.39</time>
   <energy>
    <i name="e_fr_energy">    -13.76042829 </i>
    <i name="e_wo_entrp">    -13.76042829 </i>
    <i name="e_0_energy">    -13.76042829 </i>
   </energy>
  </scstep>
  <scstep>
   <time name="total">    2.22    1.39</time>
   <energy>
    <i name="e_fr_energy">    -13.75984744 </i>
    <i name="e_wo_entrp">    -13.75984744 </i>
    <i name="e_0_energy">    -13.75984744 </i>
   </energy>
  </scstep>
  <scstep>
   <time name="total">    2.23    1.39</time>
   <energy>
    <i name="e_fr_energy">    -13.76121989 </i>
    <i name="e_wo_entrp">    -13.76121989 </i>
    <i name="e_0_energy">    -13.76121989 </i>
   </energy>
  </scstep>
  <scstep>
   <time name="total">    2.15    1.36</time>
   <energy>
    <i name="e_fr_energy">    -13.75983102 </i>
    <i name="e_wo_entrp">    -13.75983102 </i>
    <i name="e_0_energy">    -13.75983102 </i>
   </energy>
  </scstep>
  <scstep>
   <time name="total">    2.14    1.35</time>
   <energy>
    <i name="e_fr_energy">    -13.75760088 </i>
    <i name="e_wo_entrp">    -13.75760088 </i>
    <i name="e_0_energy">    -13.75760088 </i>
   </energy>
  </scstep>
  <scstep>
   <time name="total">    2.13    1.34</time>
   <energy>
    <i name="e_fr_energy">    -13.76364341 </i>
    <i name="e_wo_entrp">    -13.76364341 </i>
    <i name="e_0_energy">    -13.76364341 </i>
   </energy>
  </scstep>
  <scstep>
   <time name="total">    2.13    1.34</time>
   <energy>
    <i name="e_fr_energy">    -13.76027947 </i>
    <i name="e_wo_entrp">    -13.76027947 </i>
    <i name="e_0_energy">    -13.76027947 </i>
   </energy>
  </scstep>
  <scstep>
   <time name="total">    2.11    1.33</time>
   <energy>
    <i name="e_fr_energy">    -13.76088637 </i>
    <i name="e_wo_entrp">    -13.76088637 </i>
    <i name="e_0_energy">    -13.76088637 </i>
   </energy>
  </scstep>
  <scstep>
   <time name="total">    2.10    1.33</time>
   <energy>
    <i name="e_fr_energy">    -13.76042216 </i>
    <i name="e_wo_entrp">    -13.76042216 </i>
    <i name="e_0_energy">    -13.76042216 </i>
   </energy>
  </scstep>
  <scstep>
   <time name="total">    2.09    1.32</time>
   <energy>
    <i name="e_fr_energy">    -13.76038619 </i>
    <i name="e_wo_entrp">    -13.76038619 </i>
    <i name="e_0_energy">    -13.76038619 </i>
   </energy>
  </scstep>
  <kpoints>
   <generation param="Gamma">
    <v type="int" name="divisions">       8        9        3 </v>
    <v name="usershift">      0.00000000       0.00000000       0.00000000 </v>
    <v name="genvec1">      0.12500000       0.00000000       0.00000000 </v>
    <v name="genvec2">      0.00000000       0.11111111       0.00000000 </v>
    <v name="genvec3">      0.00000000       0.00000000       0.33333333 </v>
    <v name="shift">      0.00000000       0.00000000       0.00000000 </v>
   </generation>
   <varray name="kpointlist" >
    <v>       0.00000000       0.00000000       0.00000000 </v>
    <v>       0.12500000       0.00000000       0.00000000 </v>
    <v>       0.25000000       0.00000000       0.00000000 </v>
    <v>       0.37500000       0.00000000       0.00000000 </v>
    <v>       0.50000000       0.00000000       0.00000000 </v>
    <v>       0.00000000       0.11111111       0.00000000 </v>
    <v>       0.12500000       0.11111111       0.00000000 </v>
    <v>       0.25000000       0.11111111       0.00000000 </v>
    <v>       0.37500000       0.11111111       0.00000000 </v>
    <v>       0.50000000       0.11111111       0.00000000 </v>
    <v>       0.00000000       0.22222222       0.00000000 </v>
    <v>       0.12500000       0.22222222       0.00000000 </v>
    <v>       0.25000000       0.22222222       0.00000000 </v>
    <v>       0.37500000       0.22222222       0.00000000 </v>
    <v>       0.50000000       0.22222222       0.00000000 </v>
    <v>       0.00000000       0.33333333       0.00000000 </v>
    <v>       0.12500000       0.33333333       0.00000000 </v>
    <v>       0.25000000       0.33333333       0.00000000 </v>
    <v>       0.37500000       0.33333333       0.00000000 </v>
    <v>       0.50000000       0.33333333       0.00000000 </v>
    <v>       0.00000000       0.44444444       0.00000000 </v>
    <v>       0.12500000       0.44444444       0.00000000 </v>
    <v>       0.25000000       0.44444444       0.00000000 </v>
    <v>       0.37500000       0.44444444       0.00000000 </v>
    <v>       0.50000000       0.44444444       0.00000000 </v>
    <v>       0.00000000       0.00000000       0.33333333 </v>
    <v>       0.12500000       0.00000000       0.33333333 </v>
    <v>       0.25000000       0.00000000       0.33333333 </v>
    <v>       0.37500000       0.00000000       0.33333333 </v>
    <v>       0.50000000       0.00000000       0.33333333 </v>
    <v>       0.00000000       0.11111111       0.33333333 </v>
    <v>       0.12500000       0.11111111       0.33333333 </v>
    <v>       0.25000000       0.11111111       0.33333333 </v>
    <v>       0.37500000       0.11111111       0.33333333 </v>
    <v>       0.50000000       0.11111111       0.33333333 </v>
    <v>       0.00000000       0.22222222       0.33333333 </v>
    <v>       0.12500000       0.22222222       0.33333333 </v>
    <v>       0.25000000       0.22222222       0.33333333 </v>
    <v>       0.37500000       0.22222222       0.33333333 </v>
    <v>       0.50000000       0.22222222       0.33333333 </v>
    <v>       0.00000000       0.33333333       0.33333333 </v>
    <v>       0.12500000       0.33333333       0.33333333 </v>
    <v>       0.25000000       0.33333333       0.33333333 </v>
    <v>       0.37500000       0.33333333       0.33333333 </v>
    <v>       0.50000000       0.33333333       0.33333333 </v>
    <v>       0.00000000       0.44444444       0.33333333 </v>
    <v>       0.12500000       0.44444444       0.33333333 </v>
    <v>       0.25000000       0.44444444       0.33333333 </v>
    <v>       0.37500000       0.44444444       0.33333333 </v>
    <v>       0.50000000       0.44444444       0.33333333 </v>
   </varray>
   <varray name="weights" >
    <v>       0.00462963 </v>
    <v>       0.00925926 </v>
    <v>       0.00925926 </v>
    <v>       0.00925926 </v>
    <v>       0.00462963 </v>
    <v>       0.00925926 </v>
    <v>       0.01851852 </v>
    <v>       0.01851852 </v>
    <v>       0.01851852 </v>
    <v>       0.00925926 </v>
    <v>       0.00925926 </v>
    <v>       0.01851852 </v>
    <v>       0.01851852 </v>
    <v>       0.01851852 </v>
    <v>       0.00925926 </v>
    <v>       0.00925926 </v>
    <v>       0.01851852 </v>
    <v>       0.01851852 </v>
    <v>       0.01851852 </v>
    <v>       0.00925926 </v>
    <v>       0.00925926 </v>
    <v>       0.01851852 </v>
    <v>       0.01851852 </v>
    <v>       0.01851852 </v>
    <v>       0.00925926 </v>
    <v>       0.00925926 </v>
    <v>       0.01851852 </v>
    <v>       0.01851852 </v>
    <v>       0.01851852 </v>
    <v>       0.00925926 </v>
    <v>       0.01851852 </v>
    <v>       0.03703704 </v>
    <v>       0.03703704 </v>
    <v>       0.03703704 </v>
    <v>       0.01851852 </v>
    <v>       0.01851852 </v>
    <v>       0.03703704 </v>
    <v>       0.03703704 </v>
    <v>       0.03703704 </v>
    <v>       0.01851852 </v>
    <v>       0.01851852 </v>
    <v>       0.03703704 </v>
    <v>       0.03703704 </v>
    <v>       0.03703704 </v>
    <v>       0.01851852 </v>
    <v>       0.01851852 </v>
    <v>       0.03703704 </v>
    <v>       0.03703704 </v>
    <v>       0.03703704 </v>
    <v>       0.01851852 </v>
   </varray>
  </kpoints>
  <scstep>
   <time name="total">    1.55    1.05</time>
   <energy>
    <i name="e_fr_energy">     -3.84719448 </i>
    <i name="e_wo_entrp">     -3.84719448 </i>
    <i name="e_0_energy">     -3.84719448 </i>
   </energy>
  </scstep>
  <scstep>
   <time name="total">    2.22    1.35</time>
   <energy>
    <i name="e_fr_energy">    -16.75324105 </i>
    <i name="e_wo_entrp">    -16.75324105 </i>
    <i name="e_0_energy">    -16.75324105 </i>
   </energy>
  </scstep>
  <scstep>
   <time name="total">    2.08    1.32</time>
   <energy>
    <i name="e_fr_energy">    -16.46739431 </i>
    <i name="e_wo_entrp">    -16.46739431 </i>
    <i name="e_0_energy">    -16.46739431 </i>
   </energy>
  </scstep>
  <scstep>
   <time name="total">    2.10    1.32</time>
   <energy>
    <i name="e_fr_energy">    -16.87829819 </i>
    <i name="e_wo_entrp">    -16.87829819 </i>
    <i name="e_0_energy">    -16.87829819 </i>
   </energy>
  </scstep>
  <scstep>
   <time name="total">    2.13    1.35</time>
   <energy>
    <i name="e_fr_energy">    -16.98957779 </i>
    <i name="e_wo_entrp">    -16.98957779 </i>
    <i name="e_0_energy">    -16.98957779 </i>
   </energy>
  </scstep>
  <scstep>
   <time name="total">    2.21    1.37</time>
   <energy>
    <i name="e_fr_energy">    -17.00867844 </i>
    <i name="e_wo_entrp">    -17.00867844 </i>
    <i name="e_0_energy">    -17.00867844 </i>
   </energy>
  </scstep>
  <scstep>
   <time name="total">    2.17    1.35</time>
   <energy>
    <i name="e_fr_energy">    -17.00651294 </i>
    <i name="e_wo_entrp">    -17.00651294 </i>
    <i name="e_0_energy">    -17.00651294 </i>
   </energy>
  </scstep>
  <scstep>
   <time name="total">    2.28    1.41</time>
   <energy>
    <i name="e_fr_energy">    -17.01030634 </i>
    <i name="e_wo_entrp">    -17.01030634 </i>
    <i name="e_0_energy">    -17.01030634 </i>
   </energy>
  </scstep>
  <scstep>
   <time name="total">    2.24    1.39</time>
   <energy>
    <i name="e_fr_energy">    -17.00909579 </i>
    <i name="e_wo_entrp">    -17.00909579 </i>
    <i name="e_0_energy">    -17.00909579 </i>
   </energy>
  </scstep>
  <scstep>
   <time name="total">    2.23    1.38</time>
   <energy>
    <i name="e_fr_energy">    -17.01096860 </i>
    <i name="e_wo_entrp">    -17.01096860 </i>
    <i name="e_0_energy">    -17.01096860 </i>
   </energy>
  </scstep>
  <scstep>
   <time name="total">    2.25    1.39</time>
   <energy>
    <i name="e_fr_energy">    -17.00859132 </i>
    <i name="e_wo_entrp">    -17.00859132 </i>
    <i name="e_0_energy">    -17.00859132 </i>
   </energy>
  </scstep>
  <scstep>
   <time name="total">    2.24    1.39</time>
   <energy>
    <i name="e_fr_energy">    -17.00976989 </i>
    <i name="e_wo_entrp">    -17.00976989 </i>
    <i name="e_0_energy">    -17.00976989 </i>
   </energy>
  </scstep>
  <scstep>
   <time name="total">    2.20    1.37</time>
   <energy>
    <i name="e_fr_energy">    -17.01105220 </i>
    <i name="e_wo_entrp">    -17.01105220 </i>
    <i name="e_0_energy">    -17.01105220 </i>
   </energy>
  </scstep>
  <scstep>
   <time name="total">    2.16    1.35</time>
   <energy>
    <i name="e_fr_energy">    -17.01005796 </i>
    <i name="e_wo_entrp">    -17.01005796 </i>
    <i name="e_0_energy">    -17.01005796 </i>
   </energy>
  </scstep>
  <scstep>
   <time name="total">    2.08    1.31</time>
   <energy>
    <i name="e_fr_energy">    -17.00990268 </i>
    <i name="e_wo_entrp">    -17.00990268 </i>
    <i name="e_0_energy">    -17.00990268 </i>
   </energy>
  </scstep>
  <scstep>
   <time name="total">    2.11    1.33</time>
   <energy>
    <i name="e_fr_energy">    -17.01008821 </i>
    <i name="e_wo_entrp">    -17.01008821 </i>
    <i name="e_0_energy">    -17.01008821 </i>
   </energy>
  </scstep>
  <scstep>
   <time name="total">    2.11    1.32</time>
   <energy>
    <i name="e_fr_energy">    -17.00978882 </i>
    <i name="e_wo_entrp">    -17.00978882 </i>
    <i name="e_0_energy">    -17.00978882 </i>
   </energy>
  </scstep>
  <scstep>
   <time name="total">    2.11    1.33</time>
   <energy>
    <i name="e_fr_energy">    -17.01001518 </i>
    <i name="e_wo_entrp">    -17.01001518 </i>
    <i name="e_0_energy">    -17.01001518 </i>
   </energy>
  </scstep>
  <scstep>
   <time name="total">    2.11    1.33</time>
   <energy>
    <i name="e_fr_energy">    -17.01001727 </i>
    <i name="e_wo_entrp">    -17.01001727 </i>
    <i name="e_0_energy">    -17.01001727 </i>
   </energy>
  </scstep>
  <scstep>
   <time name="total">    2.09    1.32</time>
   <energy>
    <i name="e_fr_energy">    -17.01105326 </i>
    <i name="e_wo_entrp">    -17.01105326 </i>
    <i name="e_0_energy">    -17.01105326 </i>
   </energy>
  </scstep>
  <scstep>
   <time name="total">    2.09    1.31</time>
   <energy>
    <i name="e_fr_energy">    -17.01038825 </i>
    <i name="e_wo_entrp">    -17.01038825 </i>
    <i name="e_0_energy">    -17.01038825 </i>
   </energy>
  </scstep>
  <scstep>
   <time name="total">    2.11    1.32</time>
   <energy>
    <i name="e_fr_energy">    -17.01039023 </i>
    <i name="e_wo_entrp">    -17.01039023 </i>
    <i name="e_0_energy">    -17.01039023 </i>
   </energy>
  </scstep>
  <scstep>
   <time name="total">    2.12    1.33</time>
   <energy>
    <i name="e_fr_energy">    -17.00994646 </i>
    <i name="e_wo_entrp">    -17.00994646 </i>
    <i name="e_0_energy">    -17.00994646 </i>
   </energy>
  </scstep>
  <scstep>
   <time name="total">    2.11    1.33</time>
   <energy>
    <i name="e_fr_energy">    -17.01109748 </i>
    <i name="e_wo_entrp">    -17.01109748 </i>
    <i name="e_0_energy">    -17.01109748 </i>
   </energy>
  </scstep>
  <scstep>
   <time name="total">    2.11    1.33</time>
   <energy>
    <i name="e_fr_energy">    -17.01104799 </i>
    <i name="e_wo_entrp">    -17.01104799 </i>
    <i name="e_0_energy">    -17.01104799 </i>
   </energy>
  </scstep>
  <scstep>
   <time name="total">    2.11    1.32</time>
   <energy>
    <i name="e_fr_energy">    -17.01053987 </i>
    <i name="e_wo_entrp">    -17.01053987 </i>
    <i name="e_0_energy">    -17.01053987 </i>
   </energy>
  </scstep>
  <scstep>
   <time name="total">    2.12    1.33</time>
   <energy>
    <i name="e_fr_energy">    -17.01028133 </i>
    <i name="e_wo_entrp">    -17.01028133 </i>
    <i name="e_0_energy">    -17.01028133 </i>
   </energy>
  </scstep>
  <scstep>
   <time name="total">    2.11    1.33</time>
   <energy>
    <i name="e_fr_energy">    -17.01101632 </i>
    <i name="e_wo_entrp">    -17.01101632 </i>
    <i name="e_0_energy">    -17.01101632 </i>
   </energy>
  </scstep>
  <scstep>
   <time name="total">    2.14    1.34</time>
   <energy>
    <i name="e_fr_energy">    -17.01059478 </i>
    <i name="e_wo_entrp">    -17.01059478 </i>
    <i name="e_0_energy">    -17.01059478 </i>
   </energy>
  </scstep>
  <scstep>
   <time name="total">    2.12    1.33</time>
   <energy>
    <i name="e_fr_energy">    -17.01011938 </i>
    <i name="e_wo_entrp">    -17.01011938 </i>
    <i name="e_0_energy">    -17.01011938 </i>
   </energy>
  </scstep>
  <scstep>
   <time name="total">    2.14    1.35</time>
   <energy>
    <i name="e_fr_energy">    -17.00993867 </i>
    <i name="e_wo_entrp">    -17.00993867 </i>
    <i name="e_0_energy">    -17.00993867 </i>
   </energy>
  </scstep>
  <scstep>
   <time name="total">    2.12    1.33</time>
   <energy>
    <i name="e_fr_energy">    -17.01031319 </i>
    <i name="e_wo_entrp">    -17.01031319 </i>
    <i name="e_0_energy">    -17.01031319 </i>
   </energy>
  </scstep>
  <scstep>
   <time name="total">    2.14    1.34</time>
   <energy>
    <i name="e_fr_energy">    -17.01034556 </i>
    <i name="e_wo_entrp">    -17.01034556 </i>
    <i name="e_0_energy">    -17.01034556 </i>
   </energy>
  </scstep>
  <scstep>
   <time name="total">    2.16    1.35</time>
   <energy>
    <i name="e_fr_energy">    -17.01005466 </i>
    <i name="e_wo_entrp">    -17.01005466 </i>
    <i name="e_0_energy">    -17.01005466 </i>
   </energy>
  </scstep>
  <scstep>
   <time name="total">    2.15    1.35</time>
   <energy>
    <i name="e_fr_energy">    -17.01062119 </i>
    <i name="e_wo_entrp">    -17.01062119 </i>
    <i name="e_0_energy">    -17.01062119 </i>
   </energy>
  </scstep>
  <scstep>
   <time name="total">    2.13    1.34</time>
   <energy>
    <i name="e_fr_energy">    -17.01089886 </i>
    <i name="e_wo_entrp">    -17.01089886 </i>
    <i name="e_0_energy">    -17.01089886 </i>
   </energy>
  </scstep>
  <scstep>
   <time name="total">    2.17    1.36</time>
   <energy>
    <i name="e_fr_energy">    -17.01062388 </i>
    <i name="e_wo_entrp">    -17.01062388 </i>
    <i name="e_0_energy">    -17.01062388 </i>
   </energy>
  </scstep>
  <scstep>
   <time name="total">    2.15    1.35</time>
   <energy>
    <i name="e_fr_energy">    -17.01044041 </i>
    <i name="e_wo_entrp">    -17.01044041 </i>
    <i name="e_0_energy">    -17.01044041 </i>
   </energy>
  </scstep>
  <scstep>
   <time name="total">    2.17    1.36</time>
   <energy>
    <i name="e_fr_energy">    -17.01111807 </i>
    <i name="e_wo_entrp">    -17.01111807 </i>
    <i name="e_0_energy">    -17.01111807 </i>
   </energy>
  </scstep>
  <scstep>
   <time name="total">    2.14    1.34</time>
   <energy>
    <i name="e_fr_energy">    -17.00983731 </i>
    <i name="e_wo_entrp">    -17.00983731 </i>
    <i name="e_0_energy">    -17.00983731 </i>
   </energy>
  </scstep>
  <scstep>
   <time name="total">    2.15    1.35</time>
   <energy>
    <i name="e_fr_energy">    -17.01055086 </i>
    <i name="e_wo_entrp">    -17.01055086 </i>
    <i name="e_0_energy">    -17.01055086 </i>
   </energy>
  </scstep>
  <scstep>
   <time name="total">    2.16    1.35</time>
   <energy>
    <i name="e_fr_energy">    -17.00962067 </i>
    <i name="e_wo_entrp">    -17.00962067 </i>
    <i name="e_0_energy">    -17.00962067 </i>
   </energy>
  </scstep>
  <scstep>
   <time name="total">    2.15    1.35</time>
   <energy>
    <i name="e_fr_energy">    -17.01094937 </i>
    <i name="e_wo_entrp">    -17.01094937 </i>
    <i name="e_0_energy">    -17.01094937 </i>
   </energy>
  </scstep>
  <scstep>
   <time name="total">    2.15    1.35</time>
   <energy>
    <i name="e_fr_energy">    -17.01137704 </i>
    <i name="e_wo_entrp">    -17.01137704 </i>
    <i name="e_0_energy">    -17.01137704 </i>
   </energy>
  </scstep>
  <scstep>
   <time name="total">    2.17    1.36</time>
   <energy>
    <i name="e_fr_energy">    -17.00954515 </i>
    <i name="e_wo_entrp">    -17.00954515 </i>
    <i name="e_0_energy">    -17.00954515 </i>
   </energy>
  </scstep>
  <scstep>
   <time name="total">    2.15    1.35</time>
   <energy>
    <i name="e_fr_energy">    -17.00928438 </i>
    <i name="e_wo_entrp">    -17.00928438 </i>
    <i name="e_0_energy">    -17.00928438 </i>
   </energy>
  </scstep>
  <scstep>
   <time name="total">    2.15    1.35</time>
   <energy>
    <i name="e_fr_energy">    -17.01078032 </i>
    <i name="e_wo_entrp">    -17.01078032 </i>
    <i name="e_0_energy">    -17.01078032 </i>
   </energy>
  </scstep>
  <scstep>
   <time name="total">    2.16    1.35</time>
   <energy>
    <i name="e_fr_energy">    -17.00986538 </i>
    <i name="e_wo_entrp">    -17.00986538 </i>
    <i name="e_0_energy">    -17.00986538 </i>
   </energy>
  </scstep>
  <scstep>
   <time name="total">    2.14    1.35</time>
   <energy>
    <i name="e_fr_energy">    -17.01031457 </i>
    <i name="e_wo_entrp">    -17.01031457 </i>
    <i name="e_0_energy">    -17.01031457 </i>
   </energy>
  </scstep>
  <scstep>
   <time name="total">    2.15    1.35</time>
   <energy>
    <i name="e_fr_energy">    -17.01028440 </i>
    <i name="e_wo_entrp">    -17.01028440 </i>
    <i name="e_0_energy">    -17.01028440 </i>
   </energy>
  </scstep>
  <scstep>
   <time name="total">    2.16    1.35</time>
   <energy>
    <i name="e_fr_energy">    -17.01039599 </i>
    <i name="e_wo_entrp">    -17.01039599 </i>
    <i name="e_0_energy">    -17.01039599 </i>
   </energy>
  </scstep>
  <scstep>
   <time name="total">    2.15    1.35</time>
   <energy>
    <i name="e_fr_energy">    -17.01048144 </i>
    <i name="e_wo_entrp">    -17.01048144 </i>
    <i name="e_0_energy">    -17.01048144 </i>
   </energy>
  </scstep>
  <scstep>
   <time name="total">    2.15    1.35</time>
   <energy>
    <i name="e_fr_energy">    -17.01135197 </i>
    <i name="e_wo_entrp">    -17.01135197 </i>
    <i name="e_0_energy">    -17.01135197 </i>
   </energy>
  </scstep>
  <scstep>
   <time name="total">    2.17    1.36</time>
   <energy>
    <i name="e_fr_energy">    -17.01048193 </i>
    <i name="e_wo_entrp">    -17.01048193 </i>
    <i name="e_0_energy">    -17.01048193 </i>
   </energy>
  </scstep>
  <scstep>
   <time name="total">    2.16    1.35</time>
   <energy>
    <i name="e_fr_energy">    -17.01011562 </i>
    <i name="e_wo_entrp">    -17.01011562 </i>
    <i name="e_0_energy">    -17.01011562 </i>
   </energy>
  </scstep>
  <kpoints>
   <generation param="Gamma">
    <v type="int" name="divisions">       8        9        3 </v>
    <v name="usershift">      0.00000000       0.00000000       0.00000000 </v>
    <v name="genvec1">      0.12500000       0.00000000       0.00000000 </v>
    <v name="genvec2">      0.00000000       0.11111111       0.00000000 </v>
    <v name="genvec3">      0.00000000       0.00000000       0.33333333 </v>
    <v name="shift">      0.00000000       0.00000000       0.00000000 </v>
   </generation>
   <varray name="kpointlist" >
    <v>       0.00000000       0.00000000       0.00000000 </v>
    <v>       0.12500000       0.00000000       0.00000000 </v>
    <v>       0.25000000       0.00000000       0.00000000 </v>
    <v>       0.37500000       0.00000000       0.00000000 </v>
    <v>       0.50000000       0.00000000       0.00000000 </v>
    <v>       0.00000000       0.11111111       0.00000000 </v>
    <v>       0.12500000       0.11111111       0.00000000 </v>
    <v>       0.25000000       0.11111111       0.00000000 </v>
    <v>       0.37500000       0.11111111       0.00000000 </v>
    <v>       0.50000000       0.11111111       0.00000000 </v>
    <v>       0.00000000       0.22222222       0.00000000 </v>
    <v>       0.12500000       0.22222222       0.00000000 </v>
    <v>       0.25000000       0.22222222       0.00000000 </v>
    <v>       0.37500000       0.22222222       0.00000000 </v>
    <v>       0.50000000       0.22222222       0.00000000 </v>
    <v>       0.00000000       0.33333333       0.00000000 </v>
    <v>       0.12500000       0.33333333       0.00000000 </v>
    <v>       0.25000000       0.33333333       0.00000000 </v>
    <v>       0.37500000       0.33333333       0.00000000 </v>
    <v>       0.50000000       0.33333333       0.00000000 </v>
    <v>       0.00000000       0.44444444       0.00000000 </v>
    <v>       0.12500000       0.44444444       0.00000000 </v>
    <v>       0.25000000       0.44444444       0.00000000 </v>
    <v>       0.37500000       0.44444444       0.00000000 </v>
    <v>       0.50000000       0.44444444       0.00000000 </v>
    <v>       0.00000000       0.00000000       0.33333333 </v>
    <v>       0.12500000       0.00000000       0.33333333 </v>
    <v>       0.25000000       0.00000000       0.33333333 </v>
    <v>       0.37500000       0.00000000       0.33333333 </v>
    <v>       0.50000000       0.00000000       0.33333333 </v>
    <v>       0.00000000       0.11111111       0.33333333 </v>
    <v>       0.12500000       0.11111111       0.33333333 </v>
    <v>       0.25000000       0.11111111       0.33333333 </v>
    <v>       0.37500000       0.11111111       0.33333333 </v>
    <v>       0.50000000       0.11111111       0.33333333 </v>
    <v>       0.00000000       0.22222222       0.33333333 </v>
    <v>       0.12500000       0.22222222       0.33333333 </v>
    <v>       0.25000000       0.22222222       0.33333333 </v>
    <v>       0.37500000       0.22222222       0.33333333 </v>
    <v>       0.50000000       0.22222222       0.33333333 </v>
    <v>       0.00000000       0.33333333       0.33333333 </v>
    <v>       0.12500000       0.33333333       0.33333333 </v>
    <v>       0.25000000       0.33333333       0.33333333 </v>
    <v>       0.37500000       0.33333333       0.33333333 </v>
    <v>       0.50000000       0.33333333       0.33333333 </v>
    <v>       0.00000000       0.44444444       0.33333333 </v>
    <v>       0.12500000       0.44444444       0.33333333 </v>
    <v>       0.25000000       0.44444444       0.33333333 </v>
    <v>       0.37500000       0.44444444       0.33333333 </v>
    <v>       0.50000000       0.44444444       0.33333333 </v>
   </varray>
   <varray name="weights" >
    <v>       0.00462963 </v>
    <v>       0.00925926 </v>
    <v>       0.00925926 </v>
    <v>       0.00925926 </v>
    <v>       0.00462963 </v>
    <v>       0.00925926 </v>
    <v>       0.01851852 </v>
    <v>       0.01851852 </v>
    <v>       0.01851852 </v>
    <v>       0.00925926 </v>
    <v>       0.00925926 </v>
    <v>       0.01851852 </v>
    <v>       0.01851852 </v>
    <v>       0.01851852 </v>
    <v>       0.00925926 </v>
    <v>       0.00925926 </v>
    <v>       0.01851852 </v>
    <v>       0.01851852 </v>
    <v>       0.01851852 </v>
    <v>       0.00925926 </v>
    <v>       0.00925926 </v>
    <v>       0.01851852 </v>
    <v>       0.01851852 </v>
    <v>       0.01851852 </v>
    <v>       0.00925926 </v>
    <v>       0.00925926 </v>
    <v>       0.01851852 </v>
    <v>       0.01851852 </v>
    <v>       0.01851852 </v>
    <v>       0.00925926 </v>
    <v>       0.01851852 </v>
    <v>       0.03703704 </v>
    <v>       0.03703704 </v>
    <v>       0.03703704 </v>
    <v>       0.01851852 </v>
    <v>       0.01851852 </v>
    <v>       0.03703704 </v>
    <v>       0.03703704 </v>
    <v>       0.03703704 </v>
    <v>       0.01851852 </v>
    <v>       0.01851852 </v>
    <v>       0.03703704 </v>
    <v>       0.03703704 </v>
    <v>       0.03703704 </v>
    <v>       0.01851852 </v>
    <v>       0.01851852 </v>
    <v>       0.03703704 </v>
    <v>       0.03703704 </v>
    <v>       0.03703704 </v>
    <v>       0.01851852 </v>
   </varray>
  </kpoints>
  <scstep>
   <time name="total">    1.54    1.05</time>
   <energy>
    <i name="e_fr_energy">     -4.16836992 </i>
    <i name="e_wo_entrp">     -4.16836992 </i>
    <i name="e_0_energy">     -4.16836992 </i>
   </energy>
  </scstep>
  <scstep>
   <time name="total">    2.23    1.35</time>
   <energy>
    <i name="e_fr_energy">    -15.62363362 </i>
    <i name="e_wo_entrp">    -15.62363362 </i>
    <i name="e_0_energy">    -15.62363362 </i>
   </energy>
  </scstep>
  <scstep>
   <time name="total">    2.13    1.35</time>
   <energy>
    <i name="e_fr_energy">    -15.21505014 </i>
    <i name="e_wo_entrp">    -15.21505014 </i>
    <i name="e_0_energy">    -15.21505014 </i>
   </energy>
  </scstep>
  <scstep>
   <time name="total">    2.15    1.36</time>
   <energy>
    <i name="e_fr_energy">    -15.40067007 </i>
    <i name="e_wo_entrp">    -15.40067007 </i>
    <i name="e_0_energy">    -15.40067007 </i>
   </energy>
  </scstep>
  <scstep>
   <time name="total">    2.12    1.34</time>
   <energy>
    <i name="e_fr_energy">    -15.54812864 </i>
    <i name="e_wo_entrp">    -15.54812864 </i>
    <i name="e_0_energy">    -15.54812864 </i>
   </energy>
  </scstep>
  <scstep>
   <time name="total">    2.17    1.36</time>
   <energy>
    <i name="e_fr_energy">    -15.62048368 </i>
    <i name="e_wo_entrp">    -15.62048368 </i>
    <i name="e_0_energy">    -15.62048368 </i>
   </energy>
  </scstep>
  <scstep>
   <time name="total">    2.23    1.39</time>
   <energy>
    <i name="e_fr_energy">    -15.61960397 </i>
    <i name="e_wo_entrp">    -15.61960397 </i>
    <i name="e_0_energy">    -15.61960397 </i>
   </energy>
  </scstep>
  <scstep>
   <time name="total">    2.17    1.36</time>
   <energy>
    <i name="e_fr_energy">    -15.62468585 </i>
    <i name="e_wo_entrp">    -15.62468585 </i>
    <i name="e_0_energy">    -15.62468585 </i>
   </energy>
  </scstep>
  <scstep>
   <time name="total">    2.24    1.39</time>
   <energy>
    <i name="e_fr_energy">    -15.62191327 </i>
    <i name="e_wo_entrp">    -15.62191327 </i>
    <i name="e_0_energy">    -15.62191327 </i>
   </energy>
  </scstep>
  <scstep>
   <time name="total">    2.17    1.36</time>
   <energy>
    <i name="e_fr_energy">    -15.62207045 </i>
    <i name="e_wo_entrp">    -15.62207045 </i>
    <i name="e_0_energy">    -15.62207045 </i>
   </energy>
  </scstep>
  <scstep>
   <time name="total">    2.20    1.37</time>
   <energy>
    <i name="e_fr_energy">    -15.61931941 </i>
    <i name="e_wo_entrp">    -15.61931941 </i>
    <i name="e_0_energy">    -15.61931941 </i>
   </energy>
  </scstep>
  <scstep>
   <time name="total">    2.21    1.38</time>
   <energy>
    <i name="e_fr_energy">    -15.62404607 </i>
    <i name="e_wo_entrp">    -15.62404607 </i>
    <i name="e_0_energy">    -15.62404607 </i>
   </energy>
  </scstep>
  <scstep>
   <time name="total">    2.19    1.37</time>
   <energy>
    <i name="e_fr_energy">    -15.62149073 </i>
    <i name="e_wo_entrp">    -15.62149073 </i>
    <i name="e_0_energy">    -15.62149073 </i>
   </energy>
  </scstep>
  <scstep>
   <time name="total">    2.18    1.36</time>
   <energy>
    <i name="e_fr_energy">    -15.62529402 </i>
    <i name="e_wo_entrp">    -15.62529402 </i>
    <i name="e_0_energy">    -15.62529402 </i>
   </energy>
  </scstep>
  <scstep>
   <time name="total">    2.12    1.33</time>
   <energy>
    <i name="e_fr_energy">    -15.62085918 </i>
    <i name="e_wo_entrp">    -15.62085918 </i>
    <i name="e_0_energy">    -15.62085918 </i>
   </energy>
  </scstep>
  <scstep>
   <time name="total">    2.09    1.32</time>
   <energy>
    <i name="e_fr_energy">    -15.62153402 </i>
    <i name="e_wo_entrp">    -15.62153402 </i>
    <i name="e_0_energy">    -15.62153402 </i>
   </energy>
  </scstep>
  <scstep>
   <time name="total">    2.06    1.31</time>
   <energy>
    <i name="e_fr_energy">    -15.61877306 </i>
    <i name="e_wo_entrp">    -15.61877306 </i>
    <i name="e_0_energy">    -15.61877306 </i>
   </energy>
  </scstep>
  <scstep>
   <time name="total">    2.06    1.31</time>
   <energy>
    <i name="e_fr_energy">    -15.62304088 </i>
    <i name="e_wo_entrp">    -15.62304088 </i>
    <i name="e_0_energy">    -15.62304088 </i>
   </energy>
  </scstep>
  <scstep>
   <time name="total">    2.07    1.31</time>
   <energy>
    <i name="e_fr_energy">    -15.61912077 </i>
    <i name="e_wo_entrp">    -15.61912077 </i>
    <i name="e_0_energy">    -15.61912077 </i>
   </energy>
  </scstep>
  <scstep>
   <time name="total">    2.06    1.30</time>
   <energy>
    <i name="e_fr_energy">    -15.62023184 </i>
    <i name="e_wo_entrp">    -15.62023184 </i>
    <i name="e_0_energy">    -15.62023184 </i>
   </energy>
  </scstep>
  <scstep>
   <time name="total">    2.07    1.31</time>
   <energy>
    <i name="e_fr_energy">    -15.62023465 </i>
    <i name="e_wo_entrp">    -15.62023465 </i>
    <i name="e_0_energy">    -15.62023465 </i>
   </energy>
  </scstep>
  <scstep>
   <time name="total">    2.05    1.30</time>
   <energy>
    <i name="e_fr_energy">    -15.62043056 </i>
    <i name="e_wo_entrp">    -15.62043056 </i>
    <i name="e_0_energy">    -15.62043056 </i>
   </energy>
  </scstep>
  <scstep>
   <time name="total">    2.08    1.31</time>
   <energy>
    <i name="e_fr_energy">    -15.62281768 </i>
    <i name="e_wo_entrp">    -15.62281768 </i>
    <i name="e_0_energy">    -15.62281768 </i>
   </energy>
  </scstep>
  <scstep>
   <time name="total">    2.08    1.31</time>
   <energy>
    <i name="e_fr_energy">    -15.62298917 </i>
    <i name="e_wo_entrp">    -15.62298917 </i>
    <i name="e_0_energy">    -15.62298917 </i>
   </energy>
  </scstep>
  <scstep>
   <time name="total">    2.13    1.34</time>
   <energy>
    <i name="e_fr_energy">    -15.62251028 </i>
    <i name="e_wo_entrp">    -15.62251028 </i>
    <i name="e_0_energy">    -15.62251028 </i>
   </energy>
  </scstep>
  <scstep>
   <time name="total">    2.07    1.31</time>
   <energy>
    <i name="e_fr_energy">    -15.62036676 </i>
    <i name="e_wo_entrp">    -15.62036676 </i>
    <i name="e_0_energy">    -15.62036676 </i>
   </energy>
  </scstep>
  <scstep>
   <time name="total">    2.10    1.33</time>
   <energy>
    <i name="e_fr_energy">    -15.62294053 </i>
    <i name="e_wo_entrp">    -15.62294053 </i>
    <i name="e_0_energy">    -15.62294053 </i>
   </energy>
  </scstep>
  <kpoints>
   <generation param="Gamma">
    <v type="int" name="divisions">       8        9        3 </v>
    <v name="usershift">      0.00000000       0.00000000       0.00000000 </v>
    <v name="genvec1">      0.12500000       0.00000000       0.00000000 </v>
    <v name="genvec2">      0.00000000       0.11111111       0.00000000 </v>
    <v name="genvec3">      0.00000000       0.00000000       0.33333333 </v>
    <v name="shift">      0.00000000       0.00000000       0.00000000 </v>
   </generation>
   <varray name="kpointlist" >
    <v>       0.00000000       0.00000000       0.00000000 </v>
    <v>       0.12500000       0.00000000       0.00000000 </v>
    <v>       0.25000000       0.00000000       0.00000000 </v>
    <v>       0.37500000       0.00000000       0.00000000 </v>
    <v>       0.50000000       0.00000000       0.00000000 </v>
    <v>       0.00000000       0.11111111       0.00000000 </v>
    <v>       0.12500000       0.11111111       0.00000000 </v>
    <v>       0.25000000       0.11111111       0.00000000 </v>
    <v>       0.37500000       0.11111111       0.00000000 </v>
    <v>       0.50000000       0.11111111       0.00000000 </v>
    <v>       0.00000000       0.22222222       0.00000000 </v>
    <v>       0.12500000       0.22222222       0.00000000 </v>
    <v>       0.25000000       0.22222222       0.00000000 </v>
    <v>       0.37500000       0.22222222       0.00000000 </v>
    <v>       0.50000000       0.22222222       0.00000000 </v>
    <v>       0.00000000       0.33333333       0.00000000 </v>
    <v>       0.12500000       0.33333333       0.00000000 </v>
    <v>       0.25000000       0.33333333       0.00000000 </v>
    <v>       0.37500000       0.33333333       0.00000000 </v>
    <v>       0.50000000       0.33333333       0.00000000 </v>
    <v>       0.00000000       0.44444444       0.00000000 </v>
    <v>       0.12500000       0.44444444       0.00000000 </v>
    <v>       0.25000000       0.44444444       0.00000000 </v>
    <v>       0.37500000       0.44444444       0.00000000 </v>
    <v>       0.50000000       0.44444444       0.00000000 </v>
    <v>       0.00000000       0.00000000       0.33333333 </v>
    <v>       0.12500000       0.00000000       0.33333333 </v>
    <v>       0.25000000       0.00000000       0.33333333 </v>
    <v>       0.37500000       0.00000000       0.33333333 </v>
    <v>       0.50000000       0.00000000       0.33333333 </v>
    <v>       0.00000000       0.11111111       0.33333333 </v>
    <v>       0.12500000       0.11111111       0.33333333 </v>
    <v>       0.25000000       0.11111111       0.33333333 </v>
    <v>       0.37500000       0.11111111       0.33333333 </v>
    <v>       0.50000000       0.11111111       0.33333333 </v>
    <v>       0.00000000       0.22222222       0.33333333 </v>
    <v>       0.12500000       0.22222222       0.33333333 </v>
    <v>       0.25000000       0.22222222       0.33333333 </v>
    <v>       0.37500000       0.22222222       0.33333333 </v>
    <v>       0.50000000       0.22222222       0.33333333 </v>
    <v>       0.00000000       0.33333333       0.33333333 </v>
    <v>       0.12500000       0.33333333       0.33333333 </v>
    <v>       0.25000000       0.33333333       0.33333333 </v>
    <v>       0.37500000       0.33333333       0.33333333 </v>
    <v>       0.50000000       0.33333333       0.33333333 </v>
    <v>       0.00000000       0.44444444       0.33333333 </v>
    <v>       0.12500000       0.44444444       0.33333333 </v>
    <v>       0.25000000       0.44444444       0.33333333 </v>
    <v>       0.37500000       0.44444444       0.33333333 </v>
    <v>       0.50000000       0.44444444       0.33333333 </v>
   </varray>
   <varray name="weights" >
    <v>       0.00462963 </v>
    <v>       0.00925926 </v>
    <v>       0.00925926 </v>
    <v>       0.00925926 </v>
    <v>       0.00462963 </v>
    <v>       0.00925926 </v>
    <v>       0.01851852 </v>
    <v>       0.01851852 </v>
    <v>       0.01851852 </v>
    <v>       0.00925926 </v>
    <v>       0.00925926 </v>
    <v>       0.01851852 </v>
    <v>       0.01851852 </v>
    <v>       0.01851852 </v>
    <v>       0.00925926 </v>
    <v>       0.00925926 </v>
    <v>       0.01851852 </v>
    <v>       0.01851852 </v>
    <v>       0.01851852 </v>
    <v>       0.00925926 </v>
    <v>       0.00925926 </v>
    <v>       0.01851852 </v>
    <v>       0.01851852 </v>
    <v>       0.01851852 </v>
    <v>       0.00925926 </v>
    <v>       0.00925926 </v>
    <v>       0.01851852 </v>
    <v>       0.01851852 </v>
    <v>       0.01851852 </v>
    <v>       0.00925926 </v>
    <v>       0.01851852 </v>
    <v>       0.03703704 </v>
    <v>       0.03703704 </v>
    <v>       0.03703704 </v>
    <v>       0.01851852 </v>
    <v>       0.01851852 </v>
    <v>       0.03703704 </v>
    <v>       0.03703704 </v>
    <v>       0.03703704 </v>
    <v>       0.01851852 </v>
    <v>       0.01851852 </v>
    <v>       0.03703704 </v>
    <v>       0.03703704 </v>
    <v>       0.03703704 </v>
    <v>       0.01851852 </v>
    <v>       0.01851852 </v>
    <v>       0.03703704 </v>
    <v>       0.03703704 </v>
    <v>       0.03703704 </v>
    <v>       0.01851852 </v>
   </varray>
  </kpoints>
  <varray name="dielectric_dft" >
   <v>      24.33950442       0.00000000       0.00000000 </v>
   <v>       0.00000000      29.75808233       0.00000000 </v>
   <v>       0.00000000       0.00000000      27.74812552 </v>
  </varray>
  <varray name="epsilon" >
   <v>      24.33950442       0.00000000       0.00000000 </v>
   <v>       0.00000000      29.75808233       0.00000000 </v>
   <v>       0.00000000       0.00000000      27.74812552 </v>
  </varray>
  <kpoints>
   <generation param="Gamma">
    <v type="int" name="divisions">       8        9        3 </v>
    <v name="usershift">      0.00000000       0.00000000       0.00000000 </v>
    <v name="genvec1">      0.12500000       0.00000000       0.00000000 </v>
    <v name="genvec2">      0.00000000       0.11111111       0.00000000 </v>
    <v name="genvec3">      0.00000000       0.00000000       0.33333333 </v>
    <v name="shift">      0.00000000       0.00000000       0.00000000 </v>
   </generation>
   <varray name="kpointlist" >
    <v>       0.00000000       0.00000000       0.00000000 </v>
    <v>       0.12500000       0.00000000       0.00000000 </v>
    <v>       0.25000000       0.00000000       0.00000000 </v>
    <v>       0.37500000       0.00000000       0.00000000 </v>
    <v>       0.50000000       0.00000000       0.00000000 </v>
    <v>       0.00000000       0.11111111       0.00000000 </v>
    <v>       0.12500000       0.11111111       0.00000000 </v>
    <v>       0.25000000       0.11111111       0.00000000 </v>
    <v>       0.37500000       0.11111111       0.00000000 </v>
    <v>       0.50000000       0.11111111       0.00000000 </v>
    <v>       0.00000000       0.22222222       0.00000000 </v>
    <v>       0.12500000       0.22222222       0.00000000 </v>
    <v>       0.25000000       0.22222222       0.00000000 </v>
    <v>       0.37500000       0.22222222       0.00000000 </v>
    <v>       0.50000000       0.22222222       0.00000000 </v>
    <v>       0.00000000       0.33333333       0.00000000 </v>
    <v>       0.12500000       0.33333333       0.00000000 </v>
    <v>       0.25000000       0.33333333       0.00000000 </v>
    <v>       0.37500000       0.33333333       0.00000000 </v>
    <v>       0.50000000       0.33333333       0.00000000 </v>
    <v>       0.00000000       0.44444444       0.00000000 </v>
    <v>       0.12500000       0.44444444       0.00000000 </v>
    <v>       0.25000000       0.44444444       0.00000000 </v>
    <v>       0.37500000       0.44444444       0.00000000 </v>
    <v>       0.50000000       0.44444444       0.00000000 </v>
    <v>       0.00000000       0.00000000       0.33333333 </v>
    <v>       0.12500000       0.00000000       0.33333333 </v>
    <v>       0.25000000       0.00000000       0.33333333 </v>
    <v>       0.37500000       0.00000000       0.33333333 </v>
    <v>       0.50000000       0.00000000       0.33333333 </v>
    <v>       0.00000000       0.11111111       0.33333333 </v>
    <v>       0.12500000       0.11111111       0.33333333 </v>
    <v>       0.25000000       0.11111111       0.33333333 </v>
    <v>       0.37500000       0.11111111       0.33333333 </v>
    <v>       0.50000000       0.11111111       0.33333333 </v>
    <v>       0.00000000       0.22222222       0.33333333 </v>
    <v>       0.12500000       0.22222222       0.33333333 </v>
    <v>       0.25000000       0.22222222       0.33333333 </v>
    <v>       0.37500000       0.22222222       0.33333333 </v>
    <v>       0.50000000       0.22222222       0.33333333 </v>
    <v>       0.00000000       0.33333333       0.33333333 </v>
    <v>       0.12500000       0.33333333       0.33333333 </v>
    <v>       0.25000000       0.33333333       0.33333333 </v>
    <v>       0.37500000       0.33333333       0.33333333 </v>
    <v>       0.50000000       0.33333333       0.33333333 </v>
    <v>       0.00000000       0.44444444       0.33333333 </v>
    <v>       0.12500000       0.44444444       0.33333333 </v>
    <v>       0.25000000       0.44444444       0.33333333 </v>
    <v>       0.37500000       0.44444444       0.33333333 </v>
    <v>       0.50000000       0.44444444       0.33333333 </v>
   </varray>
   <varray name="weights" >
    <v>       0.00462963 </v>
    <v>       0.00925926 </v>
    <v>       0.00925926 </v>
    <v>       0.00925926 </v>
    <v>       0.00462963 </v>
    <v>       0.00925926 </v>
    <v>       0.01851852 </v>
    <v>       0.01851852 </v>
    <v>       0.01851852 </v>
    <v>       0.00925926 </v>
    <v>       0.00925926 </v>
    <v>       0.01851852 </v>
    <v>       0.01851852 </v>
    <v>       0.01851852 </v>
    <v>       0.00925926 </v>
    <v>       0.00925926 </v>
    <v>       0.01851852 </v>
    <v>       0.01851852 </v>
    <v>       0.01851852 </v>
    <v>       0.00925926 </v>
    <v>       0.00925926 </v>
    <v>       0.01851852 </v>
    <v>       0.01851852 </v>
    <v>       0.01851852 </v>
    <v>       0.00925926 </v>
    <v>       0.00925926 </v>
    <v>       0.01851852 </v>
    <v>       0.01851852 </v>
    <v>       0.01851852 </v>
    <v>       0.00925926 </v>
    <v>       0.01851852 </v>
    <v>       0.03703704 </v>
    <v>       0.03703704 </v>
    <v>       0.03703704 </v>
    <v>       0.01851852 </v>
    <v>       0.01851852 </v>
    <v>       0.03703704 </v>
    <v>       0.03703704 </v>
    <v>       0.03703704 </v>
    <v>       0.01851852 </v>
    <v>       0.01851852 </v>
    <v>       0.03703704 </v>
    <v>       0.03703704 </v>
    <v>       0.03703704 </v>
    <v>       0.01851852 </v>
    <v>       0.01851852 </v>
    <v>       0.03703704 </v>
    <v>       0.03703704 </v>
    <v>       0.03703704 </v>
    <v>       0.01851852 </v>
   </varray>
  </kpoints>
  <array name="born_charges" >
   <dimension dim="1">ion</dimension>
   <set>
    <v>       3.98284746       0.00000000      -0.59593367 </v>
    <v>       0.00000000       4.56500815       0.00000000 </v>
    <v>       0.08008962       0.00000000       4.24729753 </v>
   </set>
   <set>
    <v>       3.98284746       0.00000000       0.59593367 </v>
    <v>       0.00000000       4.56500815       0.00000000 </v>
    <v>      -0.08008962       0.00000000       4.24729753 </v>
   </set>
   <set>
    <v>       3.98284746       0.00000000       0.59593367 </v>
    <v>       0.00000000       4.56500815       0.00000000 </v>
    <v>      -0.08008962       0.00000000       4.24729753 </v>
   </set>
   <set>
    <v>       3.98284746       0.00000000      -0.59593367 </v>
    <v>       0.00000000       4.56500815       0.00000000 </v>
    <v>       0.08008962       0.00000000       4.24729753 </v>
   </set>
   <set>
    <v>      -3.98284746      -0.00000000       0.57837282 </v>
    <v>       0.00000000      -4.56500815       0.00000000 </v>
    <v>       0.69334413       0.00000000      -4.24729753 </v>
   </set>
   <set>
    <v>      -3.98284746      -0.00000000      -0.57837282 </v>
    <v>       0.00000000      -4.56500815       0.00000000 </v>
    <v>      -0.69334413       0.00000000      -4.24729753 </v>
   </set>
   <set>
    <v>      -3.98284746      -0.00000000      -0.57837282 </v>
    <v>       0.00000000      -4.56500815       0.00000000 </v>
    <v>      -0.69334413       0.00000000      -4.24729753 </v>
   </set>
   <set>
    <v>      -3.98284746      -0.00000000       0.57837282 </v>
    <v>       0.00000000      -4.56500815       0.00000000 </v>
    <v>       0.69334413       0.00000000      -4.24729753 </v>
   </set>
  </array>
  <time name="totalsc">  444.92  279.61</time>
  <eigenvalues>
   <array>
    <dimension dim="1">band</dimension>
    <dimension dim="2">kpoint</dimension>
    <dimension dim="3">spin</dimension>
    <field>eigene</field>
    <field>occ</field>
    <set>
     <set comment="spin 1">
      <set comment="kpoint 1">
       <r>  -15.4183    1.0000 </r>
       <r>  -15.3991    1.0000 </r>
       <r>  -15.3979    1.0000 </r>
       <r>  -15.3921    1.0000 </r>
       <r>  -15.3915    1.0000 </r>
       <r>  -15.3897    1.0000 </r>
       <r>  -15.3862    1.0000 </r>
       <r>  -15.3827    1.0000 </r>
       <r>  -15.3817    1.0000 </r>
       <r>  -15.3797    1.0000 </r>
       <r>  -15.3761    1.0000 </r>
       <r>  -15.3753    1.0000 </r>
       <r>  -15.3650    1.0000 </r>
       <r>  -15.3603    1.0000 </r>
       <r>  -15.3447    1.0000 </r>
       <r>  -15.3351    1.0000 </r>
       <r>  -15.3346    1.0000 </r>
       <r>  -15.3268    1.0000 </r>
       <r>  -15.3142    1.0000 </r>
       <r>  -15.3050    1.0000 </r>
       <r>   -8.1767    1.0000 </r>
       <r>   -7.7608    1.0000 </r>
       <r>   -7.1086    1.0000 </r>
       <r>   -6.5001    1.0000 </r>
       <r>   -1.4502    1.0000 </r>
       <r>   -0.2046    1.0000 </r>
       <r>    0.0282    1.0000 </r>
       <r>    0.8470    1.0000 </r>
       <r>    0.9784    1.0000 </r>
       <r>    2.3132    1.0000 </r>
       <r>    2.3257    1.0000 </r>
       <r>    2.4378    1.0000 </r>
       <r>    2.8988    1.0000 </r>
       <r>    2.9108    1.0000 </r>
       <r>    3.4110    1.0000 </r>
       <r>    3.9115    1.0000 </r>
       <r>    4.2208    1.0000 </r>
       <r>    4.5930    1.0000 </r>
       <r>    5.1326    1.0000 </r>
       <r>    5.2842    1.0000 </r>
       <r>    6.3341    0.0000 </r>
       <r>    8.7746    0.0000 </r>
       <r>    8.8885    0.0000 </r>
       <r>    8.9257    0.0000 </r>
       <r>    9.1700    0.0000 </r>
       <r>    9.3682    0.0000 </r>
       <r>   10.0832    0.0000 </r>
       <r>   10.4093    0.0000 </r>
       <r>   10.5213    0.0000 </r>
       <r>   10.7496    0.0000 </r>
       <r>   11.3584    0.0000 </r>
       <r>   11.8016    0.0000 </r>
       <r>   12.0398    0.0000 </r>
       <r>   12.0754    0.0000 </r>
       <r>   12.1301    0.0000 </r>
       <r>   12.6189    0.0000 </r>
       <r>   12.6719    0.0000 </r>
       <r>   13.5956    0.0000 </r>
       <r>   14.3961    0.0000 </r>
       <r>   14.3975    0.0000 </r>
       <r>   14.5481    0.0000 </r>
       <r>   14.6926    0.0000 </r>
       <r>   15.0264    0.0000 </r>
       <r>   15.0381    0.0000 </r>
      </set>
      <set comment="kpoint 2">
       <r>  -15.4171    1.0000 </r>
       <r>  -15.3993    1.0000 </r>
       <r>  -15.3967    1.0000 </r>
       <r>  -15.3918    1.0000 </r>
       <r>  -15.3913    1.0000 </r>
       <r>  -15.3910    1.0000 </r>
       <r>  -15.3868    1.0000 </r>
       <r>  -15.3830    1.0000 </r>
       <r>  -15.3805    1.0000 </r>
       <r>  -15.3799    1.0000 </r>
       <r>  -15.3770    1.0000 </r>
       <r>  -15.3732    1.0000 </r>
       <r>  -15.3639    1.0000 </r>
       <r>  -15.3605    1.0000 </r>
       <r>  -15.3449    1.0000 </r>
       <r>  -15.3353    1.0000 </r>
       <r>  -15.3347    1.0000 </r>
       <r>  -15.3272    1.0000 </r>
       <r>  -15.3138    1.0000 </r>
       <r>  -15.3053    1.0000 </r>
       <r>   -8.1025    1.0000 </r>
       <r>   -7.6935    1.0000 </r>
       <r>   -7.0859    1.0000 </r>
       <r>   -6.5090    1.0000 </r>
       <r>   -1.7376    1.0000 </r>
       <r>   -0.3989    1.0000 </r>
       <r>   -0.2371    1.0000 </r>
       <r>    0.4693    1.0000 </r>
       <r>    0.8605    1.0000 </r>
       <r>    2.3549    1.0000 </r>
       <r>    2.4372    1.0000 </r>
       <r>    2.8601    1.0000 </r>
       <r>    3.0112    1.0000 </r>
       <r>    3.4374    1.0000 </r>
       <r>    3.4948    1.0000 </r>
       <r>    3.9860    1.0000 </r>
       <r>    4.2705    1.0000 </r>
       <r>    4.9248    1.0000 </r>
       <r>    4.9637    1.0000 </r>
       <r>    5.3402    1.0000 </r>
       <r>    6.3440    0.0000 </r>
       <r>    8.1961    0.0000 </r>
       <r>    8.8566    0.0000 </r>
       <r>    8.9891    0.0000 </r>
       <r>    9.0678    0.0000 </r>
       <r>    9.1586    0.0000 </r>
       <r>    9.9614    0.0000 </r>
       <r>   10.2431    0.0000 </r>
       <r>   10.2922    0.0000 </r>
       <r>   10.3916    0.0000 </r>
       <r>   11.2830    0.0000 </r>
       <r>   11.2884    0.0000 </r>
       <r>   11.5556    0.0000 </r>
       <r>   12.0049    0.0000 </r>
       <r>   12.0968    0.0000 </r>
       <r>   12.6107    0.0000 </r>
       <r>   13.0550    0.0000 </r>
       <r>   13.6587    0.0000 </r>
       <r>   13.9905    0.0000 </r>
       <r>   14.5737    0.0000 </r>
       <r>   14.8849    0.0000 </r>
       <r>   15.3463    0.0000 </r>
       <r>   15.3976    0.0000 </r>
       <r>   15.6560    0.0000 </r>
      </set>
      <set comment="kpoint 3">
       <r>  -15.4137    1.0000 </r>
       <r>  -15.4001    1.0000 </r>
       <r>  -15.3941    1.0000 </r>
       <r>  -15.3939    1.0000 </r>
       <r>  -15.3934    1.0000 </r>
       <r>  -15.3897    1.0000 </r>
       <r>  -15.3871    1.0000 </r>
       <r>  -15.3842    1.0000 </r>
       <r>  -15.3802    1.0000 </r>
       <r>  -15.3791    1.0000 </r>
       <r>  -15.3768    1.0000 </r>
       <r>  -15.3683    1.0000 </r>
       <r>  -15.3629    1.0000 </r>
       <r>  -15.3602    1.0000 </r>
       <r>  -15.3447    1.0000 </r>
       <r>  -15.3370    1.0000 </r>
       <r>  -15.3334    1.0000 </r>
       <r>  -15.3283    1.0000 </r>
       <r>  -15.3128    1.0000 </r>
       <r>  -15.3063    1.0000 </r>
       <r>   -7.8930    1.0000 </r>
       <r>   -7.5033    1.0000 </r>
       <r>   -7.0513    1.0000 </r>
       <r>   -6.5574    1.0000 </r>
       <r>   -2.2654    1.0000 </r>
       <r>   -1.1163    1.0000 </r>
       <r>   -0.7986    1.0000 </r>
       <r>    0.0304    1.0000 </r>
       <r>    0.8747    1.0000 </r>
       <r>    2.6441    1.0000 </r>
       <r>    2.7566    1.0000 </r>
       <r>    3.2959    1.0000 </r>
       <r>    3.4838    1.0000 </r>
       <r>    3.7026    1.0000 </r>
       <r>    3.8912    1.0000 </r>
       <r>    4.3682    1.0000 </r>
       <r>    4.6311    1.0000 </r>
       <r>    4.7544    1.0000 </r>
       <r>    5.2798    1.0000 </r>
       <r>    5.5853    1.0000 </r>
       <r>    6.6654    0.0000 </r>
       <r>    7.1799    0.0000 </r>
       <r>    7.9211    0.0000 </r>
       <r>    8.1038    0.0000 </r>
       <r>    8.8581    0.0000 </r>
       <r>    8.9428    0.0000 </r>
       <r>    9.3300    0.0000 </r>
       <r>    9.4468    0.0000 </r>
       <r>   10.3168    0.0000 </r>
       <r>   10.5824    0.0000 </r>
       <r>   10.5930    0.0000 </r>
       <r>   11.1498    0.0000 </r>
       <r>   11.2419    0.0000 </r>
       <r>   12.2770    0.0000 </r>
       <r>   12.6762    0.0000 </r>
       <r>   12.6786    0.0000 </r>
       <r>   13.3191    0.0000 </r>
       <r>   13.5361    0.0000 </r>
       <r>   14.1445    0.0000 </r>
       <r>   14.7108    0.0000 </r>
       <r>   15.1842    0.0000 </r>
       <r>   15.5465    0.0000 </r>
       <r>   15.9285    0.0000 </r>
       <r>   16.2991    0.0000 </r>
      </set>
      <set comment="kpoint 4">
       <r>  -15.4094    1.0000 </r>
       <r>  -15.4019    1.0000 </r>
       <r>  -15.3964    1.0000 </r>
       <r>  -15.3960    1.0000 </r>
       <r>  -15.3916    1.0000 </r>
       <r>  -15.3889    1.0000 </r>
       <r>  -15.3865    1.0000 </r>
       <r>  -15.3855    1.0000 </r>
       <r>  -15.3812    1.0000 </r>
       <r>  -15.3809    1.0000 </r>
       <r>  -15.3716    1.0000 </r>
       <r>  -15.3643    1.0000 </r>
       <r>  -15.3634    1.0000 </r>
       <r>  -15.3590    1.0000 </r>
       <r>  -15.3433    1.0000 </r>
       <r>  -15.3388    1.0000 </r>
       <r>  -15.3319    1.0000 </r>
       <r>  -15.3294    1.0000 </r>
       <r>  -15.3113    1.0000 </r>
       <r>  -15.3078    1.0000 </r>
       <r>   -7.5928    1.0000 </r>
       <r>   -7.2272    1.0000 </r>
       <r>   -7.0948    1.0000 </r>
       <r>   -6.6917    1.0000 </r>
       <r>   -2.5933    1.0000 </r>
       <r>   -1.9588    1.0000 </r>
       <r>   -1.0508    1.0000 </r>
       <r>   -0.5652    1.0000 </r>
       <r>    1.3249    1.0000 </r>
       <r>    2.5359    1.0000 </r>
       <r>    3.2262    1.0000 </r>
       <r>    3.7058    1.0000 </r>
       <r>    3.8618    1.0000 </r>
       <r>    4.0848    1.0000 </r>
       <r>    4.1826    1.0000 </r>
       <r>    4.3608    1.0000 </r>
       <r>    4.7064    1.0000 </r>
       <r>    5.1621    1.0000 </r>
       <r>    5.6642    1.0000 </r>
       <r>    5.8776    1.0000 </r>
       <r>    6.6642    0.0000 </r>
       <r>    7.0771    0.0000 </r>
       <r>    7.2446    0.0000 </r>
       <r>    7.3172    0.0000 </r>
       <r>    7.9185    0.0000 </r>
       <r>    8.0125    0.0000 </r>
       <r>    8.6639    0.0000 </r>
       <r>    8.8996    0.0000 </r>
       <r>    9.3150    0.0000 </r>
       <r>    9.6082    0.0000 </r>
       <r>   11.4618    0.0000 </r>
       <r>   11.7540    0.0000 </r>
       <r>   12.4100    0.0000 </r>
       <r>   12.6939    0.0000 </r>
       <r>   13.1017    0.0000 </r>
       <r>   13.6033    0.0000 </r>
       <r>   13.6427    0.0000 </r>
       <r>   14.1572    0.0000 </r>
       <r>   14.2894    0.0000 </r>
       <r>   14.6423    0.0000 </r>
       <r>   14.7579    0.0000 </r>
       <r>   15.7249    0.0000 </r>
       <r>   16.5463    0.0000 </r>
       <r>   16.6341    0.0000 </r>
      </set>
      <set comment="kpoint 5">
       <r>  -15.4051    1.0000 </r>
       <r>  -15.4051    1.0000 </r>
       <r>  -15.3973    1.0000 </r>
       <r>  -15.3973    1.0000 </r>
       <r>  -15.3897    1.0000 </r>
       <r>  -15.3897    1.0000 </r>
       <r>  -15.3861    1.0000 </r>
       <r>  -15.3861    1.0000 </r>
       <r>  -15.3816    1.0000 </r>
       <r>  -15.3816    1.0000 </r>
       <r>  -15.3671    1.0000 </r>
       <r>  -15.3671    1.0000 </r>
       <r>  -15.3601    1.0000 </r>
       <r>  -15.3601    1.0000 </r>
       <r>  -15.3410    1.0000 </r>
       <r>  -15.3410    1.0000 </r>
       <r>  -15.3305    1.0000 </r>
       <r>  -15.3305    1.0000 </r>
       <r>  -15.3095    1.0000 </r>
       <r>  -15.3095    1.0000 </r>
       <r>   -7.2894    1.0000 </r>
       <r>   -7.2894    1.0000 </r>
       <r>   -6.9303    1.0000 </r>
       <r>   -6.9303    1.0000 </r>
       <r>   -2.4943    1.0000 </r>
       <r>   -2.4943    1.0000 </r>
       <r>   -0.9718    1.0000 </r>
       <r>   -0.9718    1.0000 </r>
       <r>    1.9464    1.0000 </r>
       <r>    1.9464    1.0000 </r>
       <r>    3.6904    1.0000 </r>
       <r>    3.6904    1.0000 </r>
       <r>    4.1164    1.0000 </r>
       <r>    4.1164    1.0000 </r>
       <r>    4.4428    1.0000 </r>
       <r>    4.4428    1.0000 </r>
       <r>    5.0265    1.0000 </r>
       <r>    5.0265    1.0000 </r>
       <r>    5.6390    1.0000 </r>
       <r>    5.6390    1.0000 </r>
       <r>    7.0658    0.0000 </r>
       <r>    7.0658    0.0000 </r>
       <r>    7.2476    0.0000 </r>
       <r>    7.2476    0.0000 </r>
       <r>    7.5501    0.0000 </r>
       <r>    7.5501    0.0000 </r>
       <r>    8.3555    0.0000 </r>
       <r>    8.3555    0.0000 </r>
       <r>    8.9667    0.0000 </r>
       <r>    8.9667    0.0000 </r>
       <r>   11.9080    0.0000 </r>
       <r>   11.9080    0.0000 </r>
       <r>   13.1135    0.0000 </r>
       <r>   13.1135    0.0000 </r>
       <r>   13.7847    0.0000 </r>
       <r>   13.7847    0.0000 </r>
       <r>   13.8989    0.0000 </r>
       <r>   13.8989    0.0000 </r>
       <r>   15.1032    0.0000 </r>
       <r>   15.1032    0.0000 </r>
       <r>   15.6236    0.0000 </r>
       <r>   15.6236    0.0000 </r>
       <r>   16.0024    0.0000 </r>
       <r>   16.0024    0.0000 </r>
      </set>
      <set comment="kpoint 6">
       <r>  -15.4146    1.0000 </r>
       <r>  -15.3963    1.0000 </r>
       <r>  -15.3963    1.0000 </r>
       <r>  -15.3919    1.0000 </r>
       <r>  -15.3911    1.0000 </r>
       <r>  -15.3907    1.0000 </r>
       <r>  -15.3904    1.0000 </r>
       <r>  -15.3848    1.0000 </r>
       <r>  -15.3815    1.0000 </r>
       <r>  -15.3788    1.0000 </r>
       <r>  -15.3785    1.0000 </r>
       <r>  -15.3727    1.0000 </r>
       <r>  -15.3630    1.0000 </r>
       <r>  -15.3604    1.0000 </r>
       <r>  -15.3431    1.0000 </r>
       <r>  -15.3357    1.0000 </r>
       <r>  -15.3335    1.0000 </r>
       <r>  -15.3283    1.0000 </r>
       <r>  -15.3147    1.0000 </r>
       <r>  -15.3065    1.0000 </r>
       <r>   -8.1048    1.0000 </r>
       <r>   -7.7001    1.0000 </r>
       <r>   -7.0699    1.0000 </r>
       <r>   -6.4981    1.0000 </r>
       <r>   -1.5652    1.0000 </r>
       <r>   -0.4576    1.0000 </r>
       <r>    0.0226    1.0000 </r>
       <r>    0.4182    1.0000 </r>
       <r>    0.8883    1.0000 </r>
       <r>    2.2265    1.0000 </r>
       <r>    2.5164    1.0000 </r>
       <r>    2.6327    1.0000 </r>
       <r>    2.8968    1.0000 </r>
       <r>    2.9778    1.0000 </r>
       <r>    3.6174    1.0000 </r>
       <r>    3.9471    1.0000 </r>
       <r>    4.2346    1.0000 </r>
       <r>    4.8340    1.0000 </r>
       <r>    5.1523    1.0000 </r>
       <r>    5.2241    1.0000 </r>
       <r>    6.4491    0.0000 </r>
       <r>    8.3188    0.0000 </r>
       <r>    8.8308    0.0000 </r>
       <r>    9.0705    0.0000 </r>
       <r>    9.1844    0.0000 </r>
       <r>    9.3084    0.0000 </r>
       <r>    9.7689    0.0000 </r>
       <r>   10.1686    0.0000 </r>
       <r>   10.2487    0.0000 </r>
       <r>   10.6581    0.0000 </r>
       <r>   11.1005    0.0000 </r>
       <r>   11.3928    0.0000 </r>
       <r>   11.7701    0.0000 </r>
       <r>   11.7772    0.0000 </r>
       <r>   12.2577    0.0000 </r>
       <r>   12.3605    0.0000 </r>
       <r>   12.6058    0.0000 </r>
       <r>   13.9352    0.0000 </r>
       <r>   14.1277    0.0000 </r>
       <r>   14.4933    0.0000 </r>
       <r>   15.1190    0.0000 </r>
       <r>   15.2096    0.0000 </r>
       <r>   15.2573    0.0000 </r>
       <r>   15.4167    0.0000 </r>
      </set>
      <set comment="kpoint 7">
       <r>  -15.4136    1.0000 </r>
       <r>  -15.3965    1.0000 </r>
       <r>  -15.3954    1.0000 </r>
       <r>  -15.3923    1.0000 </r>
       <r>  -15.3922    1.0000 </r>
       <r>  -15.3904    1.0000 </r>
       <r>  -15.3900    1.0000 </r>
       <r>  -15.3854    1.0000 </r>
       <r>  -15.3816    1.0000 </r>
       <r>  -15.3808    1.0000 </r>
       <r>  -15.3764    1.0000 </r>
       <r>  -15.3710    1.0000 </r>
       <r>  -15.3625    1.0000 </r>
       <r>  -15.3601    1.0000 </r>
       <r>  -15.3433    1.0000 </r>
       <r>  -15.3352    1.0000 </r>
       <r>  -15.3341    1.0000 </r>
       <r>  -15.3286    1.0000 </r>
       <r>  -15.3144    1.0000 </r>
       <r>  -15.3068    1.0000 </r>
       <r>   -8.0316    1.0000 </r>
       <r>   -7.6339    1.0000 </r>
       <r>   -7.0472    1.0000 </r>
       <r>   -6.5049    1.0000 </r>
       <r>   -1.7847    1.0000 </r>
       <r>   -0.5487    1.0000 </r>
       <r>   -0.2750    1.0000 </r>
       <r>    0.2820    1.0000 </r>
       <r>    0.8057    1.0000 </r>
       <r>    2.0043    1.0000 </r>
       <r>    2.1730    1.0000 </r>
       <r>    3.1779    1.0000 </r>
       <r>    3.2139    1.0000 </r>
       <r>    3.3413    1.0000 </r>
       <r>    3.4155    1.0000 </r>
       <r>    4.0451    1.0000 </r>
       <r>    4.5000    1.0000 </r>
       <r>    4.9949    1.0000 </r>
       <r>    5.2345    1.0000 </r>
       <r>    5.3087    1.0000 </r>
       <r>    6.4737    0.0000 </r>
       <r>    7.8077    0.0000 </r>
       <r>    8.4220    0.0000 </r>
       <r>    8.7355    0.0000 </r>
       <r>    8.9923    0.0000 </r>
       <r>    9.2980    0.0000 </r>
       <r>    9.5968    0.0000 </r>
       <r>    9.9713    0.0000 </r>
       <r>   10.2606    0.0000 </r>
       <r>   10.8788    0.0000 </r>
       <r>   10.9868    0.0000 </r>
       <r>   11.3420    0.0000 </r>
       <r>   11.5798    0.0000 </r>
       <r>   12.1077    0.0000 </r>
       <r>   12.3239    0.0000 </r>
       <r>   12.6966    0.0000 </r>
       <r>   12.9393    0.0000 </r>
       <r>   13.9716    0.0000 </r>
       <r>   14.1923    0.0000 </r>
       <r>   14.5145    0.0000 </r>
       <r>   14.8224    0.0000 </r>
       <r>   15.0243    0.0000 </r>
       <r>   15.2477    0.0000 </r>
       <r>   15.5544    0.0000 </r>
      </set>
      <set comment="kpoint 8">
       <r>  -15.4110    1.0000 </r>
       <r>  -15.3974    1.0000 </r>
       <r>  -15.3953    1.0000 </r>
       <r>  -15.3948    1.0000 </r>
       <r>  -15.3929    1.0000 </r>
       <r>  -15.3889    1.0000 </r>
       <r>  -15.3888    1.0000 </r>
       <r>  -15.3865    1.0000 </r>
       <r>  -15.3829    1.0000 </r>
       <r>  -15.3821    1.0000 </r>
       <r>  -15.3735    1.0000 </r>
       <r>  -15.3664    1.0000 </r>
       <r>  -15.3625    1.0000 </r>
       <r>  -15.3586    1.0000 </r>
       <r>  -15.3432    1.0000 </r>
       <r>  -15.3357    1.0000 </r>
       <r>  -15.3340    1.0000 </r>
       <r>  -15.3294    1.0000 </r>
       <r>  -15.3134    1.0000 </r>
       <r>  -15.3077    1.0000 </r>
       <r>   -7.8252    1.0000 </r>
       <r>   -7.4475    1.0000 </r>
       <r>   -7.0119    1.0000 </r>
       <r>   -6.5464    1.0000 </r>
       <r>   -2.2227    1.0000 </r>
       <r>   -1.0854    1.0000 </r>
       <r>   -0.7972    1.0000 </r>
       <r>   -0.0599    1.0000 </r>
       <r>    0.9533    1.0000 </r>
       <r>    1.9961    1.0000 </r>
       <r>    2.1633    1.0000 </r>
       <r>    3.1930    1.0000 </r>
       <r>    3.5681    1.0000 </r>
       <r>    3.6319    1.0000 </r>
       <r>    4.0181    1.0000 </r>
       <r>    4.0770    1.0000 </r>
       <r>    4.8419    1.0000 </r>
       <r>    5.1046    1.0000 </r>
       <r>    5.3389    1.0000 </r>
       <r>    5.5449    1.0000 </r>
       <r>    6.7815    0.0000 </r>
       <r>    7.2776    0.0000 </r>
       <r>    7.5193    0.0000 </r>
       <r>    7.6825    0.0000 </r>
       <r>    8.8724    0.0000 </r>
       <r>    8.9565    0.0000 </r>
       <r>    9.2975    0.0000 </r>
       <r>    9.8444    0.0000 </r>
       <r>   10.3640    0.0000 </r>
       <r>   10.5778    0.0000 </r>
       <r>   10.9475    0.0000 </r>
       <r>   11.4121    0.0000 </r>
       <r>   11.7731    0.0000 </r>
       <r>   11.9633    0.0000 </r>
       <r>   12.7662    0.0000 </r>
       <r>   13.0496    0.0000 </r>
       <r>   13.5380    0.0000 </r>
       <r>   13.9920    0.0000 </r>
       <r>   14.0162    0.0000 </r>
       <r>   14.4045    0.0000 </r>
       <r>   14.8089    0.0000 </r>
       <r>   15.5628    0.0000 </r>
       <r>   15.7461    0.0000 </r>
       <r>   16.2242    0.0000 </r>
      </set>
      <set comment="kpoint 9">
       <r>  -15.4075    1.0000 </r>
       <r>  -15.4004    1.0000 </r>
       <r>  -15.3971    1.0000 </r>
       <r>  -15.3967    1.0000 </r>
       <r>  -15.3922    1.0000 </r>
       <r>  -15.3900    1.0000 </r>
       <r>  -15.3873    1.0000 </r>
       <r>  -15.3863    1.0000 </r>
       <r>  -15.3839    1.0000 </r>
       <r>  -15.3827    1.0000 </r>
       <r>  -15.3696    1.0000 </r>
       <r>  -15.3637    1.0000 </r>
       <r>  -15.3616    1.0000 </r>
       <r>  -15.3575    1.0000 </r>
       <r>  -15.3418    1.0000 </r>
       <r>  -15.3375    1.0000 </r>
       <r>  -15.3326    1.0000 </r>
       <r>  -15.3303    1.0000 </r>
       <r>  -15.3121    1.0000 </r>
       <r>  -15.3090    1.0000 </r>
       <r>   -7.5313    1.0000 </r>
       <r>   -7.1789    1.0000 </r>
       <r>   -7.0514    1.0000 </r>
       <r>   -6.6691    1.0000 </r>
       <r>   -2.5067    1.0000 </r>
       <r>   -1.8829    1.0000 </r>
       <r>   -0.9867    1.0000 </r>
       <r>   -0.5491    1.0000 </r>
       <r>    1.3918    1.0000 </r>
       <r>    2.2226    1.0000 </r>
       <r>    2.4301    1.0000 </r>
       <r>    3.2894    1.0000 </r>
       <r>    3.3844    1.0000 </r>
       <r>    3.6415    1.0000 </r>
       <r>    4.1260    1.0000 </r>
       <r>    4.4487    1.0000 </r>
       <r>    5.0131    1.0000 </r>
       <r>    5.1282    1.0000 </r>
       <r>    5.4249    1.0000 </r>
       <r>    5.5109    1.0000 </r>
       <r>    6.9262    0.0000 </r>
       <r>    7.0886    0.0000 </r>
       <r>    7.1726    0.0000 </r>
       <r>    7.4818    0.0000 </r>
       <r>    8.3584    0.0000 </r>
       <r>    8.4834    0.0000 </r>
       <r>    8.7825    0.0000 </r>
       <r>    9.4835    0.0000 </r>
       <r>    9.9347    0.0000 </r>
       <r>   10.2559    0.0000 </r>
       <r>   11.3659    0.0000 </r>
       <r>   11.6280    0.0000 </r>
       <r>   11.9638    0.0000 </r>
       <r>   12.7401    0.0000 </r>
       <r>   12.8835    0.0000 </r>
       <r>   13.2076    0.0000 </r>
       <r>   14.0514    0.0000 </r>
       <r>   14.3594    0.0000 </r>
       <r>   14.3865    0.0000 </r>
       <r>   14.8426    0.0000 </r>
       <r>   15.3327    0.0000 </r>
       <r>   15.6838    0.0000 </r>
       <r>   16.7837    0.0000 </r>
       <r>   16.8888    0.0000 </r>
      </set>
      <set comment="kpoint 10">
       <r>  -15.4039    1.0000 </r>
       <r>  -15.4039    1.0000 </r>
       <r>  -15.3977    1.0000 </r>
       <r>  -15.3977    1.0000 </r>
       <r>  -15.3914    1.0000 </r>
       <r>  -15.3914    1.0000 </r>
       <r>  -15.3866    1.0000 </r>
       <r>  -15.3866    1.0000 </r>
       <r>  -15.3833    1.0000 </r>
       <r>  -15.3833    1.0000 </r>
       <r>  -15.3660    1.0000 </r>
       <r>  -15.3660    1.0000 </r>
       <r>  -15.3585    1.0000 </r>
       <r>  -15.3585    1.0000 </r>
       <r>  -15.3395    1.0000 </r>
       <r>  -15.3395    1.0000 </r>
       <r>  -15.3313    1.0000 </r>
       <r>  -15.3313    1.0000 </r>
       <r>  -15.3105    1.0000 </r>
       <r>  -15.3105    1.0000 </r>
       <r>   -7.2372    1.0000 </r>
       <r>   -7.2372    1.0000 </r>
       <r>   -6.8939    1.0000 </r>
       <r>   -6.8939    1.0000 </r>
       <r>   -2.4007    1.0000 </r>
       <r>   -2.4007    1.0000 </r>
       <r>   -0.9089    1.0000 </r>
       <r>   -0.9089    1.0000 </r>
       <r>    1.9417    1.0000 </r>
       <r>    1.9417    1.0000 </r>
       <r>    2.9872    1.0000 </r>
       <r>    2.9872    1.0000 </r>
       <r>    3.4140    1.0000 </r>
       <r>    3.4140    1.0000 </r>
       <r>    4.2897    1.0000 </r>
       <r>    4.2897    1.0000 </r>
       <r>    5.2353    1.0000 </r>
       <r>    5.2353    1.0000 </r>
       <r>    5.4027    1.0000 </r>
       <r>    5.4027    1.0000 </r>
       <r>    6.8738    0.0000 </r>
       <r>    6.8738    0.0000 </r>
       <r>    7.3074    0.0000 </r>
       <r>    7.3074    0.0000 </r>
       <r>    8.5192    0.0000 </r>
       <r>    8.5192    0.0000 </r>
       <r>    8.8571    0.0000 </r>
       <r>    8.8571    0.0000 </r>
       <r>    9.6826    0.0000 </r>
       <r>    9.6826    0.0000 </r>
       <r>   11.7534    0.0000 </r>
       <r>   11.7534    0.0000 </r>
       <r>   12.2196    0.0000 </r>
       <r>   12.2196    0.0000 </r>
       <r>   13.7493    0.0000 </r>
       <r>   13.7493    0.0000 </r>
       <r>   14.5092    0.0000 </r>
       <r>   14.5092    0.0000 </r>
       <r>   15.4239    0.0000 </r>
       <r>   15.4239    0.0000 </r>
       <r>   15.7116    0.0000 </r>
       <r>   15.7116    0.0000 </r>
       <r>   16.2031    0.0000 </r>
       <r>   16.2031    0.0000 </r>
      </set>
      <set comment="kpoint 11">
       <r>  -15.4049    1.0000 </r>
       <r>  -15.3967    1.0000 </r>
       <r>  -15.3943    1.0000 </r>
       <r>  -15.3929    1.0000 </r>
       <r>  -15.3925    1.0000 </r>
       <r>  -15.3925    1.0000 </r>
       <r>  -15.3878    1.0000 </r>
       <r>  -15.3872    1.0000 </r>
       <r>  -15.3838    1.0000 </r>
       <r>  -15.3836    1.0000 </r>
       <r>  -15.3751    1.0000 </r>
       <r>  -15.3679    1.0000 </r>
       <r>  -15.3614    1.0000 </r>
       <r>  -15.3589    1.0000 </r>
       <r>  -15.3390    1.0000 </r>
       <r>  -15.3379    1.0000 </r>
       <r>  -15.3328    1.0000 </r>
       <r>  -15.3304    1.0000 </r>
       <r>  -15.3156    1.0000 </r>
       <r>  -15.3103    1.0000 </r>
       <r>   -7.8971    1.0000 </r>
       <r>   -7.5294    1.0000 </r>
       <r>   -6.9743    1.0000 </r>
       <r>   -6.5169    1.0000 </r>
       <r>   -1.8536    1.0000 </r>
       <r>   -0.9725    1.0000 </r>
       <r>   -0.4418    1.0000 </r>
       <r>   -0.1952    1.0000 </r>
       <r>    0.8869    1.0000 </r>
       <r>    2.4067    1.0000 </r>
       <r>    2.7477    1.0000 </r>
       <r>    2.9225    1.0000 </r>
       <r>    2.9785    1.0000 </r>
       <r>    3.2016    1.0000 </r>
       <r>    3.9352    1.0000 </r>
       <r>    4.0768    1.0000 </r>
       <r>    4.3070    1.0000 </r>
       <r>    5.0370    1.0000 </r>
       <r>    5.1752    1.0000 </r>
       <r>    5.4436    1.0000 </r>
       <r>    6.7199    0.0000 </r>
       <r>    7.0667    0.0000 </r>
       <r>    8.3969    0.0000 </r>
       <r>    8.5177    0.0000 </r>
       <r>    8.6149    0.0000 </r>
       <r>    9.1685    0.0000 </r>
       <r>    9.2956    0.0000 </r>
       <r>    9.7563    0.0000 </r>
       <r>   10.4299    0.0000 </r>
       <r>   10.6030    0.0000 </r>
       <r>   10.7067    0.0000 </r>
       <r>   10.8798    0.0000 </r>
       <r>   11.4661    0.0000 </r>
       <r>   11.5017    0.0000 </r>
       <r>   12.1398    0.0000 </r>
       <r>   12.6573    0.0000 </r>
       <r>   13.1469    0.0000 </r>
       <r>   13.4840    0.0000 </r>
       <r>   14.7208    0.0000 </r>
       <r>   14.7731    0.0000 </r>
       <r>   15.3775    0.0000 </r>
       <r>   15.3943    0.0000 </r>
       <r>   15.5712    0.0000 </r>
       <r>   16.1316    0.0000 </r>
      </set>
      <set comment="kpoint 12">
       <r>  -15.4056    1.0000 </r>
       <r>  -15.3967    1.0000 </r>
       <r>  -15.3959    1.0000 </r>
       <r>  -15.3934    1.0000 </r>
       <r>  -15.3924    1.0000 </r>
       <r>  -15.3915    1.0000 </r>
       <r>  -15.3876    1.0000 </r>
       <r>  -15.3870    1.0000 </r>
       <r>  -15.3845    1.0000 </r>
       <r>  -15.3840    1.0000 </r>
       <r>  -15.3739    1.0000 </r>
       <r>  -15.3662    1.0000 </r>
       <r>  -15.3621    1.0000 </r>
       <r>  -15.3575    1.0000 </r>
       <r>  -15.3393    1.0000 </r>
       <r>  -15.3372    1.0000 </r>
       <r>  -15.3329    1.0000 </r>
       <r>  -15.3310    1.0000 </r>
       <r>  -15.3153    1.0000 </r>
       <r>  -15.3105    1.0000 </r>
       <r>   -7.8270    1.0000 </r>
       <r>   -7.4670    1.0000 </r>
       <r>   -6.9514    1.0000 </r>
       <r>   -6.5165    1.0000 </r>
       <r>   -1.9284    1.0000 </r>
       <r>   -0.9282    1.0000 </r>
       <r>   -0.5445    1.0000 </r>
       <r>   -0.2861    1.0000 </r>
       <r>    0.9515    1.0000 </r>
       <r>    1.7320    1.0000 </r>
       <r>    2.0589    1.0000 </r>
       <r>    2.9243    1.0000 </r>
       <r>    3.3646    1.0000 </r>
       <r>    3.6145    1.0000 </r>
       <r>    3.7004    1.0000 </r>
       <r>    4.0805    1.0000 </r>
       <r>    4.7701    1.0000 </r>
       <r>    5.0766    1.0000 </r>
       <r>    5.2285    1.0000 </r>
       <r>    5.4636    1.0000 </r>
       <r>    6.7566    0.0000 </r>
       <r>    7.1370    0.0000 </r>
       <r>    7.6708    0.0000 </r>
       <r>    7.8109    0.0000 </r>
       <r>    8.9390    0.0000 </r>
       <r>    9.0377    0.0000 </r>
       <r>    9.6451    0.0000 </r>
       <r>    9.9038    0.0000 </r>
       <r>   10.4755    0.0000 </r>
       <r>   10.5656    0.0000 </r>
       <r>   10.7359    0.0000 </r>
       <r>   11.4066    0.0000 </r>
       <r>   11.4343    0.0000 </r>
       <r>   12.4241    0.0000 </r>
       <r>   12.4571    0.0000 </r>
       <r>   12.9176    0.0000 </r>
       <r>   13.3391    0.0000 </r>
       <r>   13.8766    0.0000 </r>
       <r>   13.9758    0.0000 </r>
       <r>   14.3652    0.0000 </r>
       <r>   14.7715    0.0000 </r>
       <r>   15.5302    0.0000 </r>
       <r>   15.7088    0.0000 </r>
       <r>   15.9674    0.0000 </r>
      </set>
      <set comment="kpoint 13">
       <r>  -15.4073    1.0000 </r>
       <r>  -15.4002    1.0000 </r>
       <r>  -15.3963    1.0000 </r>
       <r>  -15.3951    1.0000 </r>
       <r>  -15.3928    1.0000 </r>
       <r>  -15.3908    1.0000 </r>
       <r>  -15.3886    1.0000 </r>
       <r>  -15.3859    1.0000 </r>
       <r>  -15.3843    1.0000 </r>
       <r>  -15.3839    1.0000 </r>
       <r>  -15.3712    1.0000 </r>
       <r>  -15.3625    1.0000 </r>
       <r>  -15.3620    1.0000 </r>
       <r>  -15.3554    1.0000 </r>
       <r>  -15.3392    1.0000 </r>
       <r>  -15.3360    1.0000 </r>
       <r>  -15.3331    1.0000 </r>
       <r>  -15.3323    1.0000 </r>
       <r>  -15.3146    1.0000 </r>
       <r>  -15.3109    1.0000 </r>
       <r>   -7.6315    1.0000 </r>
       <r>   -7.2932    1.0000 </r>
       <r>   -6.9127    1.0000 </r>
       <r>   -6.5356    1.0000 </r>
       <r>   -2.1186    1.0000 </r>
       <r>   -1.0412    1.0000 </r>
       <r>   -0.8565    1.0000 </r>
       <r>   -0.3810    1.0000 </r>
       <r>    1.1868    1.0000 </r>
       <r>    1.3000    1.0000 </r>
       <r>    1.5661    1.0000 </r>
       <r>    2.6951    1.0000 </r>
       <r>    2.8143    1.0000 </r>
       <r>    3.7861    1.0000 </r>
       <r>    3.9187    1.0000 </r>
       <r>    4.2916    1.0000 </r>
       <r>    4.6950    1.0000 </r>
       <r>    4.9469    1.0000 </r>
       <r>    5.0560    1.0000 </r>
       <r>    5.3123    1.0000 </r>
       <r>    6.7299    0.0000 </r>
       <r>    7.1923    0.0000 </r>
       <r>    7.8362    0.0000 </r>
       <r>    8.2820    0.0000 </r>
       <r>    8.5209    0.0000 </r>
       <r>    8.9661    0.0000 </r>
       <r>    9.3092    0.0000 </r>
       <r>   10.3327    0.0000 </r>
       <r>   10.8323    0.0000 </r>
       <r>   10.9556    0.0000 </r>
       <r>   11.0175    0.0000 </r>
       <r>   11.4327    0.0000 </r>
       <r>   11.6873    0.0000 </r>
       <r>   12.7346    0.0000 </r>
       <r>   12.9919    0.0000 </r>
       <r>   13.2419    0.0000 </r>
       <r>   13.8038    0.0000 </r>
       <r>   13.9063    0.0000 </r>
       <r>   14.1855    0.0000 </r>
       <r>   14.7142    0.0000 </r>
       <r>   15.1785    0.0000 </r>
       <r>   15.3654    0.0000 </r>
       <r>   16.0598    0.0000 </r>
       <r>   16.1590    0.0000 </r>
      </set>
      <set comment="kpoint 14">
       <r>  -15.4088    1.0000 </r>
       <r>  -15.4051    1.0000 </r>
       <r>  -15.3972    1.0000 </r>
       <r>  -15.3968    1.0000 </r>
       <r>  -15.3933    1.0000 </r>
       <r>  -15.3902    1.0000 </r>
       <r>  -15.3899    1.0000 </r>
       <r>  -15.3874    1.0000 </r>
       <r>  -15.3823    1.0000 </r>
       <r>  -15.3820    1.0000 </r>
       <r>  -15.3679    1.0000 </r>
       <r>  -15.3632    1.0000 </r>
       <r>  -15.3576    1.0000 </r>
       <r>  -15.3542    1.0000 </r>
       <r>  -15.3378    1.0000 </r>
       <r>  -15.3347    1.0000 </r>
       <r>  -15.3341    1.0000 </r>
       <r>  -15.3330    1.0000 </r>
       <r>  -15.3136    1.0000 </r>
       <r>  -15.3116    1.0000 </r>
       <r>   -7.3587    1.0000 </r>
       <r>   -7.0491    1.0000 </r>
       <r>   -6.9379    1.0000 </r>
       <r>   -6.6209    1.0000 </r>
       <r>   -2.2577    1.0000 </r>
       <r>   -1.6731    1.0000 </r>
       <r>   -0.8329    1.0000 </r>
       <r>   -0.5576    1.0000 </r>
       <r>    1.3666    1.0000 </r>
       <r>    1.5551    1.0000 </r>
       <r>    1.5912    1.0000 </r>
       <r>    2.5087    1.0000 </r>
       <r>    2.6312    1.0000 </r>
       <r>    3.2976    1.0000 </r>
       <r>    3.4393    1.0000 </r>
       <r>    4.0739    1.0000 </r>
       <r>    4.3436    1.0000 </r>
       <r>    4.8230    1.0000 </r>
       <r>    4.8289    1.0000 </r>
       <r>    5.3119    1.0000 </r>
       <r>    6.5250    0.0000 </r>
       <r>    7.7978    0.0000 </r>
       <r>    7.9271    0.0000 </r>
       <r>    8.8370    0.0000 </r>
       <r>    9.0049    0.0000 </r>
       <r>    9.3135    0.0000 </r>
       <r>    9.5375    0.0000 </r>
       <r>   10.4983    0.0000 </r>
       <r>   10.6272    0.0000 </r>
       <r>   11.0122    0.0000 </r>
       <r>   11.1010    0.0000 </r>
       <r>   11.5437    0.0000 </r>
       <r>   11.5884    0.0000 </r>
       <r>   11.8914    0.0000 </r>
       <r>   12.9458    0.0000 </r>
       <r>   13.7454    0.0000 </r>
       <r>   14.0202    0.0000 </r>
       <r>   14.5294    0.0000 </r>
       <r>   15.0392    0.0000 </r>
       <r>   15.7003    0.0000 </r>
       <r>   15.8508    0.0000 </r>
       <r>   16.2484    0.0000 </r>
       <r>   16.4129    0.0000 </r>
       <r>   16.8660    0.0000 </r>
      </set>
      <set comment="kpoint 15">
       <r>  -15.4082    1.0000 </r>
       <r>  -15.4082    1.0000 </r>
       <r>  -15.3979    1.0000 </r>
       <r>  -15.3979    1.0000 </r>
       <r>  -15.3916    1.0000 </r>
       <r>  -15.3916    1.0000 </r>
       <r>  -15.3891    1.0000 </r>
       <r>  -15.3891    1.0000 </r>
       <r>  -15.3813    1.0000 </r>
       <r>  -15.3813    1.0000 </r>
       <r>  -15.3650    1.0000 </r>
       <r>  -15.3650    1.0000 </r>
       <r>  -15.3548    1.0000 </r>
       <r>  -15.3548    1.0000 </r>
       <r>  -15.3358    1.0000 </r>
       <r>  -15.3358    1.0000 </r>
       <r>  -15.3336    1.0000 </r>
       <r>  -15.3336    1.0000 </r>
       <r>  -15.3125    1.0000 </r>
       <r>  -15.3125    1.0000 </r>
       <r>   -7.0953    1.0000 </r>
       <r>   -7.0953    1.0000 </r>
       <r>   -6.8017    1.0000 </r>
       <r>   -6.8017    1.0000 </r>
       <r>   -2.1270    1.0000 </r>
       <r>   -2.1270    1.0000 </r>
       <r>   -0.7533    1.0000 </r>
       <r>   -0.7533    1.0000 </r>
       <r>    1.6990    1.0000 </r>
       <r>    1.6990    1.0000 </r>
       <r>    1.9794    1.0000 </r>
       <r>    1.9794    1.0000 </r>
       <r>    2.7642    1.0000 </r>
       <r>    2.7642    1.0000 </r>
       <r>    3.4990    1.0000 </r>
       <r>    3.4990    1.0000 </r>
       <r>    4.5136    1.0000 </r>
       <r>    4.5136    1.0000 </r>
       <r>    5.0117    1.0000 </r>
       <r>    5.0117    1.0000 </r>
       <r>    7.0651    0.0000 </r>
       <r>    7.0651    0.0000 </r>
       <r>    8.6242    0.0000 </r>
       <r>    8.6242    0.0000 </r>
       <r>    9.6263    0.0000 </r>
       <r>    9.6263    0.0000 </r>
       <r>   10.1854    0.0000 </r>
       <r>   10.1854    0.0000 </r>
       <r>   10.5544    0.0000 </r>
       <r>   10.5544    0.0000 </r>
       <r>   11.2375    0.0000 </r>
       <r>   11.2375    0.0000 </r>
       <r>   11.6245    0.0000 </r>
       <r>   11.6245    0.0000 </r>
       <r>   13.2229    0.0000 </r>
       <r>   13.2229    0.0000 </r>
       <r>   15.2715    0.0000 </r>
       <r>   15.2715    0.0000 </r>
       <r>   15.7387    0.0000 </r>
       <r>   15.7387    0.0000 </r>
       <r>   16.0879    0.0000 </r>
       <r>   16.0879    0.0000 </r>
       <r>   17.0428    0.0000 </r>
       <r>   17.0428    0.0000 </r>
      </set>
      <set comment="kpoint 16">
       <r>  -15.4016    1.0000 </r>
       <r>  -15.3981    1.0000 </r>
       <r>  -15.3973    1.0000 </r>
       <r>  -15.3946    1.0000 </r>
       <r>  -15.3910    1.0000 </r>
       <r>  -15.3895    1.0000 </r>
       <r>  -15.3880    1.0000 </r>
       <r>  -15.3878    1.0000 </r>
       <r>  -15.3856    1.0000 </r>
       <r>  -15.3782    1.0000 </r>
       <r>  -15.3725    1.0000 </r>
       <r>  -15.3643    1.0000 </r>
       <r>  -15.3615    1.0000 </r>
       <r>  -15.3545    1.0000 </r>
       <r>  -15.3416    1.0000 </r>
       <r>  -15.3399    1.0000 </r>
       <r>  -15.3332    1.0000 </r>
       <r>  -15.3263    1.0000 </r>
       <r>  -15.3165    1.0000 </r>
       <r>  -15.3149    1.0000 </r>
       <r>   -7.5800    1.0000 </r>
       <r>   -7.2866    1.0000 </r>
       <r>   -6.8850    1.0000 </r>
       <r>   -6.6196    1.0000 </r>
       <r>   -2.1428    1.0000 </r>
       <r>   -1.3768    1.0000 </r>
       <r>   -1.2913    1.0000 </r>
       <r>   -0.7052    1.0000 </r>
       <r>    1.2279    1.0000 </r>
       <r>    2.7131    1.0000 </r>
       <r>    2.9620    1.0000 </r>
       <r>    3.1476    1.0000 </r>
       <r>    3.2473    1.0000 </r>
       <r>    3.4957    1.0000 </r>
       <r>    4.1041    1.0000 </r>
       <r>    4.2228    1.0000 </r>
       <r>    4.5802    1.0000 </r>
       <r>    4.9739    1.0000 </r>
       <r>    5.1183    1.0000 </r>
       <r>    5.7526    1.0000 </r>
       <r>    6.3147    0.0000 </r>
       <r>    7.0801    0.0000 </r>
       <r>    7.5289    0.0000 </r>
       <r>    7.6192    0.0000 </r>
       <r>    7.8437    0.0000 </r>
       <r>    8.3527    0.0000 </r>
       <r>    8.4308    0.0000 </r>
       <r>    9.2797    0.0000 </r>
       <r>    9.6890    0.0000 </r>
       <r>    9.8872    0.0000 </r>
       <r>   10.7326    0.0000 </r>
       <r>   11.1059    0.0000 </r>
       <r>   12.1097    0.0000 </r>
       <r>   12.6835    0.0000 </r>
       <r>   12.8314    0.0000 </r>
       <r>   13.1274    0.0000 </r>
       <r>   13.9944    0.0000 </r>
       <r>   14.1021    0.0000 </r>
       <r>   14.1527    0.0000 </r>
       <r>   14.6545    0.0000 </r>
       <r>   15.3827    0.0000 </r>
       <r>   15.4836    0.0000 </r>
       <r>   15.8778    0.0000 </r>
       <r>   16.4916    0.0000 </r>
      </set>
      <set comment="kpoint 17">
       <r>  -15.4049    1.0000 </r>
       <r>  -15.4009    1.0000 </r>
       <r>  -15.3978    1.0000 </r>
       <r>  -15.3958    1.0000 </r>
       <r>  -15.3907    1.0000 </r>
       <r>  -15.3889    1.0000 </r>
       <r>  -15.3880    1.0000 </r>
       <r>  -15.3859    1.0000 </r>
       <r>  -15.3848    1.0000 </r>
       <r>  -15.3784    1.0000 </r>
       <r>  -15.3719    1.0000 </r>
       <r>  -15.3644    1.0000 </r>
       <r>  -15.3601    1.0000 </r>
       <r>  -15.3536    1.0000 </r>
       <r>  -15.3410    1.0000 </r>
       <r>  -15.3395    1.0000 </r>
       <r>  -15.3332    1.0000 </r>
       <r>  -15.3269    1.0000 </r>
       <r>  -15.3163    1.0000 </r>
       <r>  -15.3148    1.0000 </r>
       <r>   -7.5168    1.0000 </r>
       <r>   -7.2316    1.0000 </r>
       <r>   -6.8598    1.0000 </r>
       <r>   -6.6053    1.0000 </r>
       <r>   -2.1001    1.0000 </r>
       <r>   -1.2839    1.0000 </r>
       <r>   -1.2309    1.0000 </r>
       <r>   -0.7416    1.0000 </r>
       <r>    1.3156    1.0000 </r>
       <r>    1.8240    1.0000 </r>
       <r>    2.2182    1.0000 </r>
       <r>    2.9598    1.0000 </r>
       <r>    3.4345    1.0000 </r>
       <r>    3.4940    1.0000 </r>
       <r>    4.0455    1.0000 </r>
       <r>    4.0640    1.0000 </r>
       <r>    4.6563    1.0000 </r>
       <r>    5.0346    1.0000 </r>
       <r>    5.1326    1.0000 </r>
       <r>    5.2331    1.0000 </r>
       <r>    6.8931    0.0000 </r>
       <r>    6.9950    0.0000 </r>
       <r>    7.0783    0.0000 </r>
       <r>    7.4284    0.0000 </r>
       <r>    8.4814    0.0000 </r>
       <r>    8.8453    0.0000 </r>
       <r>    9.0829    0.0000 </r>
       <r>    9.4092    0.0000 </r>
       <r>   10.1322    0.0000 </r>
       <r>   10.5839    0.0000 </r>
       <r>   10.8503    0.0000 </r>
       <r>   10.9932    0.0000 </r>
       <r>   11.7005    0.0000 </r>
       <r>   12.9078    0.0000 </r>
       <r>   13.0055    0.0000 </r>
       <r>   13.1742    0.0000 </r>
       <r>   13.8136    0.0000 </r>
       <r>   14.1404    0.0000 </r>
       <r>   14.2732    0.0000 </r>
       <r>   14.7334    0.0000 </r>
       <r>   15.3037    0.0000 </r>
       <r>   16.0238    0.0000 </r>
       <r>   16.4405    0.0000 </r>
       <r>   16.5751    0.0000 </r>
      </set>
      <set comment="kpoint 18">
       <r>  -15.4105    1.0000 </r>
       <r>  -15.4066    1.0000 </r>
       <r>  -15.4006    1.0000 </r>
       <r>  -15.3995    1.0000 </r>
       <r>  -15.3912    1.0000 </r>
       <r>  -15.3882    1.0000 </r>
       <r>  -15.3859    1.0000 </r>
       <r>  -15.3827    1.0000 </r>
       <r>  -15.3827    1.0000 </r>
       <r>  -15.3792    1.0000 </r>
       <r>  -15.3701    1.0000 </r>
       <r>  -15.3643    1.0000 </r>
       <r>  -15.3566    1.0000 </r>
       <r>  -15.3519    1.0000 </r>
       <r>  -15.3396    1.0000 </r>
       <r>  -15.3383    1.0000 </r>
       <r>  -15.3331    1.0000 </r>
       <r>  -15.3281    1.0000 </r>
       <r>  -15.3159    1.0000 </r>
       <r>  -15.3147    1.0000 </r>
       <r>   -7.3439    1.0000 </r>
       <r>   -7.0818    1.0000 </r>
       <r>   -6.8102    1.0000 </r>
       <r>   -6.5826    1.0000 </r>
       <r>   -2.0009    1.0000 </r>
       <r>   -1.1584    1.0000 </r>
       <r>   -1.0321    1.0000 </r>
       <r>   -0.8179    1.0000 </r>
       <r>    1.0336    1.0000 </r>
       <r>    1.4501    1.0000 </r>
       <r>    1.5443    1.0000 </r>
       <r>    2.2860    1.0000 </r>
       <r>    2.5706    1.0000 </r>
       <r>    3.4115    1.0000 </r>
       <r>    3.4933    1.0000 </r>
       <r>    3.9507    1.0000 </r>
       <r>    4.2811    1.0000 </r>
       <r>    4.3760    1.0000 </r>
       <r>    4.7378    1.0000 </r>
       <r>    5.2799    1.0000 </r>
       <r>    6.4008    0.0000 </r>
       <r>    7.8313    0.0000 </r>
       <r>    8.2076    0.0000 </r>
       <r>    8.5322    0.0000 </r>
       <r>    8.8400    0.0000 </r>
       <r>    9.2944    0.0000 </r>
       <r>    9.7996    0.0000 </r>
       <r>   10.2516    0.0000 </r>
       <r>   10.6150    0.0000 </r>
       <r>   10.7592    0.0000 </r>
       <r>   11.3972    0.0000 </r>
       <r>   11.5112    0.0000 </r>
       <r>   11.7500    0.0000 </r>
       <r>   11.8033    0.0000 </r>
       <r>   13.2852    0.0000 </r>
       <r>   14.0086    0.0000 </r>
       <r>   14.0821    0.0000 </r>
       <r>   14.1952    0.0000 </r>
       <r>   14.9064    0.0000 </r>
       <r>   15.2627    0.0000 </r>
       <r>   15.9038    0.0000 </r>
       <r>   15.9377    0.0000 </r>
       <r>   16.1468    0.0000 </r>
       <r>   16.7160    0.0000 </r>
      </set>
      <set comment="kpoint 19">
       <r>  -15.4148    1.0000 </r>
       <r>  -15.4125    1.0000 </r>
       <r>  -15.4040    1.0000 </r>
       <r>  -15.4034    1.0000 </r>
       <r>  -15.3908    1.0000 </r>
       <r>  -15.3888    1.0000 </r>
       <r>  -15.3837    1.0000 </r>
       <r>  -15.3815    1.0000 </r>
       <r>  -15.3801    1.0000 </r>
       <r>  -15.3797    1.0000 </r>
       <r>  -15.3680    1.0000 </r>
       <r>  -15.3646    1.0000 </r>
       <r>  -15.3527    1.0000 </r>
       <r>  -15.3505    1.0000 </r>
       <r>  -15.3379    1.0000 </r>
       <r>  -15.3371    1.0000 </r>
       <r>  -15.3321    1.0000 </r>
       <r>  -15.3293    1.0000 </r>
       <r>  -15.3153    1.0000 </r>
       <r>  -15.3146    1.0000 </r>
       <r>   -7.1130    1.0000 </r>
       <r>   -6.8834    1.0000 </r>
       <r>   -6.8045    1.0000 </r>
       <r>   -6.6010    1.0000 </r>
       <r>   -1.8867    1.0000 </r>
       <r>   -1.3950    1.0000 </r>
       <r>   -0.7440    1.0000 </r>
       <r>   -0.7143    1.0000 </r>
       <r>    0.7338    1.0000 </r>
       <r>    1.1414    1.0000 </r>
       <r>    1.5512    1.0000 </r>
       <r>    1.8530    1.0000 </r>
       <r>    2.1817    1.0000 </r>
       <r>    2.6801    1.0000 </r>
       <r>    2.9298    1.0000 </r>
       <r>    3.4798    1.0000 </r>
       <r>    3.6007    1.0000 </r>
       <r>    4.1105    1.0000 </r>
       <r>    4.6554    1.0000 </r>
       <r>    4.7989    1.0000 </r>
       <r>    6.8360    0.0000 </r>
       <r>    8.4264    0.0000 </r>
       <r>    8.9527    0.0000 </r>
       <r>    9.1910    0.0000 </r>
       <r>    9.9189    0.0000 </r>
       <r>    9.9209    0.0000 </r>
       <r>   10.3627    0.0000 </r>
       <r>   10.6777    0.0000 </r>
       <r>   10.7343    0.0000 </r>
       <r>   10.9571    0.0000 </r>
       <r>   11.5091    0.0000 </r>
       <r>   11.6334    0.0000 </r>
       <r>   11.8341    0.0000 </r>
       <r>   12.1823    0.0000 </r>
       <r>   12.7408    0.0000 </r>
       <r>   13.4400    0.0000 </r>
       <r>   15.1638    0.0000 </r>
       <r>   15.3298    0.0000 </r>
       <r>   15.7515    0.0000 </r>
       <r>   15.8221    0.0000 </r>
       <r>   16.0746    0.0000 </r>
       <r>   16.5593    0.0000 </r>
       <r>   16.8547    0.0000 </r>
       <r>   17.1831    0.0000 </r>
      </set>
      <set comment="kpoint 20">
       <r>  -15.4157    1.0000 </r>
       <r>  -15.4157    1.0000 </r>
       <r>  -15.4053    1.0000 </r>
       <r>  -15.4053    1.0000 </r>
       <r>  -15.3898    1.0000 </r>
       <r>  -15.3898    1.0000 </r>
       <r>  -15.3823    1.0000 </r>
       <r>  -15.3823    1.0000 </r>
       <r>  -15.3792    1.0000 </r>
       <r>  -15.3792    1.0000 </r>
       <r>  -15.3659    1.0000 </r>
       <r>  -15.3659    1.0000 </r>
       <r>  -15.3505    1.0000 </r>
       <r>  -15.3505    1.0000 </r>
       <r>  -15.3369    1.0000 </r>
       <r>  -15.3369    1.0000 </r>
       <r>  -15.3306    1.0000 </r>
       <r>  -15.3306    1.0000 </r>
       <r>  -15.3148    1.0000 </r>
       <r>  -15.3148    1.0000 </r>
       <r>   -6.9076    1.0000 </r>
       <r>   -6.9076    1.0000 </r>
       <r>   -6.7037    1.0000 </r>
       <r>   -6.7037    1.0000 </r>
       <r>   -1.7019    1.0000 </r>
       <r>   -1.7019    1.0000 </r>
       <r>   -0.6354    1.0000 </r>
       <r>   -0.6354    1.0000 </r>
       <r>    0.9943    1.0000 </r>
       <r>    0.9943    1.0000 </r>
       <r>    1.4271    1.0000 </r>
       <r>    1.4271    1.0000 </r>
       <r>    2.2782    1.0000 </r>
       <r>    2.2782    1.0000 </r>
       <r>    2.9907    1.0000 </r>
       <r>    2.9907    1.0000 </r>
       <r>    3.6512    1.0000 </r>
       <r>    3.6512    1.0000 </r>
       <r>    4.6370    1.0000 </r>
       <r>    4.6370    1.0000 </r>
       <r>    7.6005    0.0000 </r>
       <r>    7.6005    0.0000 </r>
       <r>    9.5173    0.0000 </r>
       <r>    9.5173    0.0000 </r>
       <r>   10.3856    0.0000 </r>
       <r>   10.3856    0.0000 </r>
       <r>   10.7626    0.0000 </r>
       <r>   10.7626    0.0000 </r>
       <r>   10.8805    0.0000 </r>
       <r>   10.8805    0.0000 </r>
       <r>   11.6914    0.0000 </r>
       <r>   11.6914    0.0000 </r>
       <r>   11.9846    0.0000 </r>
       <r>   11.9846    0.0000 </r>
       <r>   12.7841    0.0000 </r>
       <r>   12.7841    0.0000 </r>
       <r>   15.8691    0.0000 </r>
       <r>   15.8691    0.0000 </r>
       <r>   16.4535    0.0000 </r>
       <r>   16.4535    0.0000 </r>
       <r>   16.6469    0.0000 </r>
       <r>   16.6469    0.0000 </r>
       <r>   17.3019    0.0000 </r>
       <r>   17.3019    0.0000 </r>
      </set>
      <set comment="kpoint 21">
       <r>  -15.4039    1.0000 </r>
       <r>  -15.4026    1.0000 </r>
       <r>  -15.3984    1.0000 </r>
       <r>  -15.3967    1.0000 </r>
       <r>  -15.3886    1.0000 </r>
       <r>  -15.3886    1.0000 </r>
       <r>  -15.3876    1.0000 </r>
       <r>  -15.3858    1.0000 </r>
       <r>  -15.3796    1.0000 </r>
       <r>  -15.3726    1.0000 </r>
       <r>  -15.3711    1.0000 </r>
       <r>  -15.3702    1.0000 </r>
       <r>  -15.3547    1.0000 </r>
       <r>  -15.3501    1.0000 </r>
       <r>  -15.3476    1.0000 </r>
       <r>  -15.3458    1.0000 </r>
       <r>  -15.3265    1.0000 </r>
       <r>  -15.3219    1.0000 </r>
       <r>  -15.3202    1.0000 </r>
       <r>  -15.3183    1.0000 </r>
       <r>   -7.2061    1.0000 </r>
       <r>   -7.0431    1.0000 </r>
       <r>   -6.8923    1.0000 </r>
       <r>   -6.8576    1.0000 </r>
       <r>   -2.2115    1.0000 </r>
       <r>   -1.9219    1.0000 </r>
       <r>   -1.4609    1.0000 </r>
       <r>   -1.1994    1.0000 </r>
       <r>    1.7711    1.0000 </r>
       <r>    2.3733    1.0000 </r>
       <r>    3.3417    1.0000 </r>
       <r>    3.5578    1.0000 </r>
       <r>    3.6798    1.0000 </r>
       <r>    3.7566    1.0000 </r>
       <r>    3.8201    1.0000 </r>
       <r>    4.3453    1.0000 </r>
       <r>    4.9255    1.0000 </r>
       <r>    4.9458    1.0000 </r>
       <r>    5.0279    1.0000 </r>
       <r>    5.1723    1.0000 </r>
       <r>    6.8056    0.0000 </r>
       <r>    6.9033    0.0000 </r>
       <r>    7.0074    0.0000 </r>
       <r>    7.3663    0.0000 </r>
       <r>    7.4362    0.0000 </r>
       <r>    7.6423    0.0000 </r>
       <r>    8.1922    0.0000 </r>
       <r>    8.5814    0.0000 </r>
       <r>    8.9551    0.0000 </r>
       <r>    9.1310    0.0000 </r>
       <r>   10.9506    0.0000 </r>
       <r>   11.1215    0.0000 </r>
       <r>   12.7544    0.0000 </r>
       <r>   12.9534    0.0000 </r>
       <r>   13.3695    0.0000 </r>
       <r>   13.5751    0.0000 </r>
       <r>   14.4745    0.0000 </r>
       <r>   14.9027    0.0000 </r>
       <r>   15.1389    0.0000 </r>
       <r>   15.6503    0.0000 </r>
       <r>   15.7537    0.0000 </r>
       <r>   16.2546    0.0000 </r>
       <r>   16.5675    0.0000 </r>
       <r>   16.7214    0.0000 </r>
      </set>
      <set comment="kpoint 22">
       <r>  -15.4068    1.0000 </r>
       <r>  -15.4054    1.0000 </r>
       <r>  -15.3998    1.0000 </r>
       <r>  -15.3986    1.0000 </r>
       <r>  -15.3890    1.0000 </r>
       <r>  -15.3884    1.0000 </r>
       <r>  -15.3859    1.0000 </r>
       <r>  -15.3850    1.0000 </r>
       <r>  -15.3785    1.0000 </r>
       <r>  -15.3727    1.0000 </r>
       <r>  -15.3708    1.0000 </r>
       <r>  -15.3697    1.0000 </r>
       <r>  -15.3538    1.0000 </r>
       <r>  -15.3503    1.0000 </r>
       <r>  -15.3460    1.0000 </r>
       <r>  -15.3449    1.0000 </r>
       <r>  -15.3268    1.0000 </r>
       <r>  -15.3229    1.0000 </r>
       <r>  -15.3194    1.0000 </r>
       <r>  -15.3182    1.0000 </r>
       <r>   -7.1552    1.0000 </r>
       <r>   -6.9991    1.0000 </r>
       <r>   -6.8600    1.0000 </r>
       <r>   -6.8243    1.0000 </r>
       <r>   -2.1155    1.0000 </r>
       <r>   -1.8229    1.0000 </r>
       <r>   -1.3758    1.0000 </r>
       <r>   -1.1556    1.0000 </r>
       <r>    1.8107    1.0000 </r>
       <r>    2.1435    1.0000 </r>
       <r>    2.3898    1.0000 </r>
       <r>    2.9442    1.0000 </r>
       <r>    3.2100    1.0000 </r>
       <r>    3.2510    1.0000 </r>
       <r>    4.2361    1.0000 </r>
       <r>    4.3218    1.0000 </r>
       <r>    4.3364    1.0000 </r>
       <r>    4.5761    1.0000 </r>
       <r>    5.1716    1.0000 </r>
       <r>    5.2237    1.0000 </r>
       <r>    6.6254    0.0000 </r>
       <r>    6.6295    0.0000 </r>
       <r>    7.2998    0.0000 </r>
       <r>    7.5842    0.0000 </r>
       <r>    8.4035    0.0000 </r>
       <r>    8.5233    0.0000 </r>
       <r>    8.8427    0.0000 </r>
       <r>    9.2898    0.0000 </r>
       <r>    9.4068    0.0000 </r>
       <r>   10.0507    0.0000 </r>
       <r>   10.7759    0.0000 </r>
       <r>   10.8930    0.0000 </r>
       <r>   11.8365    0.0000 </r>
       <r>   12.1900    0.0000 </r>
       <r>   14.0408    0.0000 </r>
       <r>   14.4202    0.0000 </r>
       <r>   14.6836    0.0000 </r>
       <r>   14.9294    0.0000 </r>
       <r>   15.1817    0.0000 </r>
       <r>   15.3348    0.0000 </r>
       <r>   15.7891    0.0000 </r>
       <r>   16.2183    0.0000 </r>
       <r>   16.4810    0.0000 </r>
       <r>   16.5404    0.0000 </r>
      </set>
      <set comment="kpoint 23">
       <r>  -15.4131    1.0000 </r>
       <r>  -15.4117    1.0000 </r>
       <r>  -15.4039    1.0000 </r>
       <r>  -15.4034    1.0000 </r>
       <r>  -15.3889    1.0000 </r>
       <r>  -15.3879    1.0000 </r>
       <r>  -15.3834    1.0000 </r>
       <r>  -15.3834    1.0000 </r>
       <r>  -15.3764    1.0000 </r>
       <r>  -15.3730    1.0000 </r>
       <r>  -15.3700    1.0000 </r>
       <r>  -15.3686    1.0000 </r>
       <r>  -15.3515    1.0000 </r>
       <r>  -15.3494    1.0000 </r>
       <r>  -15.3428    1.0000 </r>
       <r>  -15.3426    1.0000 </r>
       <r>  -15.3270    1.0000 </r>
       <r>  -15.3243    1.0000 </r>
       <r>  -15.3184    1.0000 </r>
       <r>  -15.3178    1.0000 </r>
       <r>   -7.0213    1.0000 </r>
       <r>   -6.8852    1.0000 </r>
       <r>   -6.7848    1.0000 </r>
       <r>   -6.7446    1.0000 </r>
       <r>   -1.8456    1.0000 </r>
       <r>   -1.5458    1.0000 </r>
       <r>   -1.1438    1.0000 </r>
       <r>   -1.0585    1.0000 </r>
       <r>    1.2379    1.0000 </r>
       <r>    1.7340    1.0000 </r>
       <r>    1.7454    1.0000 </r>
       <r>    1.9886    1.0000 </r>
       <r>    2.4575    1.0000 </r>
       <r>    2.9261    1.0000 </r>
       <r>    3.3406    1.0000 </r>
       <r>    3.5589    1.0000 </r>
       <r>    3.6030    1.0000 </r>
       <r>    4.0741    1.0000 </r>
       <r>    4.8273    1.0000 </r>
       <r>    5.0008    1.0000 </r>
       <r>    6.7479    0.0000 </r>
       <r>    7.4605    0.0000 </r>
       <r>    8.5815    0.0000 </r>
       <r>    8.9179    0.0000 </r>
       <r>    9.4944    0.0000 </r>
       <r>    9.5973    0.0000 </r>
       <r>   10.0170    0.0000 </r>
       <r>   10.2325    0.0000 </r>
       <r>   10.3348    0.0000 </r>
       <r>   10.6109    0.0000 </r>
       <r>   10.7865    0.0000 </r>
       <r>   11.4212    0.0000 </r>
       <r>   11.4756    0.0000 </r>
       <r>   11.5514    0.0000 </r>
       <r>   13.3743    0.0000 </r>
       <r>   13.6447    0.0000 </r>
       <r>   15.2036    0.0000 </r>
       <r>   15.4343    0.0000 </r>
       <r>   15.6419    0.0000 </r>
       <r>   16.2906    0.0000 </r>
       <r>   16.3922    0.0000 </r>
       <r>   16.6795    0.0000 </r>
       <r>   16.9464    0.0000 </r>
       <r>   17.1733    0.0000 </r>
      </set>
      <set comment="kpoint 24">
       <r>  -15.4187    1.0000 </r>
       <r>  -15.4178    1.0000 </r>
       <r>  -15.4083    1.0000 </r>
       <r>  -15.4081    1.0000 </r>
       <r>  -15.3888    1.0000 </r>
       <r>  -15.3879    1.0000 </r>
       <r>  -15.3817    1.0000 </r>
       <r>  -15.3814    1.0000 </r>
       <r>  -15.3748    1.0000 </r>
       <r>  -15.3733    1.0000 </r>
       <r>  -15.3691    1.0000 </r>
       <r>  -15.3681    1.0000 </r>
       <r>  -15.3487    1.0000 </r>
       <r>  -15.3478    1.0000 </r>
       <r>  -15.3402    1.0000 </r>
       <r>  -15.3402    1.0000 </r>
       <r>  -15.3266    1.0000 </r>
       <r>  -15.3252    1.0000 </r>
       <r>  -15.3177    1.0000 </r>
       <r>  -15.3174    1.0000 </r>
       <r>   -6.8590    1.0000 </r>
       <r>   -6.7528    1.0000 </r>
       <r>   -6.7245    1.0000 </r>
       <r>   -6.6724    1.0000 </r>
       <r>   -1.4814    1.0000 </r>
       <r>   -1.2152    1.0000 </r>
       <r>   -0.9526    1.0000 </r>
       <r>   -0.8609    1.0000 </r>
       <r>    0.6188    1.0000 </r>
       <r>    1.0085    1.0000 </r>
       <r>    1.2657    1.0000 </r>
       <r>    1.5550    1.0000 </r>
       <r>    2.0415    1.0000 </r>
       <r>    2.2105    1.0000 </r>
       <r>    2.7160    1.0000 </r>
       <r>    3.1503    1.0000 </r>
       <r>    3.3030    1.0000 </r>
       <r>    3.4318    1.0000 </r>
       <r>    4.5148    1.0000 </r>
       <r>    4.5632    1.0000 </r>
       <r>    7.5126    0.0000 </r>
       <r>    8.2693    0.0000 </r>
       <r>    9.0612    0.0000 </r>
       <r>    9.3876    0.0000 </r>
       <r>   10.2525    0.0000 </r>
       <r>   10.3093    0.0000 </r>
       <r>   10.4257    0.0000 </r>
       <r>   10.8233    0.0000 </r>
       <r>   10.8286    0.0000 </r>
       <r>   11.3295    0.0000 </r>
       <r>   11.7947    0.0000 </r>
       <r>   11.9240    0.0000 </r>
       <r>   12.0568    0.0000 </r>
       <r>   12.4321    0.0000 </r>
       <r>   12.7973    0.0000 </r>
       <r>   13.0809    0.0000 </r>
       <r>   15.5815    0.0000 </r>
       <r>   15.7519    0.0000 </r>
       <r>   16.6806    0.0000 </r>
       <r>   16.7574    0.0000 </r>
       <r>   16.9895    0.0000 </r>
       <r>   17.1382    0.0000 </r>
       <r>   17.5922    0.0000 </r>
       <r>   17.6324    0.0000 </r>
      </set>
      <set comment="kpoint 25">
       <r>  -15.4206    1.0000 </r>
       <r>  -15.4206    1.0000 </r>
       <r>  -15.4100    1.0000 </r>
       <r>  -15.4100    1.0000 </r>
       <r>  -15.3884    1.0000 </r>
       <r>  -15.3884    1.0000 </r>
       <r>  -15.3808    1.0000 </r>
       <r>  -15.3808    1.0000 </r>
       <r>  -15.3739    1.0000 </r>
       <r>  -15.3739    1.0000 </r>
       <r>  -15.3684    1.0000 </r>
       <r>  -15.3684    1.0000 </r>
       <r>  -15.3472    1.0000 </r>
       <r>  -15.3472    1.0000 </r>
       <r>  -15.3392    1.0000 </r>
       <r>  -15.3392    1.0000 </r>
       <r>  -15.3259    1.0000 </r>
       <r>  -15.3259    1.0000 </r>
       <r>  -15.3174    1.0000 </r>
       <r>  -15.3174    1.0000 </r>
       <r>   -6.7434    1.0000 </r>
       <r>   -6.7434    1.0000 </r>
       <r>   -6.6684    1.0000 </r>
       <r>   -6.6684    1.0000 </r>
       <r>   -1.2095    1.0000 </r>
       <r>   -1.2095    1.0000 </r>
       <r>   -0.7625    1.0000 </r>
       <r>   -0.7625    1.0000 </r>
       <r>    0.5472    1.0000 </r>
       <r>    0.5472    1.0000 </r>
       <r>    1.1667    1.0000 </r>
       <r>    1.1667    1.0000 </r>
       <r>    1.9090    1.0000 </r>
       <r>    1.9090    1.0000 </r>
       <r>    2.6504    1.0000 </r>
       <r>    2.6504    1.0000 </r>
       <r>    3.3462    1.0000 </r>
       <r>    3.3462    1.0000 </r>
       <r>    4.3879    1.0000 </r>
       <r>    4.3879    1.0000 </r>
       <r>    8.2159    0.0000 </r>
       <r>    8.2159    0.0000 </r>
       <r>    9.0893    0.0000 </r>
       <r>    9.0893    0.0000 </r>
       <r>   10.3544    0.0000 </r>
       <r>   10.3544    0.0000 </r>
       <r>   10.8023    0.0000 </r>
       <r>   10.8023    0.0000 </r>
       <r>   11.7087    0.0000 </r>
       <r>   11.7087    0.0000 </r>
       <r>   12.3464    0.0000 </r>
       <r>   12.3464    0.0000 </r>
       <r>   12.6760    0.0000 </r>
       <r>   12.6760    0.0000 </r>
       <r>   12.8565    0.0000 </r>
       <r>   12.8565    0.0000 </r>
       <r>   15.9879    0.0000 </r>
       <r>   15.9879    0.0000 </r>
       <r>   16.6979    0.0000 </r>
       <r>   16.6979    0.0000 </r>
       <r>   16.9495    0.0000 </r>
       <r>   16.9495    0.0000 </r>
       <r>   17.7945    0.0000 </r>
       <r>   17.7947    0.0000 </r>
      </set>
      <set comment="kpoint 26">
       <r>  -15.4147    1.0000 </r>
       <r>  -15.4059    1.0000 </r>
       <r>  -15.3964    1.0000 </r>
       <r>  -15.3936    1.0000 </r>
       <r>  -15.3903    1.0000 </r>
       <r>  -15.3881    1.0000 </r>
       <r>  -15.3879    1.0000 </r>
       <r>  -15.3843    1.0000 </r>
       <r>  -15.3788    1.0000 </r>
       <r>  -15.3777    1.0000 </r>
       <r>  -15.3769    1.0000 </r>
       <r>  -15.3753    1.0000 </r>
       <r>  -15.3645    1.0000 </r>
       <r>  -15.3620    1.0000 </r>
       <r>  -15.3428    1.0000 </r>
       <r>  -15.3389    1.0000 </r>
       <r>  -15.3311    1.0000 </r>
       <r>  -15.3281    1.0000 </r>
       <r>  -15.3117    1.0000 </r>
       <r>  -15.3071    1.0000 </r>
       <r>   -8.1041    1.0000 </r>
       <r>   -7.9122    1.0000 </r>
       <r>   -6.9099    1.0000 </r>
       <r>   -6.6217    1.0000 </r>
       <r>   -1.3092    1.0000 </r>
       <r>   -0.8662    1.0000 </r>
       <r>    0.7151    1.0000 </r>
       <r>    0.8297    1.0000 </r>
       <r>    1.2170    1.0000 </r>
       <r>    2.0489    1.0000 </r>
       <r>    2.4190    1.0000 </r>
       <r>    2.5465    1.0000 </r>
       <r>    2.6747    1.0000 </r>
       <r>    3.0370    1.0000 </r>
       <r>    3.6876    1.0000 </r>
       <r>    3.7012    1.0000 </r>
       <r>    3.7136    1.0000 </r>
       <r>    4.0691    1.0000 </r>
       <r>    5.2361    1.0000 </r>
       <r>    5.3049    1.0000 </r>
       <r>    7.6393    0.0000 </r>
       <r>    8.4611    0.0000 </r>
       <r>    8.5494    0.0000 </r>
       <r>    9.0530    0.0000 </r>
       <r>    9.5035    0.0000 </r>
       <r>    9.6473    0.0000 </r>
       <r>    9.9054    0.0000 </r>
       <r>   10.1083    0.0000 </r>
       <r>   10.6509    0.0000 </r>
       <r>   10.8265    0.0000 </r>
       <r>   11.3371    0.0000 </r>
       <r>   11.3642    0.0000 </r>
       <r>   11.6234    0.0000 </r>
       <r>   11.8730    0.0000 </r>
       <r>   12.2037    0.0000 </r>
       <r>   12.4684    0.0000 </r>
       <r>   13.0162    0.0000 </r>
       <r>   13.4150    0.0000 </r>
       <r>   13.9257    0.0000 </r>
       <r>   14.3386    0.0000 </r>
       <r>   14.5266    0.0000 </r>
       <r>   14.5372    0.0000 </r>
       <r>   14.8581    0.0000 </r>
       <r>   14.8671    0.0000 </r>
      </set>
      <set comment="kpoint 27">
       <r>  -15.4137    1.0000 </r>
       <r>  -15.4055    1.0000 </r>
       <r>  -15.3952    1.0000 </r>
       <r>  -15.3927    1.0000 </r>
       <r>  -15.3911    1.0000 </r>
       <r>  -15.3890    1.0000 </r>
       <r>  -15.3885    1.0000 </r>
       <r>  -15.3846    1.0000 </r>
       <r>  -15.3792    1.0000 </r>
       <r>  -15.3774    1.0000 </r>
       <r>  -15.3766    1.0000 </r>
       <r>  -15.3735    1.0000 </r>
       <r>  -15.3637    1.0000 </r>
       <r>  -15.3620    1.0000 </r>
       <r>  -15.3429    1.0000 </r>
       <r>  -15.3390    1.0000 </r>
       <r>  -15.3313    1.0000 </r>
       <r>  -15.3284    1.0000 </r>
       <r>  -15.3115    1.0000 </r>
       <r>  -15.3073    1.0000 </r>
       <r>   -8.0314    1.0000 </r>
       <r>   -7.8432    1.0000 </r>
       <r>   -6.8947    1.0000 </r>
       <r>   -6.6226    1.0000 </r>
       <r>   -1.5778    1.0000 </r>
       <r>   -1.0921    1.0000 </r>
       <r>    0.2682    1.0000 </r>
       <r>    0.4966    1.0000 </r>
       <r>    1.2664    1.0000 </r>
       <r>    2.2059    1.0000 </r>
       <r>    2.5289    1.0000 </r>
       <r>    2.7798    1.0000 </r>
       <r>    2.8348    1.0000 </r>
       <r>    3.2241    1.0000 </r>
       <r>    3.7752    1.0000 </r>
       <r>    3.8781    1.0000 </r>
       <r>    4.1268    1.0000 </r>
       <r>    4.2444    1.0000 </r>
       <r>    5.1281    1.0000 </r>
       <r>    5.3078    1.0000 </r>
       <r>    7.5941    0.0000 </r>
       <r>    8.3005    0.0000 </r>
       <r>    8.7436    0.0000 </r>
       <r>    9.0050    0.0000 </r>
       <r>    9.0065    0.0000 </r>
       <r>    9.3301    0.0000 </r>
       <r>    9.4378    0.0000 </r>
       <r>    9.9314    0.0000 </r>
       <r>   10.4734    0.0000 </r>
       <r>   10.8574    0.0000 </r>
       <r>   10.9848    0.0000 </r>
       <r>   11.2795    0.0000 </r>
       <r>   11.3726    0.0000 </r>
       <r>   11.5295    0.0000 </r>
       <r>   12.1347    0.0000 </r>
       <r>   12.6615    0.0000 </r>
       <r>   12.9702    0.0000 </r>
       <r>   13.4837    0.0000 </r>
       <r>   13.9353    0.0000 </r>
       <r>   14.1540    0.0000 </r>
       <r>   15.0352    0.0000 </r>
       <r>   15.2523    0.0000 </r>
       <r>   15.4259    0.0000 </r>
       <r>   15.5299    0.0000 </r>
      </set>
      <set comment="kpoint 28">
       <r>  -15.4110    1.0000 </r>
       <r>  -15.4045    1.0000 </r>
       <r>  -15.3933    1.0000 </r>
       <r>  -15.3928    1.0000 </r>
       <r>  -15.3917    1.0000 </r>
       <r>  -15.3909    1.0000 </r>
       <r>  -15.3891    1.0000 </r>
       <r>  -15.3858    1.0000 </r>
       <r>  -15.3798    1.0000 </r>
       <r>  -15.3783    1.0000 </r>
       <r>  -15.3736    1.0000 </r>
       <r>  -15.3695    1.0000 </r>
       <r>  -15.3627    1.0000 </r>
       <r>  -15.3613    1.0000 </r>
       <r>  -15.3428    1.0000 </r>
       <r>  -15.3392    1.0000 </r>
       <r>  -15.3316    1.0000 </r>
       <r>  -15.3293    1.0000 </r>
       <r>  -15.3111    1.0000 </r>
       <r>  -15.3079    1.0000 </r>
       <r>   -7.8268    1.0000 </r>
       <r>   -7.6502    1.0000 </r>
       <r>   -6.8783    1.0000 </r>
       <r>   -6.6497    1.0000 </r>
       <r>   -2.0911    1.0000 </r>
       <r>   -1.6058    1.0000 </r>
       <r>   -0.4944    1.0000 </r>
       <r>   -0.1436    1.0000 </r>
       <r>    1.4546    1.0000 </r>
       <r>    2.4968    1.0000 </r>
       <r>    2.8427    1.0000 </r>
       <r>    3.0775    1.0000 </r>
       <r>    3.3261    1.0000 </r>
       <r>    3.6328    1.0000 </r>
       <r>    3.9521    1.0000 </r>
       <r>    4.2500    1.0000 </r>
       <r>    4.4965    1.0000 </r>
       <r>    4.7479    1.0000 </r>
       <r>    5.0994    1.0000 </r>
       <r>    5.3967    1.0000 </r>
       <r>    7.4671    0.0000 </r>
       <r>    7.7923    0.0000 </r>
       <r>    8.0814    0.0000 </r>
       <r>    8.3041    0.0000 </r>
       <r>    8.5186    0.0000 </r>
       <r>    8.6361    0.0000 </r>
       <r>    9.1191    0.0000 </r>
       <r>    9.8363    0.0000 </r>
       <r>    9.8705    0.0000 </r>
       <r>   10.3660    0.0000 </r>
       <r>   10.6804    0.0000 </r>
       <r>   10.8302    0.0000 </r>
       <r>   11.4170    0.0000 </r>
       <r>   11.6880    0.0000 </r>
       <r>   12.6018    0.0000 </r>
       <r>   13.1151    0.0000 </r>
       <r>   13.2934    0.0000 </r>
       <r>   13.8918    0.0000 </r>
       <r>   14.2058    0.0000 </r>
       <r>   14.2166    0.0000 </r>
       <r>   15.2492    0.0000 </r>
       <r>   15.6523    0.0000 </r>
       <r>   16.4080    0.0000 </r>
       <r>   16.5532    0.0000 </r>
      </set>
      <set comment="kpoint 29">
       <r>  -15.4076    1.0000 </r>
       <r>  -15.4039    1.0000 </r>
       <r>  -15.3954    1.0000 </r>
       <r>  -15.3946    1.0000 </r>
       <r>  -15.3912    1.0000 </r>
       <r>  -15.3899    1.0000 </r>
       <r>  -15.3895    1.0000 </r>
       <r>  -15.3878    1.0000 </r>
       <r>  -15.3800    1.0000 </r>
       <r>  -15.3791    1.0000 </r>
       <r>  -15.3695    1.0000 </r>
       <r>  -15.3661    1.0000 </r>
       <r>  -15.3621    1.0000 </r>
       <r>  -15.3602    1.0000 </r>
       <r>  -15.3418    1.0000 </r>
       <r>  -15.3397    1.0000 </r>
       <r>  -15.3314    1.0000 </r>
       <r>  -15.3301    1.0000 </r>
       <r>  -15.3104    1.0000 </r>
       <r>  -15.3087    1.0000 </r>
       <r>   -7.5382    1.0000 </r>
       <r>   -7.3880    1.0000 </r>
       <r>   -6.9253    1.0000 </r>
       <r>   -6.7564    1.0000 </r>
       <r>   -2.4424    1.0000 </r>
       <r>   -2.1134    1.0000 </r>
       <r>   -1.0301    1.0000 </r>
       <r>   -0.7659    1.0000 </r>
       <r>    1.8751    1.0000 </r>
       <r>    2.8076    1.0000 </r>
       <r>    3.2847    1.0000 </r>
       <r>    3.2988    1.0000 </r>
       <r>    3.4961    1.0000 </r>
       <r>    3.9522    1.0000 </r>
       <r>    4.0740    1.0000 </r>
       <r>    4.2809    1.0000 </r>
       <r>    4.8147    1.0000 </r>
       <r>    4.9838    1.0000 </r>
       <r>    5.6230    1.0000 </r>
       <r>    5.8279    1.0000 </r>
       <r>    6.8868    0.0000 </r>
       <r>    7.3030    0.0000 </r>
       <r>    7.3932    0.0000 </r>
       <r>    7.7257    0.0000 </r>
       <r>    7.7603    0.0000 </r>
       <r>    8.1475    0.0000 </r>
       <r>    8.6022    0.0000 </r>
       <r>    9.0657    0.0000 </r>
       <r>    9.4156    0.0000 </r>
       <r>    9.4471    0.0000 </r>
       <r>   10.9302    0.0000 </r>
       <r>   11.1932    0.0000 </r>
       <r>   12.5597    0.0000 </r>
       <r>   12.8028    0.0000 </r>
       <r>   13.1946    0.0000 </r>
       <r>   13.5613    0.0000 </r>
       <r>   13.8615    0.0000 </r>
       <r>   14.3147    0.0000 </r>
       <r>   14.5738    0.0000 </r>
       <r>   14.5936    0.0000 </r>
       <r>   15.3819    0.0000 </r>
       <r>   15.5741    0.0000 </r>
       <r>   15.5850    0.0000 </r>
       <r>   16.3878    0.0000 </r>
      </set>
      <set comment="kpoint 30">
       <r>  -15.4049    1.0000 </r>
       <r>  -15.4049    1.0000 </r>
       <r>  -15.3960    1.0000 </r>
       <r>  -15.3960    1.0000 </r>
       <r>  -15.3902    1.0000 </r>
       <r>  -15.3902    1.0000 </r>
       <r>  -15.3892    1.0000 </r>
       <r>  -15.3892    1.0000 </r>
       <r>  -15.3797    1.0000 </r>
       <r>  -15.3797    1.0000 </r>
       <r>  -15.3664    1.0000 </r>
       <r>  -15.3664    1.0000 </r>
       <r>  -15.3607    1.0000 </r>
       <r>  -15.3607    1.0000 </r>
       <r>  -15.3405    1.0000 </r>
       <r>  -15.3405    1.0000 </r>
       <r>  -15.3308    1.0000 </r>
       <r>  -15.3308    1.0000 </r>
       <r>  -15.3096    1.0000 </r>
       <r>  -15.3096    1.0000 </r>
       <r>   -7.2870    1.0000 </r>
       <r>   -7.2870    1.0000 </r>
       <r>   -6.9341    1.0000 </r>
       <r>   -6.9341    1.0000 </r>
       <r>   -2.4386    1.0000 </r>
       <r>   -2.4386    1.0000 </r>
       <r>   -1.1166    1.0000 </r>
       <r>   -1.1166    1.0000 </r>
       <r>    2.4426    1.0000 </r>
       <r>    2.4426    1.0000 </r>
       <r>    3.5865    1.0000 </r>
       <r>    3.5865    1.0000 </r>
       <r>    3.7003    1.0000 </r>
       <r>    3.7003    1.0000 </r>
       <r>    4.1007    1.0000 </r>
       <r>    4.1007    1.0000 </r>
       <r>    5.3453    1.0000 </r>
       <r>    5.3453    1.0000 </r>
       <r>    5.7131    1.0000 </r>
       <r>    5.7131    1.0000 </r>
       <r>    6.9173    0.0000 </r>
       <r>    6.9173    0.0000 </r>
       <r>    7.2930    0.0000 </r>
       <r>    7.2930    0.0000 </r>
       <r>    7.5984    0.0000 </r>
       <r>    7.5984    0.0000 </r>
       <r>    8.8601    0.0000 </r>
       <r>    8.8601    0.0000 </r>
       <r>    8.8875    0.0000 </r>
       <r>    8.8875    0.0000 </r>
       <r>   11.2093    0.0000 </r>
       <r>   11.2093    0.0000 </r>
       <r>   13.4959    0.0000 </r>
       <r>   13.4959    0.0000 </r>
       <r>   14.1201    0.0000 </r>
       <r>   14.1201    0.0000 </r>
       <r>   14.2065    0.0000 </r>
       <r>   14.2065    0.0000 </r>
       <r>   14.5189    0.0000 </r>
       <r>   14.5189    0.0000 </r>
       <r>   15.7747    0.0000 </r>
       <r>   15.7747    0.0000 </r>
       <r>   15.7990    0.0000 </r>
       <r>   15.7990    0.0000 </r>
      </set>
      <set comment="kpoint 31">
       <r>  -15.4113    1.0000 </r>
       <r>  -15.4032    1.0000 </r>
       <r>  -15.3950    1.0000 </r>
       <r>  -15.3926    1.0000 </r>
       <r>  -15.3911    1.0000 </r>
       <r>  -15.3898    1.0000 </r>
       <r>  -15.3892    1.0000 </r>
       <r>  -15.3860    1.0000 </r>
       <r>  -15.3812    1.0000 </r>
       <r>  -15.3794    1.0000 </r>
       <r>  -15.3756    1.0000 </r>
       <r>  -15.3732    1.0000 </r>
       <r>  -15.3629    1.0000 </r>
       <r>  -15.3615    1.0000 </r>
       <r>  -15.3414    1.0000 </r>
       <r>  -15.3380    1.0000 </r>
       <r>  -15.3316    1.0000 </r>
       <r>  -15.3292    1.0000 </r>
       <r>  -15.3125    1.0000 </r>
       <r>  -15.3084    1.0000 </r>
       <r>   -8.0339    1.0000 </r>
       <r>   -7.8470    1.0000 </r>
       <r>   -6.8815    1.0000 </r>
       <r>   -6.6110    1.0000 </r>
       <r>   -1.4272    1.0000 </r>
       <r>   -0.9982    1.0000 </r>
       <r>    0.4376    1.0000 </r>
       <r>    0.4459    1.0000 </r>
       <r>    1.2335    1.0000 </r>
       <r>    2.1119    1.0000 </r>
       <r>    2.3377    1.0000 </r>
       <r>    2.6594    1.0000 </r>
       <r>    2.8626    1.0000 </r>
       <r>    3.1461    1.0000 </r>
       <r>    3.6645    1.0000 </r>
       <r>    3.7608    1.0000 </r>
       <r>    4.0656    1.0000 </r>
       <r>    4.1074    1.0000 </r>
       <r>    5.2638    1.0000 </r>
       <r>    5.2979    1.0000 </r>
       <r>    7.7335    0.0000 </r>
       <r>    8.4440    0.0000 </r>
       <r>    8.6700    0.0000 </r>
       <r>    8.9371    0.0000 </r>
       <r>    9.0911    0.0000 </r>
       <r>    9.4219    0.0000 </r>
       <r>    9.4297    0.0000 </r>
       <r>    9.9579    0.0000 </r>
       <r>   10.5458    0.0000 </r>
       <r>   11.0278    0.0000 </r>
       <r>   11.0334    0.0000 </r>
       <r>   11.3018    0.0000 </r>
       <r>   11.4925    0.0000 </r>
       <r>   11.6224    0.0000 </r>
       <r>   11.8244    0.0000 </r>
       <r>   12.2267    0.0000 </r>
       <r>   12.5748    0.0000 </r>
       <r>   13.5799    0.0000 </r>
       <r>   13.8694    0.0000 </r>
       <r>   14.3827    0.0000 </r>
       <r>   15.2743    0.0000 </r>
       <r>   15.2977    0.0000 </r>
       <r>   15.3389    0.0000 </r>
       <r>   15.4532    0.0000 </r>
      </set>
      <set comment="kpoint 32">
       <r>  -15.4106    1.0000 </r>
       <r>  -15.4029    1.0000 </r>
       <r>  -15.3939    1.0000 </r>
       <r>  -15.3923    1.0000 </r>
       <r>  -15.3916    1.0000 </r>
       <r>  -15.3907    1.0000 </r>
       <r>  -15.3893    1.0000 </r>
       <r>  -15.3864    1.0000 </r>
       <r>  -15.3815    1.0000 </r>
       <r>  -15.3800    1.0000 </r>
       <r>  -15.3744    1.0000 </r>
       <r>  -15.3716    1.0000 </r>
       <r>  -15.3625    1.0000 </r>
       <r>  -15.3613    1.0000 </r>
       <r>  -15.3415    1.0000 </r>
       <r>  -15.3379    1.0000 </r>
       <r>  -15.3319    1.0000 </r>
       <r>  -15.3296    1.0000 </r>
       <r>  -15.3123    1.0000 </r>
       <r>  -15.3086    1.0000 </r>
       <r>   -7.9621    1.0000 </r>
       <r>   -7.7790    1.0000 </r>
       <r>   -6.8660    1.0000 </r>
       <r>   -6.6105    1.0000 </r>
       <r>   -1.6272    1.0000 </r>
       <r>   -1.1535    1.0000 </r>
       <r>    0.0965    1.0000 </r>
       <r>    0.2645    1.0000 </r>
       <r>    1.2990    1.0000 </r>
       <r>    2.0353    1.0000 </r>
       <r>    2.2527    1.0000 </r>
       <r>    2.5819    1.0000 </r>
       <r>    3.0802    1.0000 </r>
       <r>    3.4280    1.0000 </r>
       <r>    3.5896    1.0000 </r>
       <r>    3.7470    1.0000 </r>
       <r>    4.4870    1.0000 </r>
       <r>    4.7382    1.0000 </r>
       <r>    5.1634    1.0000 </r>
       <r>    5.3212    1.0000 </r>
       <r>    7.6583    0.0000 </r>
       <r>    7.9228    0.0000 </r>
       <r>    8.3099    0.0000 </r>
       <r>    8.7461    0.0000 </r>
       <r>    8.9103    0.0000 </r>
       <r>    9.2032    0.0000 </r>
       <r>    9.6486    0.0000 </r>
       <r>    9.9729    0.0000 </r>
       <r>   10.3111    0.0000 </r>
       <r>   10.4886    0.0000 </r>
       <r>   10.8800    0.0000 </r>
       <r>   10.9879    0.0000 </r>
       <r>   11.7559    0.0000 </r>
       <r>   12.0165    0.0000 </r>
       <r>   12.1295    0.0000 </r>
       <r>   12.5174    0.0000 </r>
       <r>   12.9677    0.0000 </r>
       <r>   13.7373    0.0000 </r>
       <r>   14.0827    0.0000 </r>
       <r>   14.6225    0.0000 </r>
       <r>   14.8201    0.0000 </r>
       <r>   15.2144    0.0000 </r>
       <r>   15.5436    0.0000 </r>
       <r>   15.7670    0.0000 </r>
      </set>
      <set comment="kpoint 33">
       <r>  -15.4085    1.0000 </r>
       <r>  -15.4022    1.0000 </r>
       <r>  -15.3953    1.0000 </r>
       <r>  -15.3942    1.0000 </r>
       <r>  -15.3909    1.0000 </r>
       <r>  -15.3899    1.0000 </r>
       <r>  -15.3896    1.0000 </r>
       <r>  -15.3870    1.0000 </r>
       <r>  -15.3822    1.0000 </r>
       <r>  -15.3809    1.0000 </r>
       <r>  -15.3717    1.0000 </r>
       <r>  -15.3681    1.0000 </r>
       <r>  -15.3618    1.0000 </r>
       <r>  -15.3599    1.0000 </r>
       <r>  -15.3413    1.0000 </r>
       <r>  -15.3379    1.0000 </r>
       <r>  -15.3324    1.0000 </r>
       <r>  -15.3304    1.0000 </r>
       <r>  -15.3118    1.0000 </r>
       <r>  -15.3090    1.0000 </r>
       <r>   -7.7607    1.0000 </r>
       <r>   -7.5894    1.0000 </r>
       <r>   -6.8479    1.0000 </r>
       <r>   -6.6327    1.0000 </r>
       <r>   -2.0490    1.0000 </r>
       <r>   -1.5679    1.0000 </r>
       <r>   -0.5138    1.0000 </r>
       <r>   -0.2096    1.0000 </r>
       <r>    1.5023    1.0000 </r>
       <r>    2.0503    1.0000 </r>
       <r>    2.2727    1.0000 </r>
       <r>    2.9130    1.0000 </r>
       <r>    3.0823    1.0000 </r>
       <r>    3.4464    1.0000 </r>
       <r>    4.0496    1.0000 </r>
       <r>    4.2127    1.0000 </r>
       <r>    4.9363    1.0000 </r>
       <r>    5.0687    1.0000 </r>
       <r>    5.1753    1.0000 </r>
       <r>    5.3814    1.0000 </r>
       <r>    7.2685    0.0000 </r>
       <r>    7.4297    0.0000 </r>
       <r>    7.8560    0.0000 </r>
       <r>    8.0325    0.0000 </r>
       <r>    8.6661    0.0000 </r>
       <r>    9.0152    0.0000 </r>
       <r>    9.3457    0.0000 </r>
       <r>    9.5138    0.0000 </r>
       <r>   10.1585    0.0000 </r>
       <r>   10.3085    0.0000 </r>
       <r>   10.8467    0.0000 </r>
       <r>   10.9396    0.0000 </r>
       <r>   12.0083    0.0000 </r>
       <r>   12.0985    0.0000 </r>
       <r>   12.8971    0.0000 </r>
       <r>   12.9861    0.0000 </r>
       <r>   13.4070    0.0000 </r>
       <r>   13.8823    0.0000 </r>
       <r>   14.1744    0.0000 </r>
       <r>   14.7458    0.0000 </r>
       <r>   14.9072    0.0000 </r>
       <r>   15.5214    0.0000 </r>
       <r>   15.8909    0.0000 </r>
       <r>   16.2313    0.0000 </r>
      </set>
      <set comment="kpoint 34">
       <r>  -15.4058    1.0000 </r>
       <r>  -15.4018    1.0000 </r>
       <r>  -15.3985    1.0000 </r>
       <r>  -15.3971    1.0000 </r>
       <r>  -15.3908    1.0000 </r>
       <r>  -15.3906    1.0000 </r>
       <r>  -15.3881    1.0000 </r>
       <r>  -15.3867    1.0000 </r>
       <r>  -15.3825    1.0000 </r>
       <r>  -15.3817    1.0000 </r>
       <r>  -15.3685    1.0000 </r>
       <r>  -15.3656    1.0000 </r>
       <r>  -15.3604    1.0000 </r>
       <r>  -15.3586    1.0000 </r>
       <r>  -15.3403    1.0000 </r>
       <r>  -15.3382    1.0000 </r>
       <r>  -15.3324    1.0000 </r>
       <r>  -15.3313    1.0000 </r>
       <r>  -15.3111    1.0000 </r>
       <r>  -15.3096    1.0000 </r>
       <r>   -7.4784    1.0000 </r>
       <r>   -7.3334    1.0000 </r>
       <r>   -6.8900    1.0000 </r>
       <r>   -6.7301    1.0000 </r>
       <r>   -2.3579    1.0000 </r>
       <r>   -2.0346    1.0000 </r>
       <r>   -0.9724    1.0000 </r>
       <r>   -0.7324    1.0000 </r>
       <r>    1.8727    1.0000 </r>
       <r>    2.3418    1.0000 </r>
       <r>    2.6207    1.0000 </r>
       <r>    3.0216    1.0000 </r>
       <r>    3.3336    1.0000 </r>
       <r>    3.4499    1.0000 </r>
       <r>    3.8558    1.0000 </r>
       <r>    4.3326    1.0000 </r>
       <r>    4.9526    1.0000 </r>
       <r>    5.1399    1.0000 </r>
       <r>    5.2928    1.0000 </r>
       <r>    5.3887    1.0000 </r>
       <r>    7.0859    0.0000 </r>
       <r>    7.3405    0.0000 </r>
       <r>    7.5804    0.0000 </r>
       <r>    7.9338    0.0000 </r>
       <r>    8.2263    0.0000 </r>
       <r>    8.6533    0.0000 </r>
       <r>    8.7354    0.0000 </r>
       <r>    9.0361    0.0000 </r>
       <r>   10.0376    0.0000 </r>
       <r>   10.1932    0.0000 </r>
       <r>   10.8180    0.0000 </r>
       <r>   11.0846    0.0000 </r>
       <r>   12.5970    0.0000 </r>
       <r>   12.8864    0.0000 </r>
       <r>   13.1287    0.0000 </r>
       <r>   13.3941    0.0000 </r>
       <r>   13.9252    0.0000 </r>
       <r>   14.2754    0.0000 </r>
       <r>   14.4522    0.0000 </r>
       <r>   14.6455    0.0000 </r>
       <r>   15.3110    0.0000 </r>
       <r>   15.6872    0.0000 </r>
       <r>   15.9468    0.0000 </r>
       <r>   16.6468    0.0000 </r>
      </set>
      <set comment="kpoint 35">
       <r>  -15.4032    1.0000 </r>
       <r>  -15.4032    1.0000 </r>
       <r>  -15.3990    1.0000 </r>
       <r>  -15.3990    1.0000 </r>
       <r>  -15.3911    1.0000 </r>
       <r>  -15.3911    1.0000 </r>
       <r>  -15.3870    1.0000 </r>
       <r>  -15.3870    1.0000 </r>
       <r>  -15.3823    1.0000 </r>
       <r>  -15.3823    1.0000 </r>
       <r>  -15.3660    1.0000 </r>
       <r>  -15.3660    1.0000 </r>
       <r>  -15.3588    1.0000 </r>
       <r>  -15.3588    1.0000 </r>
       <r>  -15.3390    1.0000 </r>
       <r>  -15.3390    1.0000 </r>
       <r>  -15.3319    1.0000 </r>
       <r>  -15.3319    1.0000 </r>
       <r>  -15.3103    1.0000 </r>
       <r>  -15.3103    1.0000 </r>
       <r>   -7.2350    1.0000 </r>
       <r>   -7.2350    1.0000 </r>
       <r>   -6.8974    1.0000 </r>
       <r>   -6.8974    1.0000 </r>
       <r>   -2.3477    1.0000 </r>
       <r>   -2.3477    1.0000 </r>
       <r>   -1.0454    1.0000 </r>
       <r>   -1.0454    1.0000 </r>
       <r>    2.3420    1.0000 </r>
       <r>    2.3420    1.0000 </r>
       <r>    2.9726    1.0000 </r>
       <r>    2.9726    1.0000 </r>
       <r>    3.3245    1.0000 </r>
       <r>    3.3245    1.0000 </r>
       <r>    3.9631    1.0000 </r>
       <r>    3.9631    1.0000 </r>
       <r>    5.0220    1.0000 </r>
       <r>    5.0220    1.0000 </r>
       <r>    5.3795    1.0000 </r>
       <r>    5.3795    1.0000 </r>
       <r>    7.2373    0.0000 </r>
       <r>    7.2373    0.0000 </r>
       <r>    7.6513    0.0000 </r>
       <r>    7.6513    0.0000 </r>
       <r>    8.2404    0.0000 </r>
       <r>    8.2404    0.0000 </r>
       <r>    8.9049    0.0000 </r>
       <r>    8.9049    0.0000 </r>
       <r>    9.7823    0.0000 </r>
       <r>    9.7823    0.0000 </r>
       <r>   11.0609    0.0000 </r>
       <r>   11.0609    0.0000 </r>
       <r>   12.8154    0.0000 </r>
       <r>   12.8154    0.0000 </r>
       <r>   13.9277    0.0000 </r>
       <r>   13.9277    0.0000 </r>
       <r>   14.3129    0.0000 </r>
       <r>   14.3129    0.0000 </r>
       <r>   15.2134    0.0000 </r>
       <r>   15.2134    0.0000 </r>
       <r>   15.7485    0.0000 </r>
       <r>   15.7485    0.0000 </r>
       <r>   15.9371    0.0000 </r>
       <r>   15.9371    0.0000 </r>
      </set>
      <set comment="kpoint 36">
       <r>  -15.4032    1.0000 </r>
       <r>  -15.3995    1.0000 </r>
       <r>  -15.3935    1.0000 </r>
       <r>  -15.3924    1.0000 </r>
       <r>  -15.3915    1.0000 </r>
       <r>  -15.3901    1.0000 </r>
       <r>  -15.3894    1.0000 </r>
       <r>  -15.3887    1.0000 </r>
       <r>  -15.3853    1.0000 </r>
       <r>  -15.3843    1.0000 </r>
       <r>  -15.3724    1.0000 </r>
       <r>  -15.3693    1.0000 </r>
       <r>  -15.3607    1.0000 </r>
       <r>  -15.3595    1.0000 </r>
       <r>  -15.3381    1.0000 </r>
       <r>  -15.3376    1.0000 </r>
       <r>  -15.3326    1.0000 </r>
       <r>  -15.3314    1.0000 </r>
       <r>  -15.3142    1.0000 </r>
       <r>  -15.3116    1.0000 </r>
       <r>   -7.8318    1.0000 </r>
       <r>   -7.6614    1.0000 </r>
       <r>   -6.8189    1.0000 </r>
       <r>   -6.6035    1.0000 </r>
       <r>   -1.7221    1.0000 </r>
       <r>   -1.3344    1.0000 </r>
       <r>   -0.3483    1.0000 </r>
       <r>   -0.1772    1.0000 </r>
       <r>    1.3740    1.0000 </r>
       <r>    2.3089    1.0000 </r>
       <r>    2.5048    1.0000 </r>
       <r>    2.7815    1.0000 </r>
       <r>    3.2010    1.0000 </r>
       <r>    3.3842    1.0000 </r>
       <r>    3.8041    1.0000 </r>
       <r>    3.9010    1.0000 </r>
       <r>    4.2013    1.0000 </r>
       <r>    4.5062    1.0000 </r>
       <r>    5.2544    1.0000 </r>
       <r>    5.3966    1.0000 </r>
       <r>    7.3214    0.0000 </r>
       <r>    8.0106    0.0000 </r>
       <r>    8.0463    0.0000 </r>
       <r>    8.4882    0.0000 </r>
       <r>    8.6510    0.0000 </r>
       <r>    9.1818    0.0000 </r>
       <r>    9.2826    0.0000 </r>
       <r>    9.8855    0.0000 </r>
       <r>   10.0608    0.0000 </r>
       <r>   10.4689    0.0000 </r>
       <r>   10.6010    0.0000 </r>
       <r>   10.6423    0.0000 </r>
       <r>   11.2845    0.0000 </r>
       <r>   11.4476    0.0000 </r>
       <r>   12.3632    0.0000 </r>
       <r>   12.3744    0.0000 </r>
       <r>   12.9010    0.0000 </r>
       <r>   13.4663    0.0000 </r>
       <r>   14.5333    0.0000 </r>
       <r>   14.7543    0.0000 </r>
       <r>   15.8068    0.0000 </r>
       <r>   15.9456    0.0000 </r>
       <r>   16.0147    0.0000 </r>
       <r>   16.4094    0.0000 </r>
      </set>
      <set comment="kpoint 37">
       <r>  -15.4039    1.0000 </r>
       <r>  -15.4001    1.0000 </r>
       <r>  -15.3950    1.0000 </r>
       <r>  -15.3926    1.0000 </r>
       <r>  -15.3916    1.0000 </r>
       <r>  -15.3898    1.0000 </r>
       <r>  -15.3894    1.0000 </r>
       <r>  -15.3876    1.0000 </r>
       <r>  -15.3856    1.0000 </r>
       <r>  -15.3842    1.0000 </r>
       <r>  -15.3715    1.0000 </r>
       <r>  -15.3681    1.0000 </r>
       <r>  -15.3607    1.0000 </r>
       <r>  -15.3586    1.0000 </r>
       <r>  -15.3382    1.0000 </r>
       <r>  -15.3372    1.0000 </r>
       <r>  -15.3329    1.0000 </r>
       <r>  -15.3319    1.0000 </r>
       <r>  -15.3140    1.0000 </r>
       <r>  -15.3116    1.0000 </r>
       <r>   -7.7633    1.0000 </r>
       <r>   -7.5968    1.0000 </r>
       <r>   -6.8019    1.0000 </r>
       <r>   -6.5979    1.0000 </r>
       <r>   -1.7788    1.0000 </r>
       <r>   -1.3487    1.0000 </r>
       <r>   -0.4124    1.0000 </r>
       <r>   -0.2850    1.0000 </r>
       <r>    1.4331    1.0000 </r>
       <r>    1.8186    1.0000 </r>
       <r>    2.1434    1.0000 </r>
       <r>    2.6484    1.0000 </r>
       <r>    2.9998    1.0000 </r>
       <r>    3.3782    1.0000 </r>
       <r>    3.9251    1.0000 </r>
       <r>    4.0178    1.0000 </r>
       <r>    4.7212    1.0000 </r>
       <r>    4.8861    1.0000 </r>
       <r>    5.2698    1.0000 </r>
       <r>    5.3743    1.0000 </r>
       <r>    7.1269    0.0000 </r>
       <r>    7.3815    0.0000 </r>
       <r>    8.0501    0.0000 </r>
       <r>    8.2611    0.0000 </r>
       <r>    8.7463    0.0000 </r>
       <r>    9.0465    0.0000 </r>
       <r>    9.4583    0.0000 </r>
       <r>    9.6360    0.0000 </r>
       <r>   10.0719    0.0000 </r>
       <r>   10.4272    0.0000 </r>
       <r>   10.6951    0.0000 </r>
       <r>   10.9834    0.0000 </r>
       <r>   11.8429    0.0000 </r>
       <r>   12.2741    0.0000 </r>
       <r>   12.6955    0.0000 </r>
       <r>   12.7149    0.0000 </r>
       <r>   13.1172    0.0000 </r>
       <r>   13.7662    0.0000 </r>
       <r>   14.3561    0.0000 </r>
       <r>   14.6480    0.0000 </r>
       <r>   15.1771    0.0000 </r>
       <r>   15.5784    0.0000 </r>
       <r>   15.7775    0.0000 </r>
       <r>   16.0065    0.0000 </r>
      </set>
      <set comment="kpoint 38">
       <r>  -15.4057    1.0000 </r>
       <r>  -15.4016    1.0000 </r>
       <r>  -15.3988    1.0000 </r>
       <r>  -15.3958    1.0000 </r>
       <r>  -15.3904    1.0000 </r>
       <r>  -15.3894    1.0000 </r>
       <r>  -15.3885    1.0000 </r>
       <r>  -15.3861    1.0000 </r>
       <r>  -15.3848    1.0000 </r>
       <r>  -15.3839    1.0000 </r>
       <r>  -15.3698    1.0000 </r>
       <r>  -15.3661    1.0000 </r>
       <r>  -15.3592    1.0000 </r>
       <r>  -15.3567    1.0000 </r>
       <r>  -15.3379    1.0000 </r>
       <r>  -15.3363    1.0000 </r>
       <r>  -15.3335    1.0000 </r>
       <r>  -15.3331    1.0000 </r>
       <r>  -15.3134    1.0000 </r>
       <r>  -15.3116    1.0000 </r>
       <r>   -7.5729    1.0000 </r>
       <r>   -7.4188    1.0000 </r>
       <r>   -6.7770    1.0000 </r>
       <r>   -6.6033    1.0000 </r>
       <r>   -1.9491    1.0000 </r>
       <r>   -1.4896    1.0000 </r>
       <r>   -0.6436    1.0000 </r>
       <r>   -0.4652    1.0000 </r>
       <r>    1.3794    1.0000 </r>
       <r>    1.5034    1.0000 </r>
       <r>    1.9150    1.0000 </r>
       <r>    2.5291    1.0000 </r>
       <r>    2.5729    1.0000 </r>
       <r>    3.2052    1.0000 </r>
       <r>    4.1300    1.0000 </r>
       <r>    4.3910    1.0000 </r>
       <r>    4.4671    1.0000 </r>
       <r>    4.6210    1.0000 </r>
       <r>    5.2655    1.0000 </r>
       <r>    5.4132    1.0000 </r>
       <r>    7.2667    0.0000 </r>
       <r>    7.6545    0.0000 </r>
       <r>    7.7555    0.0000 </r>
       <r>    8.1917    0.0000 </r>
       <r>    8.4660    0.0000 </r>
       <r>    8.8993    0.0000 </r>
       <r>    9.3343    0.0000 </r>
       <r>    9.9096    0.0000 </r>
       <r>   10.4300    0.0000 </r>
       <r>   10.7867    0.0000 </r>
       <r>   11.0407    0.0000 </r>
       <r>   11.1707    0.0000 </r>
       <r>   12.2089    0.0000 </r>
       <r>   13.0030    0.0000 </r>
       <r>   13.3264    0.0000 </r>
       <r>   13.4049    0.0000 </r>
       <r>   13.6511    0.0000 </r>
       <r>   13.9335    0.0000 </r>
       <r>   14.2094    0.0000 </r>
       <r>   14.6645    0.0000 </r>
       <r>   14.8624    0.0000 </r>
       <r>   15.2752    0.0000 </r>
       <r>   15.9802    0.0000 </r>
       <r>   16.1172    0.0000 </r>
      </set>
      <set comment="kpoint 39">
       <r>  -15.4074    1.0000 </r>
       <r>  -15.4048    1.0000 </r>
       <r>  -15.4013    1.0000 </r>
       <r>  -15.3994    1.0000 </r>
       <r>  -15.3899    1.0000 </r>
       <r>  -15.3889    1.0000 </r>
       <r>  -15.3882    1.0000 </r>
       <r>  -15.3857    1.0000 </r>
       <r>  -15.3833    1.0000 </r>
       <r>  -15.3827    1.0000 </r>
       <r>  -15.3677    1.0000 </r>
       <r>  -15.3653    1.0000 </r>
       <r>  -15.3563    1.0000 </r>
       <r>  -15.3548    1.0000 </r>
       <r>  -15.3368    1.0000 </r>
       <r>  -15.3353    1.0000 </r>
       <r>  -15.3343    1.0000 </r>
       <r>  -15.3339    1.0000 </r>
       <r>  -15.3127    1.0000 </r>
       <r>  -15.3117    1.0000 </r>
       <r>   -7.3115    1.0000 </r>
       <r>   -7.1833    1.0000 </r>
       <r>   -6.8023    1.0000 </r>
       <r>   -6.6704    1.0000 </r>
       <r>   -2.1165    1.0000 </r>
       <r>   -1.8142    1.0000 </r>
       <r>   -0.8409    1.0000 </r>
       <r>   -0.6848    1.0000 </r>
       <r>    1.4154    1.0000 </r>
       <r>    1.5587    1.0000 </r>
       <r>    2.1590    1.0000 </r>
       <r>    2.3084    1.0000 </r>
       <r>    2.5561    1.0000 </r>
       <r>    3.2763    1.0000 </r>
       <r>    3.6999    1.0000 </r>
       <r>    3.8824    1.0000 </r>
       <r>    4.1380    1.0000 </r>
       <r>    4.2130    1.0000 </r>
       <r>    4.9668    1.0000 </r>
       <r>    5.2056    1.0000 </r>
       <r>    7.4385    0.0000 </r>
       <r>    8.0062    0.0000 </r>
       <r>    8.2033    0.0000 </r>
       <r>    8.3732    0.0000 </r>
       <r>    8.9804    0.0000 </r>
       <r>    9.2146    0.0000 </r>
       <r>    9.4261    0.0000 </r>
       <r>    9.9310    0.0000 </r>
       <r>   10.4603    0.0000 </r>
       <r>   10.7876    0.0000 </r>
       <r>   11.1464    0.0000 </r>
       <r>   11.2865    0.0000 </r>
       <r>   12.1927    0.0000 </r>
       <r>   12.6502    0.0000 </r>
       <r>   13.2294    0.0000 </r>
       <r>   13.8131    0.0000 </r>
       <r>   14.0056    0.0000 </r>
       <r>   14.3775    0.0000 </r>
       <r>   14.9409    0.0000 </r>
       <r>   15.1283    0.0000 </r>
       <r>   15.4624    0.0000 </r>
       <r>   15.6127    0.0000 </r>
       <r>   16.5812    0.0000 </r>
       <r>   17.0012    0.0000 </r>
      </set>
      <set comment="kpoint 40">
       <r>  -15.4073    1.0000 </r>
       <r>  -15.4073    1.0000 </r>
       <r>  -15.4015    1.0000 </r>
       <r>  -15.4015    1.0000 </r>
       <r>  -15.3894    1.0000 </r>
       <r>  -15.3894    1.0000 </r>
       <r>  -15.3869    1.0000 </r>
       <r>  -15.3869    1.0000 </r>
       <r>  -15.3823    1.0000 </r>
       <r>  -15.3823    1.0000 </r>
       <r>  -15.3660    1.0000 </r>
       <r>  -15.3660    1.0000 </r>
       <r>  -15.3545    1.0000 </r>
       <r>  -15.3545    1.0000 </r>
       <r>  -15.3355    1.0000 </r>
       <r>  -15.3355    1.0000 </r>
       <r>  -15.3345    1.0000 </r>
       <r>  -15.3345    1.0000 </r>
       <r>  -15.3121    1.0000 </r>
       <r>  -15.3121    1.0000 </r>
       <r>   -7.0933    1.0000 </r>
       <r>   -7.0933    1.0000 </r>
       <r>   -6.8045    1.0000 </r>
       <r>   -6.8045    1.0000 </r>
       <r>   -2.0832    1.0000 </r>
       <r>   -2.0832    1.0000 </r>
       <r>   -0.8601    1.0000 </r>
       <r>   -0.8601    1.0000 </r>
       <r>    1.7771    1.0000 </r>
       <r>    1.7771    1.0000 </r>
       <r>    2.0041    1.0000 </r>
       <r>    2.0041    1.0000 </r>
       <r>    2.9439    1.0000 </r>
       <r>    2.9439    1.0000 </r>
       <r>    3.6562    1.0000 </r>
       <r>    3.6562    1.0000 </r>
       <r>    4.0264    1.0000 </r>
       <r>    4.0264    1.0000 </r>
       <r>    4.8194    1.0000 </r>
       <r>    4.8194    1.0000 </r>
       <r>    7.7741    0.0000 </r>
       <r>    7.7741    0.0000 </r>
       <r>    8.7684    0.0000 </r>
       <r>    8.7684    0.0000 </r>
       <r>    9.0266    0.0000 </r>
       <r>    9.0266    0.0000 </r>
       <r>    9.9061    0.0000 </r>
       <r>    9.9061    0.0000 </r>
       <r>   10.6412    0.0000 </r>
       <r>   10.6412    0.0000 </r>
       <r>   10.9710    0.0000 </r>
       <r>   10.9710    0.0000 </r>
       <r>   12.2873    0.0000 </r>
       <r>   12.2873    0.0000 </r>
       <r>   13.4961    0.0000 </r>
       <r>   13.4961    0.0000 </r>
       <r>   14.6903    0.0000 </r>
       <r>   14.6903    0.0000 </r>
       <r>   15.8860    0.0000 </r>
       <r>   15.8860    0.0000 </r>
       <r>   16.0253    0.0000 </r>
       <r>   16.0253    0.0000 </r>
       <r>   16.6273    0.0000 </r>
       <r>   16.6273    0.0000 </r>
      </set>
      <set comment="kpoint 41">
       <r>  -15.4017    1.0000 </r>
       <r>  -15.4000    1.0000 </r>
       <r>  -15.3966    1.0000 </r>
       <r>  -15.3945    1.0000 </r>
       <r>  -15.3886    1.0000 </r>
       <r>  -15.3886    1.0000 </r>
       <r>  -15.3879    1.0000 </r>
       <r>  -15.3879    1.0000 </r>
       <r>  -15.3857    1.0000 </r>
       <r>  -15.3817    1.0000 </r>
       <r>  -15.3701    1.0000 </r>
       <r>  -15.3671    1.0000 </r>
       <r>  -15.3585    1.0000 </r>
       <r>  -15.3556    1.0000 </r>
       <r>  -15.3414    1.0000 </r>
       <r>  -15.3407    1.0000 </r>
       <r>  -15.3311    1.0000 </r>
       <r>  -15.3278    1.0000 </r>
       <r>  -15.3161    1.0000 </r>
       <r>  -15.3153    1.0000 </r>
       <r>   -7.5263    1.0000 </r>
       <r>   -7.3891    1.0000 </r>
       <r>   -6.7883    1.0000 </r>
       <r>   -6.6652    1.0000 </r>
       <r>   -2.0093    1.0000 </r>
       <r>   -1.6481    1.0000 </r>
       <r>   -1.1515    1.0000 </r>
       <r>   -0.8535    1.0000 </r>
       <r>    1.7217    1.0000 </r>
       <r>    2.6690    1.0000 </r>
       <r>    2.8500    1.0000 </r>
       <r>    3.0858    1.0000 </r>
       <r>    3.2944    1.0000 </r>
       <r>    3.7180    1.0000 </r>
       <r>    3.9675    1.0000 </r>
       <r>    4.0238    1.0000 </r>
       <r>    4.3132    1.0000 </r>
       <r>    4.5096    1.0000 </r>
       <r>    5.3042    1.0000 </r>
       <r>    5.6055    1.0000 </r>
       <r>    6.6035    0.0000 </r>
       <r>    7.1271    0.0000 </r>
       <r>    7.8382    0.0000 </r>
       <r>    7.8676    0.0000 </r>
       <r>    8.3342    0.0000 </r>
       <r>    8.5471    0.0000 </r>
       <r>    8.5674    0.0000 </r>
       <r>    9.1030    0.0000 </r>
       <r>    9.3407    0.0000 </r>
       <r>    9.9428    0.0000 </r>
       <r>   10.0607    0.0000 </r>
       <r>   10.4874    0.0000 </r>
       <r>   12.4106    0.0000 </r>
       <r>   12.7520    0.0000 </r>
       <r>   12.7535    0.0000 </r>
       <r>   13.4023    0.0000 </r>
       <r>   13.7914    0.0000 </r>
       <r>   14.1122    0.0000 </r>
       <r>   14.4919    0.0000 </r>
       <r>   15.0951    0.0000 </r>
       <r>   15.1882    0.0000 </r>
       <r>   15.4182    0.0000 </r>
       <r>   16.3736    0.0000 </r>
       <r>   16.4814    0.0000 </r>
      </set>
      <set comment="kpoint 42">
       <r>  -15.4041    1.0000 </r>
       <r>  -15.4014    1.0000 </r>
       <r>  -15.3989    1.0000 </r>
       <r>  -15.3962    1.0000 </r>
       <r>  -15.3895    1.0000 </r>
       <r>  -15.3883    1.0000 </r>
       <r>  -15.3866    1.0000 </r>
       <r>  -15.3860    1.0000 </r>
       <r>  -15.3848    1.0000 </r>
       <r>  -15.3810    1.0000 </r>
       <r>  -15.3698    1.0000 </r>
       <r>  -15.3668    1.0000 </r>
       <r>  -15.3576    1.0000 </r>
       <r>  -15.3548    1.0000 </r>
       <r>  -15.3410    1.0000 </r>
       <r>  -15.3403    1.0000 </r>
       <r>  -15.3312    1.0000 </r>
       <r>  -15.3281    1.0000 </r>
       <r>  -15.3159    1.0000 </r>
       <r>  -15.3152    1.0000 </r>
       <r>   -7.4647    1.0000 </r>
       <r>   -7.3317    1.0000 </r>
       <r>   -6.7665    1.0000 </r>
       <r>   -6.6489    1.0000 </r>
       <r>   -1.9564    1.0000 </r>
       <r>   -1.5768    1.0000 </r>
       <r>   -1.1039    1.0000 </r>
       <r>   -0.8572    1.0000 </r>
       <r>    1.7116    1.0000 </r>
       <r>    1.9088    1.0000 </r>
       <r>    2.3667    1.0000 </r>
       <r>    2.8223    1.0000 </r>
       <r>    3.1508    1.0000 </r>
       <r>    3.4088    1.0000 </r>
       <r>    3.8713    1.0000 </r>
       <r>    4.2288    1.0000 </r>
       <r>    4.6030    1.0000 </r>
       <r>    4.6587    1.0000 </r>
       <r>    5.0639    1.0000 </r>
       <r>    5.1884    1.0000 </r>
       <r>    7.1379    0.0000 </r>
       <r>    7.2100    0.0000 </r>
       <r>    7.5606    0.0000 </r>
       <r>    7.7776    0.0000 </r>
       <r>    8.5190    0.0000 </r>
       <r>    8.8091    0.0000 </r>
       <r>    8.9407    0.0000 </r>
       <r>    9.3675    0.0000 </r>
       <r>    9.7546    0.0000 </r>
       <r>   10.2093    0.0000 </r>
       <r>   10.5371    0.0000 </r>
       <r>   10.7549    0.0000 </r>
       <r>   12.2592    0.0000 </r>
       <r>   12.8875    0.0000 </r>
       <r>   13.1850    0.0000 </r>
       <r>   13.5433    0.0000 </r>
       <r>   13.8572    0.0000 </r>
       <r>   13.8927    0.0000 </r>
       <r>   14.2845    0.0000 </r>
       <r>   14.9401    0.0000 </r>
       <r>   15.3065    0.0000 </r>
       <r>   15.4512    0.0000 </r>
       <r>   16.5035    0.0000 </r>
       <r>   16.6895    0.0000 </r>
      </set>
      <set comment="kpoint 43">
       <r>  -15.4090    1.0000 </r>
       <r>  -15.4059    1.0000 </r>
       <r>  -15.4031    1.0000 </r>
       <r>  -15.4006    1.0000 </r>
       <r>  -15.3900    1.0000 </r>
       <r>  -15.3886    1.0000 </r>
       <r>  -15.3839    1.0000 </r>
       <r>  -15.3835    1.0000 </r>
       <r>  -15.3825    1.0000 </r>
       <r>  -15.3799    1.0000 </r>
       <r>  -15.3690    1.0000 </r>
       <r>  -15.3663    1.0000 </r>
       <r>  -15.3547    1.0000 </r>
       <r>  -15.3526    1.0000 </r>
       <r>  -15.3400    1.0000 </r>
       <r>  -15.3393    1.0000 </r>
       <r>  -15.3312    1.0000 </r>
       <r>  -15.3288    1.0000 </r>
       <r>  -15.3155    1.0000 </r>
       <r>  -15.3149    1.0000 </r>
       <r>   -7.2970    1.0000 </r>
       <r>   -7.1764    1.0000 </r>
       <r>   -6.7239    1.0000 </r>
       <r>   -6.6205    1.0000 </r>
       <r>   -1.8436    1.0000 </r>
       <r>   -1.4454    1.0000 </r>
       <r>   -0.9801    1.0000 </r>
       <r>   -0.8603    1.0000 </r>
       <r>    1.1568    1.0000 </r>
       <r>    1.3689    1.0000 </r>
       <r>    2.1098    1.0000 </r>
       <r>    2.2387    1.0000 </r>
       <r>    2.4248    1.0000 </r>
       <r>    3.1049    1.0000 </r>
       <r>    3.6074    1.0000 </r>
       <r>    3.8505    1.0000 </r>
       <r>    3.9742    1.0000 </r>
       <r>    4.2962    1.0000 </r>
       <r>    4.7946    1.0000 </r>
       <r>    5.2167    1.0000 </r>
       <r>    7.3062    0.0000 </r>
       <r>    7.8872    0.0000 </r>
       <r>    8.2288    0.0000 </r>
       <r>    8.4219    0.0000 </r>
       <r>    8.7688    0.0000 </r>
       <r>    8.9501    0.0000 </r>
       <r>    9.7426    0.0000 </r>
       <r>   10.0090    0.0000 </r>
       <r>   10.2003    0.0000 </r>
       <r>   10.4824    0.0000 </r>
       <r>   11.4380    0.0000 </r>
       <r>   11.6655    0.0000 </r>
       <r>   12.1591    0.0000 </r>
       <r>   12.6554    0.0000 </r>
       <r>   13.3276    0.0000 </r>
       <r>   13.9483    0.0000 </r>
       <r>   14.1914    0.0000 </r>
       <r>   14.2977    0.0000 </r>
       <r>   14.6390    0.0000 </r>
       <r>   14.8866    0.0000 </r>
       <r>   15.4089    0.0000 </r>
       <r>   16.0073    0.0000 </r>
       <r>   16.1482    0.0000 </r>
       <r>   16.5279    0.0000 </r>
      </set>
      <set comment="kpoint 44">
       <r>  -15.4131    1.0000 </r>
       <r>  -15.4112    1.0000 </r>
       <r>  -15.4066    1.0000 </r>
       <r>  -15.4051    1.0000 </r>
       <r>  -15.3901    1.0000 </r>
       <r>  -15.3892    1.0000 </r>
       <r>  -15.3820    1.0000 </r>
       <r>  -15.3816    1.0000 </r>
       <r>  -15.3803    1.0000 </r>
       <r>  -15.3792    1.0000 </r>
       <r>  -15.3680    1.0000 </r>
       <r>  -15.3663    1.0000 </r>
       <r>  -15.3514    1.0000 </r>
       <r>  -15.3503    1.0000 </r>
       <r>  -15.3387    1.0000 </r>
       <r>  -15.3382    1.0000 </r>
       <r>  -15.3309    1.0000 </r>
       <r>  -15.3295    1.0000 </r>
       <r>  -15.3150    1.0000 </r>
       <r>  -15.3147    1.0000 </r>
       <r>   -7.0767    1.0000 </r>
       <r>   -6.9803    1.0000 </r>
       <r>   -6.7143    1.0000 </r>
       <r>   -6.6310    1.0000 </r>
       <r>   -1.7631    1.0000 </r>
       <r>   -1.5092    1.0000 </r>
       <r>   -0.7930    1.0000 </r>
       <r>   -0.7655    1.0000 </r>
       <r>    0.8603    1.0000 </r>
       <r>    1.0939    1.0000 </r>
       <r>    1.6580    1.0000 </r>
       <r>    1.8912    1.0000 </r>
       <r>    2.1983    1.0000 </r>
       <r>    2.6260    1.0000 </r>
       <r>    2.8423    1.0000 </r>
       <r>    3.4535    1.0000 </r>
       <r>    3.7097    1.0000 </r>
       <r>    4.0674    1.0000 </r>
       <r>    4.4445    1.0000 </r>
       <r>    4.7843    1.0000 </r>
       <r>    7.6057    0.0000 </r>
       <r>    8.2431    0.0000 </r>
       <r>    8.8571    0.0000 </r>
       <r>    9.0682    0.0000 </r>
       <r>    9.1538    0.0000 </r>
       <r>    9.5649    0.0000 </r>
       <r>   10.5464    0.0000 </r>
       <r>   10.6343    0.0000 </r>
       <r>   10.7467    0.0000 </r>
       <r>   10.9156    0.0000 </r>
       <r>   11.9216    0.0000 </r>
       <r>   11.9920    0.0000 </r>
       <r>   12.1324    0.0000 </r>
       <r>   12.3509    0.0000 </r>
       <r>   13.1478    0.0000 </r>
       <r>   13.4837    0.0000 </r>
       <r>   14.9827    0.0000 </r>
       <r>   15.3635    0.0000 </r>
       <r>   15.5193    0.0000 </r>
       <r>   15.5367    0.0000 </r>
       <r>   16.0152    0.0000 </r>
       <r>   16.1799    0.0000 </r>
       <r>   16.4182    0.0000 </r>
       <r>   16.7554    0.0000 </r>
      </set>
      <set comment="kpoint 45">
       <r>  -15.4141    1.0000 </r>
       <r>  -15.4141    1.0000 </r>
       <r>  -15.4075    1.0000 </r>
       <r>  -15.4075    1.0000 </r>
       <r>  -15.3898    1.0000 </r>
       <r>  -15.3898    1.0000 </r>
       <r>  -15.3811    1.0000 </r>
       <r>  -15.3811    1.0000 </r>
       <r>  -15.3793    1.0000 </r>
       <r>  -15.3793    1.0000 </r>
       <r>  -15.3669    1.0000 </r>
       <r>  -15.3669    1.0000 </r>
       <r>  -15.3496    1.0000 </r>
       <r>  -15.3496    1.0000 </r>
       <r>  -15.3379    1.0000 </r>
       <r>  -15.3379    1.0000 </r>
       <r>  -15.3302    1.0000 </r>
       <r>  -15.3302    1.0000 </r>
       <r>  -15.3147    1.0000 </r>
       <r>  -15.3147    1.0000 </r>
       <r>   -6.9061    1.0000 </r>
       <r>   -6.9061    1.0000 </r>
       <r>   -6.7055    1.0000 </r>
       <r>   -6.7055    1.0000 </r>
       <r>   -1.6763    1.0000 </r>
       <r>   -1.6763    1.0000 </r>
       <r>   -0.6899    1.0000 </r>
       <r>   -0.6899    1.0000 </r>
       <r>    1.0748    1.0000 </r>
       <r>    1.0748    1.0000 </r>
       <r>    1.3538    1.0000 </r>
       <r>    1.3538    1.0000 </r>
       <r>    2.3268    1.0000 </r>
       <r>    2.3268    1.0000 </r>
       <r>    2.9373    1.0000 </r>
       <r>    2.9373    1.0000 </r>
       <r>    3.7724    1.0000 </r>
       <r>    3.7724    1.0000 </r>
       <r>    4.5100    1.0000 </r>
       <r>    4.5100    1.0000 </r>
       <r>    7.8591    0.0000 </r>
       <r>    7.8591    0.0000 </r>
       <r>    9.1513    0.0000 </r>
       <r>    9.1513    0.0000 </r>
       <r>   10.1044    0.0000 </r>
       <r>   10.1044    0.0000 </r>
       <r>   10.3251    0.0000 </r>
       <r>   10.3251    0.0000 </r>
       <r>   11.4616    0.0000 </r>
       <r>   11.4616    0.0000 </r>
       <r>   11.8580    0.0000 </r>
       <r>   11.8580    0.0000 </r>
       <r>   12.2750    0.0000 </r>
       <r>   12.2750    0.0000 </r>
       <r>   13.2063    0.0000 </r>
       <r>   13.2063    0.0000 </r>
       <r>   15.1157    0.0000 </r>
       <r>   15.1157    0.0000 </r>
       <r>   16.3783    0.0000 </r>
       <r>   16.3783    0.0000 </r>
       <r>   16.6361    0.0000 </r>
       <r>   16.6361    0.0000 </r>
       <r>   17.1880    0.0000 </r>
       <r>   17.1880    0.0000 </r>
      </set>
      <set comment="kpoint 46">
       <r>  -15.4030    1.0000 </r>
       <r>  -15.4012    1.0000 </r>
       <r>  -15.4004    1.0000 </r>
       <r>  -15.3984    1.0000 </r>
       <r>  -15.3884    1.0000 </r>
       <r>  -15.3879    1.0000 </r>
       <r>  -15.3878    1.0000 </r>
       <r>  -15.3865    1.0000 </r>
       <r>  -15.3773    1.0000 </r>
       <r>  -15.3742    1.0000 </r>
       <r>  -15.3703    1.0000 </r>
       <r>  -15.3700    1.0000 </r>
       <r>  -15.3535    1.0000 </r>
       <r>  -15.3513    1.0000 </r>
       <r>  -15.3474    1.0000 </r>
       <r>  -15.3465    1.0000 </r>
       <r>  -15.3253    1.0000 </r>
       <r>  -15.3230    1.0000 </r>
       <r>  -15.3197    1.0000 </r>
       <r>  -15.3188    1.0000 </r>
       <r>   -7.1734    1.0000 </r>
       <r>   -7.0955    1.0000 </r>
       <r>   -6.8727    1.0000 </r>
       <r>   -6.8589    1.0000 </r>
       <r>   -2.0625    1.0000 </r>
       <r>   -1.7643    1.0000 </r>
       <r>   -1.6981    1.0000 </r>
       <r>   -1.4083    1.0000 </r>
       <r>    2.2385    1.0000 </r>
       <r>    2.7973    1.0000 </r>
       <r>    3.1708    1.0000 </r>
       <r>    3.4217    1.0000 </r>
       <r>    3.4219    1.0000 </r>
       <r>    3.8373    1.0000 </r>
       <r>    3.8500    1.0000 </r>
       <r>    3.8891    1.0000 </r>
       <r>    4.5600    1.0000 </r>
       <r>    4.7360    1.0000 </r>
       <r>    5.1131    1.0000 </r>
       <r>    5.2345    1.0000 </r>
       <r>    6.8324    0.0000 </r>
       <r>    7.0381    0.0000 </r>
       <r>    7.3323    0.0000 </r>
       <r>    7.5362    0.0000 </r>
       <r>    7.8317    0.0000 </r>
       <r>    8.0273    0.0000 </r>
       <r>    8.0339    0.0000 </r>
       <r>    8.3583    0.0000 </r>
       <r>    8.9647    0.0000 </r>
       <r>    9.3799    0.0000 </r>
       <r>   10.2043    0.0000 </r>
       <r>   10.3745    0.0000 </r>
       <r>   13.2093    0.0000 </r>
       <r>   13.5546    0.0000 </r>
       <r>   13.9509    0.0000 </r>
       <r>   13.9964    0.0000 </r>
       <r>   14.4498    0.0000 </r>
       <r>   14.5269    0.0000 </r>
       <r>   14.7238    0.0000 </r>
       <r>   15.1499    0.0000 </r>
       <r>   15.7887    0.0000 </r>
       <r>   15.8065    0.0000 </r>
       <r>   16.0446    0.0000 </r>
       <r>   16.3246    0.0000 </r>
      </set>
      <set comment="kpoint 47">
       <r>  -15.4056    1.0000 </r>
       <r>  -15.4039    1.0000 </r>
       <r>  -15.4021    1.0000 </r>
       <r>  -15.4004    1.0000 </r>
       <r>  -15.3884    1.0000 </r>
       <r>  -15.3881    1.0000 </r>
       <r>  -15.3863    1.0000 </r>
       <r>  -15.3858    1.0000 </r>
       <r>  -15.3765    1.0000 </r>
       <r>  -15.3738    1.0000 </r>
       <r>  -15.3701    1.0000 </r>
       <r>  -15.3697    1.0000 </r>
       <r>  -15.3526    1.0000 </r>
       <r>  -15.3507    1.0000 </r>
       <r>  -15.3465    1.0000 </r>
       <r>  -15.3457    1.0000 </r>
       <r>  -15.3254    1.0000 </r>
       <r>  -15.3233    1.0000 </r>
       <r>  -15.3195    1.0000 </r>
       <r>  -15.3187    1.0000 </r>
       <r>   -7.1239    1.0000 </r>
       <r>   -7.0495    1.0000 </r>
       <r>   -6.8405    1.0000 </r>
       <r>   -6.8261    1.0000 </r>
       <r>   -1.9675    1.0000 </r>
       <r>   -1.6806    1.0000 </r>
       <r>   -1.6040    1.0000 </r>
       <r>   -1.3466    1.0000 </r>
       <r>    2.1537    1.0000 </r>
       <r>    2.2972    1.0000 </r>
       <r>    2.6121    1.0000 </r>
       <r>    2.8717    1.0000 </r>
       <r>    3.0458    1.0000 </r>
       <r>    3.4543    1.0000 </r>
       <r>    3.6400    1.0000 </r>
       <r>    4.0217    1.0000 </r>
       <r>    4.4374    1.0000 </r>
       <r>    4.7314    1.0000 </r>
       <r>    4.7623    1.0000 </r>
       <r>    5.0304    1.0000 </r>
       <r>    7.1114    0.0000 </r>
       <r>    7.1748    0.0000 </r>
       <r>    7.3449    0.0000 </r>
       <r>    7.6059    0.0000 </r>
       <r>    8.4271    0.0000 </r>
       <r>    8.6965    0.0000 </r>
       <r>    8.8638    0.0000 </r>
       <r>    9.2456    0.0000 </r>
       <r>    9.3225    0.0000 </r>
       <r>    9.9266    0.0000 </r>
       <r>   10.2071    0.0000 </r>
       <r>   10.2960    0.0000 </r>
       <r>   12.4517    0.0000 </r>
       <r>   12.8344    0.0000 </r>
       <r>   13.8549    0.0000 </r>
       <r>   14.2563    0.0000 </r>
       <r>   14.6457    0.0000 </r>
       <r>   14.8484    0.0000 </r>
       <r>   14.9571    0.0000 </r>
       <r>   15.5083    0.0000 </r>
       <r>   15.9007    0.0000 </r>
       <r>   16.0117    0.0000 </r>
       <r>   16.4985    0.0000 </r>
       <r>   16.8096    0.0000 </r>
      </set>
      <set comment="kpoint 48">
       <r>  -15.4112    1.0000 </r>
       <r>  -15.4097    1.0000 </r>
       <r>  -15.4066    1.0000 </r>
       <r>  -15.4053    1.0000 </r>
       <r>  -15.3884    1.0000 </r>
       <r>  -15.3877    1.0000 </r>
       <r>  -15.3847    1.0000 </r>
       <r>  -15.3843    1.0000 </r>
       <r>  -15.3747    1.0000 </r>
       <r>  -15.3730    1.0000 </r>
       <r>  -15.3695    1.0000 </r>
       <r>  -15.3689    1.0000 </r>
       <r>  -15.3500    1.0000 </r>
       <r>  -15.3488    1.0000 </r>
       <r>  -15.3442    1.0000 </r>
       <r>  -15.3437    1.0000 </r>
       <r>  -15.3254    1.0000 </r>
       <r>  -15.3238    1.0000 </r>
       <r>  -15.3191    1.0000 </r>
       <r>  -15.3185    1.0000 </r>
       <r>   -6.9945    1.0000 </r>
       <r>   -6.9303    1.0000 </r>
       <r>   -6.7642    1.0000 </r>
       <r>   -6.7479    1.0000 </r>
       <r>   -1.7065    1.0000 </r>
       <r>   -1.4558    1.0000 </r>
       <r>   -1.3436    1.0000 </r>
       <r>   -1.1860    1.0000 </r>
       <r>    1.3644    1.0000 </r>
       <r>    1.6208    1.0000 </r>
       <r>    1.9207    1.0000 </r>
       <r>    2.1112    1.0000 </r>
       <r>    2.4648    1.0000 </r>
       <r>    2.9413    1.0000 </r>
       <r>    3.1285    1.0000 </r>
       <r>    3.5708    1.0000 </r>
       <r>    3.7561    1.0000 </r>
       <r>    4.1332    1.0000 </r>
       <r>    4.3926    1.0000 </r>
       <r>    4.7884    1.0000 </r>
       <r>    7.5360    0.0000 </r>
       <r>    7.9087    0.0000 </r>
       <r>    8.4632    0.0000 </r>
       <r>    8.7454    0.0000 </r>
       <r>    9.0833    0.0000 </r>
       <r>    9.1919    0.0000 </r>
       <r>    9.6492    0.0000 </r>
       <r>    9.7796    0.0000 </r>
       <r>   10.4022    0.0000 </r>
       <r>   10.6492    0.0000 </r>
       <r>   11.0377    0.0000 </r>
       <r>   11.3970    0.0000 </r>
       <r>   12.0831    0.0000 </r>
       <r>   12.2506    0.0000 </r>
       <r>   13.5105    0.0000 </r>
       <r>   13.6141    0.0000 </r>
       <r>   14.9292    0.0000 </r>
       <r>   15.2680    0.0000 </r>
       <r>   15.4195    0.0000 </r>
       <r>   15.9952    0.0000 </r>
       <r>   16.3554    0.0000 </r>
       <r>   16.5262    0.0000 </r>
       <r>   16.9324    0.0000 </r>
       <r>   17.2094    0.0000 </r>
      </set>
      <set comment="kpoint 49">
       <r>  -15.4164    1.0000 </r>
       <r>  -15.4155    1.0000 </r>
       <r>  -15.4110    1.0000 </r>
       <r>  -15.4103    1.0000 </r>
       <r>  -15.3885    1.0000 </r>
       <r>  -15.3878    1.0000 </r>
       <r>  -15.3836    1.0000 </r>
       <r>  -15.3832    1.0000 </r>
       <r>  -15.3730    1.0000 </r>
       <r>  -15.3722    1.0000 </r>
       <r>  -15.3687    1.0000 </r>
       <r>  -15.3682    1.0000 </r>
       <r>  -15.3471    1.0000 </r>
       <r>  -15.3466    1.0000 </r>
       <r>  -15.3418    1.0000 </r>
       <r>  -15.3415    1.0000 </r>
       <r>  -15.3251    1.0000 </r>
       <r>  -15.3242    1.0000 </r>
       <r>  -15.3186    1.0000 </r>
       <r>  -15.3183    1.0000 </r>
       <r>   -6.8402    1.0000 </r>
       <r>   -6.7938    1.0000 </r>
       <r>   -6.6971    1.0000 </r>
       <r>   -6.6778    1.0000 </r>
       <r>   -1.3875    1.0000 </r>
       <r>   -1.2273    1.0000 </r>
       <r>   -1.0150    1.0000 </r>
       <r>   -0.9465    1.0000 </r>
       <r>    0.7868    1.0000 </r>
       <r>    1.1381    1.0000 </r>
       <r>    1.1969    1.0000 </r>
       <r>    1.6216    1.0000 </r>
       <r>    1.8370    1.0000 </r>
       <r>    2.2146    1.0000 </r>
       <r>    2.3665    1.0000 </r>
       <r>    2.8495    1.0000 </r>
       <r>    3.6669    1.0000 </r>
       <r>    3.9779    1.0000 </r>
       <r>    4.3663    1.0000 </r>
       <r>    4.5350    1.0000 </r>
       <r>    7.8500    0.0000 </r>
       <r>    8.1742    0.0000 </r>
       <r>    8.5958    0.0000 </r>
       <r>    8.8922    0.0000 </r>
       <r>    9.9782    0.0000 </r>
       <r>   10.0319    0.0000 </r>
       <r>   10.4507    0.0000 </r>
       <r>   10.5782    0.0000 </r>
       <r>   11.5572    0.0000 </r>
       <r>   11.8177    0.0000 </r>
       <r>   12.1333    0.0000 </r>
       <r>   12.1550    0.0000 </r>
       <r>   12.2442    0.0000 </r>
       <r>   12.4977    0.0000 </r>
       <r>   13.1600    0.0000 </r>
       <r>   13.2874    0.0000 </r>
       <r>   15.1596    0.0000 </r>
       <r>   15.3635    0.0000 </r>
       <r>   16.1653    0.0000 </r>
       <r>   16.3668    0.0000 </r>
       <r>   16.8147    0.0000 </r>
       <r>   16.9281    0.0000 </r>
       <r>   17.1126    0.0000 </r>
       <r>   17.1550    0.0000 </r>
      </set>
      <set comment="kpoint 50">
       <r>  -15.4182    1.0000 </r>
       <r>  -15.4182    1.0000 </r>
       <r>  -15.4126    1.0000 </r>
       <r>  -15.4126    1.0000 </r>
       <r>  -15.3883    1.0000 </r>
       <r>  -15.3883    1.0000 </r>
       <r>  -15.3831    1.0000 </r>
       <r>  -15.3831    1.0000 </r>
       <r>  -15.3722    1.0000 </r>
       <r>  -15.3722    1.0000 </r>
       <r>  -15.3681    1.0000 </r>
       <r>  -15.3681    1.0000 </r>
       <r>  -15.3457    1.0000 </r>
       <r>  -15.3457    1.0000 </r>
       <r>  -15.3407    1.0000 </r>
       <r>  -15.3407    1.0000 </r>
       <r>  -15.3246    1.0000 </r>
       <r>  -15.3246    1.0000 </r>
       <r>  -15.3183    1.0000 </r>
       <r>  -15.3183    1.0000 </r>
       <r>   -6.7425    1.0000 </r>
       <r>   -6.7425    1.0000 </r>
       <r>   -6.6694    1.0000 </r>
       <r>   -6.6694    1.0000 </r>
       <r>   -1.2047    1.0000 </r>
       <r>   -1.2047    1.0000 </r>
       <r>   -0.7980    1.0000 </r>
       <r>   -0.7980    1.0000 </r>
       <r>    0.7423    1.0000 </r>
       <r>    0.7423    1.0000 </r>
       <r>    1.1673    1.0000 </r>
       <r>    1.1673    1.0000 </r>
       <r>    1.7333    1.0000 </r>
       <r>    1.7333    1.0000 </r>
       <r>    2.2751    1.0000 </r>
       <r>    2.2751    1.0000 </r>
       <r>    3.8688    1.0000 </r>
       <r>    3.8688    1.0000 </r>
       <r>    4.4118    1.0000 </r>
       <r>    4.4118    1.0000 </r>
       <r>    8.0359    0.0000 </r>
       <r>    8.0359    0.0000 </r>
       <r>    8.5870    0.0000 </r>
       <r>    8.5870    0.0000 </r>
       <r>   10.6252    0.0000 </r>
       <r>   10.6252    0.0000 </r>
       <r>   10.8082    0.0000 </r>
       <r>   10.8082    0.0000 </r>
       <r>   12.2045    0.0000 </r>
       <r>   12.2045    0.0000 </r>
       <r>   12.4910    0.0000 </r>
       <r>   12.4910    0.0000 </r>
       <r>   12.6053    0.0000 </r>
       <r>   12.6053    0.0000 </r>
       <r>   13.1811    0.0000 </r>
       <r>   13.1811    0.0000 </r>
       <r>   15.4294    0.0000 </r>
       <r>   15.4294    0.0000 </r>
       <r>   16.3677    0.0000 </r>
       <r>   16.3677    0.0000 </r>
       <r>   16.9484    0.0000 </r>
       <r>   16.9484    0.0000 </r>
       <r>   17.1652    0.0000 </r>
       <r>   17.1652    0.0000 </r>
      </set>
     </set>
    </set>
   </array>
  </eigenvalues>
  <separator name="orbital magnetization" >
   <v name="MAGDIPOLOUT">      0.00000000      0.00000000      0.00000000</v>
  </separator>
  <dos>
   <i name="efermi">      5.96728878 </i>
   <total>
    <array>
     <dimension dim="1">gridpoints</dimension>
     <dimension dim="2">spin</dimension>
     <field>energy</field>
     <field>total</field>
     <field>integrated</field>
     <set>
      <set comment="spin 1">
       <r>   -17.0814     0.0000     0.0000 </r>
       <r>   -16.9596     0.0000     0.0000 </r>
       <r>   -16.8378     0.0000     0.0000 </r>
       <r>   -16.7160     0.0000     0.0000 </r>
       <r>   -16.5942     0.0000     0.0000 </r>
       <r>   -16.4724     0.0000     0.0000 </r>
       <r>   -16.3506     0.0000     0.0000 </r>
       <r>   -16.2288     0.0000     0.0000 </r>
       <r>   -16.1071     0.0000     0.0000 </r>
       <r>   -15.9853     0.0000     0.0000 </r>
       <r>   -15.8635     0.0000     0.0000 </r>
       <r>   -15.7417     0.0000     0.0000 </r>
       <r>   -15.6199     0.0000     0.0000 </r>
       <r>   -15.4981     0.0000     0.0000 </r>
       <r>   -15.3763   155.6125    18.9520 </r>
       <r>   -15.2545    65.4590    40.0000 </r>
       <r>   -15.1327     0.0000    40.0000 </r>
       <r>   -15.0110     0.0000    40.0000 </r>
       <r>   -14.8892     0.0000    40.0000 </r>
       <r>   -14.7674     0.0000    40.0000 </r>
       <r>   -14.6456     0.0000    40.0000 </r>
       <r>   -14.5238     0.0000    40.0000 </r>
       <r>   -14.4020     0.0000    40.0000 </r>
       <r>   -14.2802     0.0000    40.0000 </r>
       <r>   -14.1584     0.0000    40.0000 </r>
       <r>   -14.0366     0.0000    40.0000 </r>
       <r>   -13.9148     0.0000    40.0000 </r>
       <r>   -13.7931     0.0000    40.0000 </r>
       <r>   -13.6713     0.0000    40.0000 </r>
       <r>   -13.5495     0.0000    40.0000 </r>
       <r>   -13.4277     0.0000    40.0000 </r>
       <r>   -13.3059     0.0000    40.0000 </r>
       <r>   -13.1841     0.0000    40.0000 </r>
       <r>   -13.0623     0.0000    40.0000 </r>
       <r>   -12.9405     0.0000    40.0000 </r>
       <r>   -12.8187     0.0000    40.0000 </r>
       <r>   -12.6970     0.0000    40.0000 </r>
       <r>   -12.5752     0.0000    40.0000 </r>
       <r>   -12.4534     0.0000    40.0000 </r>
       <r>   -12.3316     0.0000    40.0000 </r>
       <r>   -12.2098     0.0000    40.0000 </r>
       <r>   -12.0880     0.0000    40.0000 </r>
       <r>   -11.9662     0.0000    40.0000 </r>
       <r>   -11.8444     0.0000    40.0000 </r>
       <r>   -11.7226     0.0000    40.0000 </r>
       <r>   -11.6008     0.0000    40.0000 </r>
       <r>   -11.4791     0.0000    40.0000 </r>
       <r>   -11.3573     0.0000    40.0000 </r>
       <r>   -11.2355     0.0000    40.0000 </r>
       <r>   -11.1137     0.0000    40.0000 </r>
       <r>   -10.9919     0.0000    40.0000 </r>
       <r>   -10.8701     0.0000    40.0000 </r>
       <r>   -10.7483     0.0000    40.0000 </r>
       <r>   -10.6265     0.0000    40.0000 </r>
       <r>   -10.5047     0.0000    40.0000 </r>
       <r>   -10.3829     0.0000    40.0000 </r>
       <r>   -10.2612     0.0000    40.0000 </r>
       <r>   -10.1394     0.0000    40.0000 </r>
       <r>   -10.0176     0.0000    40.0000 </r>
       <r>    -9.8958     0.0000    40.0000 </r>
       <r>    -9.7740     0.0000    40.0000 </r>
       <r>    -9.6522     0.0000    40.0000 </r>
       <r>    -9.5304     0.0000    40.0000 </r>
       <r>    -9.4086     0.0000    40.0000 </r>
       <r>    -9.2868     0.0000    40.0000 </r>
       <r>    -9.1651     0.0000    40.0000 </r>
       <r>    -9.0433     0.0000    40.0000 </r>
       <r>    -8.9215     0.0000    40.0000 </r>
       <r>    -8.7997     0.0000    40.0000 </r>
       <r>    -8.6779     0.0000    40.0000 </r>
       <r>    -8.5561     0.0000    40.0000 </r>
       <r>    -8.4343     0.0000    40.0000 </r>
       <r>    -8.3125     0.0000    40.0000 </r>
       <r>    -8.1907     0.0018    40.0002 </r>
       <r>    -8.0689     0.4562    40.0648 </r>
       <r>    -7.9472     0.5977    40.2487 </r>
       <r>    -7.8254     1.6637    40.4711 </r>
       <r>    -7.7036     1.9595    40.7664 </r>
       <r>    -7.5818     2.6044    41.1135 </r>
       <r>    -7.4600     2.8472    41.5505 </r>
       <r>    -7.3382     1.4091    41.8568 </r>
       <r>    -7.2164     2.2739    42.4066 </r>
       <r>    -7.0946     2.2888    42.8899 </r>
       <r>    -6.9728     3.9518    43.6017 </r>
       <r>    -6.8511     8.1570    44.7249 </r>
       <r>    -6.7293     8.4293    46.1470 </r>
       <r>    -6.6075     7.7433    47.4894 </r>
       <r>    -6.4857     1.8919    47.9989 </r>
       <r>    -6.3639     0.0000    48.0000 </r>
       <r>    -6.2421     0.0000    48.0000 </r>
       <r>    -6.1203     0.0000    48.0000 </r>
       <r>    -5.9985     0.0000    48.0000 </r>
       <r>    -5.8767     0.0000    48.0000 </r>
       <r>    -5.7549     0.0000    48.0000 </r>
       <r>    -5.6332     0.0000    48.0000 </r>
       <r>    -5.5114     0.0000    48.0000 </r>
       <r>    -5.3896     0.0000    48.0000 </r>
       <r>    -5.2678     0.0000    48.0000 </r>
       <r>    -5.1460     0.0000    48.0000 </r>
       <r>    -5.0242     0.0000    48.0000 </r>
       <r>    -4.9024     0.0000    48.0000 </r>
       <r>    -4.7806     0.0000    48.0000 </r>
       <r>    -4.6588     0.0000    48.0000 </r>
       <r>    -4.5371     0.0000    48.0000 </r>
       <r>    -4.4153     0.0000    48.0000 </r>
       <r>    -4.2935     0.0000    48.0000 </r>
       <r>    -4.1717     0.0000    48.0000 </r>
       <r>    -4.0499     0.0000    48.0000 </r>
       <r>    -3.9281     0.0000    48.0000 </r>
       <r>    -3.8063     0.0000    48.0000 </r>
       <r>    -3.6845     0.0000    48.0000 </r>
       <r>    -3.5627     0.0000    48.0000 </r>
       <r>    -3.4409     0.0000    48.0000 </r>
       <r>    -3.3192     0.0000    48.0000 </r>
       <r>    -3.1974     0.0000    48.0000 </r>
       <r>    -3.0756     0.0000    48.0000 </r>
       <r>    -2.9538     0.0000    48.0000 </r>
       <r>    -2.8320     0.0000    48.0000 </r>
       <r>    -2.7102     0.0000    48.0000 </r>
       <r>    -2.5884     0.1148    48.0140 </r>
       <r>    -2.4666     0.4563    48.0741 </r>
       <r>    -2.3448     1.2929    48.3056 </r>
       <r>    -2.2231     0.6093    48.4075 </r>
       <r>    -2.1013     2.1033    48.7006 </r>
       <r>    -1.9795     1.8526    49.0960 </r>
       <r>    -1.8577     1.1342    49.4715 </r>
       <r>    -1.7359     2.5311    49.9379 </r>
       <r>    -1.6141     2.4959    50.4336 </r>
       <r>    -1.4923     1.9004    50.8796 </r>
       <r>    -1.3705     2.5584    51.3671 </r>
       <r>    -1.2487     0.6108    51.7133 </r>
       <r>    -1.1269     3.2222    52.2906 </r>
       <r>    -1.0052     2.5849    52.8056 </r>
       <r>    -0.8834     1.5226    53.2503 </r>
       <r>    -0.7616     3.7497    54.0585 </r>
       <r>    -0.6398     2.1817    54.5527 </r>
       <r>    -0.5180     1.5357    54.7889 </r>
       <r>    -0.3962     1.6173    55.0766 </r>
       <r>    -0.2744     1.3218    55.2814 </r>
       <r>    -0.1526     1.1708    55.4667 </r>
       <r>    -0.0308     0.3041    55.5370 </r>
       <r>     0.0909     0.5107    55.5992 </r>
       <r>     0.2127     0.0000    55.6574 </r>
       <r>     0.3345     1.2164    55.8056 </r>
       <r>     0.4563     0.7428    55.8960 </r>
       <r>     0.5781     0.3041    55.9907 </r>
       <r>     0.6999     0.0024    56.0281 </r>
       <r>     0.8217     1.5363    56.2704 </r>
       <r>     0.9435     0.5204    56.4523 </r>
       <r>     1.0653     0.9657    56.6454 </r>
       <r>     1.1871     2.6359    57.1081 </r>
       <r>     1.3088     2.1001    57.4873 </r>
       <r>     1.4306     4.3757    58.0792 </r>
       <r>     1.5524     1.9931    58.4557 </r>
       <r>     1.6742     1.8179    58.8788 </r>
       <r>     1.7960     2.5888    59.3060 </r>
       <r>     1.9178     3.2462    59.9231 </r>
       <r>     2.0396     2.4417    60.3622 </r>
       <r>     2.1614     3.4687    60.9502 </r>
       <r>     2.2832     4.9425    61.7594 </r>
       <r>     2.4049     4.0906    62.4982 </r>
       <r>     2.5267     2.3201    62.9863 </r>
       <r>     2.6485     4.3574    63.6973 </r>
       <r>     2.7703     1.3503    64.0533 </r>
       <r>     2.8921     4.1574    64.7100 </r>
       <r>     3.0139     4.8821    65.5390 </r>
       <r>     3.1357     2.9917    66.0681 </r>
       <r>     3.2575     3.1292    66.6589 </r>
       <r>     3.3793     3.6718    67.3916 </r>
       <r>     3.5011     6.3451    68.4487 </r>
       <r>     3.6228     3.9344    68.9699 </r>
       <r>     3.7446     4.0669    69.8009 </r>
       <r>     3.8664     2.7380    70.4538 </r>
       <r>     3.9882     4.3695    71.3007 </r>
       <r>     4.1100     5.1828    72.2423 </r>
       <r>     4.2318     2.4262    72.8881 </r>
       <r>     4.3536     3.9563    73.5281 </r>
       <r>     4.4754     2.8466    74.2078 </r>
       <r>     4.5972     1.8494    74.8086 </r>
       <r>     4.7189     1.9234    75.2342 </r>
       <r>     4.8407     5.0986    76.1765 </r>
       <r>     4.9625     2.7707    76.5412 </r>
       <r>     5.0843     4.3635    77.2722 </r>
       <r>     5.2061     4.6954    77.9793 </r>
       <r>     5.3279     5.4628    79.0079 </r>
       <r>     5.4497     4.3877    79.6455 </r>
       <r>     5.5715     0.6120    79.7597 </r>
       <r>     5.6933     0.6090    79.8890 </r>
       <r>     5.8151     0.1624    79.9457 </r>
       <r>     5.9368     0.1521    80.0000 </r>
       <r>     6.0586     0.0000    80.0000 </r>
       <r>     6.1804     0.0000    80.0000 </r>
       <r>     6.3022     0.0058    80.0007 </r>
       <r>     6.4240     0.3040    80.0833 </r>
       <r>     6.5458     0.6077    80.1759 </r>
       <r>     6.6676     1.1100    80.3111 </r>
       <r>     6.7894     1.3301    80.4861 </r>
       <r>     6.9112     1.7145    80.7181 </r>
       <r>     7.0329     0.5265    80.8512 </r>
       <r>     7.1547     3.9494    81.4347 </r>
       <r>     7.2765     2.7460    81.9363 </r>
       <r>     7.3983     2.8130    82.5556 </r>
       <r>     7.5201     1.3651    82.9348 </r>
       <r>     7.6419     3.4475    83.5958 </r>
       <r>     7.7637     1.4081    84.0696 </r>
       <r>     7.8855     4.3493    84.8353 </r>
       <r>     8.0073     1.0807    85.2335 </r>
       <r>     8.1291     1.0657    85.6946 </r>
       <r>     8.2508     5.0894    86.3513 </r>
       <r>     8.3726     2.8532    86.8567 </r>
       <r>     8.4944     4.4759    87.4988 </r>
       <r>     8.6162     2.8559    88.1349 </r>
       <r>     8.7380     2.5641    88.6364 </r>
       <r>     8.8598     3.3881    89.4682 </r>
       <r>     8.9816     5.4717    90.5090 </r>
       <r>     9.1034     5.4619    91.4430 </r>
       <r>     9.2252     4.1405    92.0228 </r>
       <r>     9.3469     4.9763    92.7079 </r>
       <r>     9.4687     3.4601    93.3288 </r>
       <r>     9.5905     1.9342    93.6615 </r>
       <r>     9.7123     2.7369    94.1111 </r>
       <r>     9.8341     2.5704    94.4982 </r>
       <r>     9.9559     5.0170    95.2036 </r>
       <r>    10.0777     3.5340    95.8563 </r>
       <r>    10.1995     2.3396    96.2572 </r>
       <r>    10.3213     4.0350    97.0007 </r>
       <r>    10.4431     3.7806    97.6734 </r>
       <r>    10.5648     3.2617    98.3972 </r>
       <r>    10.6866     4.5442    99.2108 </r>
       <r>    10.8084     5.1008    99.9268 </r>
       <r>    10.9302     3.0885   100.6539 </r>
       <r>    11.0520     4.5764   101.5018 </r>
       <r>    11.1738     1.9285   101.8830 </r>
       <r>    11.2956     1.9232   102.2157 </r>
       <r>    11.4174     2.9787   102.6776 </r>
       <r>    11.5392     2.6549   103.2400 </r>
       <r>    11.6609     1.8300   103.6581 </r>
       <r>    11.7827     2.2308   104.1328 </r>
       <r>    11.9045     2.3245   104.6164 </r>
       <r>    12.0263     2.8369   105.0862 </r>
       <r>    12.1481     4.3455   105.6681 </r>
       <r>    12.2699     5.1549   106.4704 </r>
       <r>    12.3917     1.9764   106.9166 </r>
       <r>    12.5135     2.4473   107.3443 </r>
       <r>    12.6353     2.5201   107.7051 </r>
       <r>    12.7571     3.4526   108.3927 </r>
       <r>    12.8788     2.2105   108.7970 </r>
       <r>    13.0006     2.8423   109.4851 </r>
       <r>    13.1224     1.9272   109.8180 </r>
       <r>    13.2442     4.1336   110.5868 </r>
       <r>    13.3660     2.6682   110.9638 </r>
       <r>    13.4878     1.6321   111.4673 </r>
       <r>    13.6096     2.4853   111.9786 </r>
       <r>    13.7314     0.2836   112.2012 </r>
       <r>    13.8532     2.1289   112.6667 </r>
       <r>    13.9749     4.1519   113.5612 </r>
       <r>    14.0967     1.8429   114.0763 </r>
       <r>    14.2185     4.5101   114.7345 </r>
       <r>    14.3403     3.2926   115.2343 </r>
       <r>    14.4621     2.2253   115.7340 </r>
       <r>    14.5839     2.6522   116.1378 </r>
       <r>    14.7057     4.3958   116.7854 </r>
       <r>    14.8275     1.9697   117.2399 </r>
       <r>    14.9493     3.9007   117.9565 </r>
       <r>    15.0711     1.0645   118.2408 </r>
       <r>    15.1928     4.3059   118.8207 </r>
       <r>    15.3146     4.7433   119.6147 </r>
       <r>    15.4364     5.3866   120.4708 </r>
       <r>    15.5582     4.2374   121.2013 </r>
       <r>    15.6800     1.8580   121.6707 </r>
       <r>    15.8018     4.5860   122.4289 </r>
       <r>    15.9236     2.9492   122.8962 </r>
       <r>    16.0454     5.7959   123.8355 </r>
       <r>    16.1672     2.6271   124.2459 </r>
       <r>    16.2889     1.8073   124.6090 </r>
       <r>    16.4107     3.9212   125.1627 </r>
       <r>    16.5325     3.2709   125.7132 </r>
       <r>    16.6543     3.0584   126.2614 </r>
       <r>    16.7761     1.7137   126.6346 </r>
       <r>    16.8979     0.8819   126.9222 </r>
       <r>    17.0197     2.1262   127.3330 </r>
       <r>    17.1415     0.8321   127.4717 </r>
       <r>    17.2633     1.2164   127.8519 </r>
       <r>    17.3851     0.0000   127.8889 </r>
       <r>    17.5068     0.0000   127.8889 </r>
       <r>    17.6286     0.3939   127.9369 </r>
       <r>    17.7504     0.0000   127.9630 </r>
       <r>    17.8722     0.3041   128.0000 </r>
       <r>    17.9940     0.0000   128.0000 </r>
       <r>    18.1158     0.0000   128.0000 </r>
       <r>    18.2376     0.0000   128.0000 </r>
       <r>    18.3594     0.0000   128.0000 </r>
       <r>    18.4812     0.0000   128.0000 </r>
       <r>    18.6029     0.0000   128.0000 </r>
       <r>    18.7247     0.0000   128.0000 </r>
       <r>    18.8465     0.0000   128.0000 </r>
       <r>    18.9683     0.0000   128.0000 </r>
       <r>    19.0901     0.0000   128.0000 </r>
       <r>    19.2119     0.0000   128.0000 </r>
       <r>    19.3337     0.0000   128.0000 </r>
       <r>    19.4555     0.0000   128.0000 </r>
      </set>
     </set>
    </array>
   </total>
  </dos>
 </calculation>
 <structure name="finalpos" >
  <crystal>
   <varray name="basis" >
    <v>       4.34539863       0.00000000       0.00000000 </v>
    <v>       0.00000000       4.11936655       0.00000000 </v>
    <v>       0.00000000       0.00000000      11.35478920 </v>
   </varray>
   <i name="volume">    203.25401695 </i>
   <varray name="rec_basis" >
    <v>       0.23012848       0.00000000       0.00000000 </v>
    <v>       0.00000000       0.24275577       0.00000000 </v>
    <v>       0.00000000       0.00000000       0.08806857 </v>
   </varray>
  </crystal>
  <varray name="positions" >
   <v>       0.09993103       0.25000000       0.11530777 </v>
   <v>       0.40006897       0.25000000       0.61530777 </v>
   <v>       0.59993103       0.75000000       0.38469223 </v>
   <v>       0.90006897       0.75000000       0.88469223 </v>
   <v>       0.02667331       0.25000000       0.35673222 </v>
   <v>       0.47332669       0.25000000       0.85673222 </v>
   <v>       0.52667331       0.75000000       0.14326778 </v>
   <v>       0.97332669       0.75000000       0.64326778 </v>
  </varray>
 </structure>
</modeling>
