<?xml version="1.0" encoding="ISO-8859-1"?>
<modeling>
 <generator>
  <i name="program" type="string">vasp </i>
  <i name="version" type="string">6.2.0  </i>
  <i name="subversion" type="string">18Jan21 (build Mar  1 2021 20:13:55) complex                          parallel </i>
  <i name="platform" type="string">HPECrayEX_GCC </i>
  <i name="date" type="string">2026 03 07 </i>
  <i name="time" type="string">19:46:21 </i>
 </generator>
 <incar>
  <i type="string" name="SYSTEM">Pnma SnSe</i>
  <i type="string" name="PREC">Accurate</i>
  <i type="string" name="ALGO">Normal</i>
  <i type="logical" name="ADDGRID"> T  </i>
  <i type="int" name="NELM">   250</i>
  <i type="int" name="NELMIN">     5</i>
  <i name="EDIFF">      0.00000001</i>
  <i type="int" name="NSW">     0</i>
  <i type="int" name="ISIF">     2</i>
  <i name="ENCUT">    700.00000000</i>
  <i type="logical" name="LREAL"> F  </i>
  <i type="int" name="ISMEAR">     0</i>
  <i name="SIGMA">      0.01000000</i>
  <i type="logical" name="LWAVE"> F  </i>
  <i type="logical" name="LCHARG"> F  </i>
  <i type="logical" name="LASPH"> T  </i>
  <i type="string" name="GGA">PS</i>
  <i type="logical" name="LEPSILON"> T  </i>
  <i type="int" name="IVDW">    11</i>
 </incar>
 <primitive_cell>
  <structure name="primitive_cell" >
   <crystal>
    <varray name="basis" >
     <v>       4.34539863       0.00000000       0.00000000 </v>
     <v>       0.00000000       4.11936655       0.00000000 </v>
     <v>       0.00000000       0.00000000      11.35478920 </v>
    </varray>
    <i name="volume">    203.25401695 </i>
    <varray name="rec_basis" >
     <v>       0.23012848       0.00000000       0.00000000 </v>
     <v>       0.00000000       0.24275577       0.00000000 </v>
     <v>       0.00000000       0.00000000       0.08806857 </v>
    </varray>
   </crystal>
   <varray name="positions" >
    <v>       0.09903631       0.25047891       0.11539711 </v>
    <v>       0.40096369       0.25047891       0.61539711 </v>
    <v>       0.59903631       0.74952109       0.38460289 </v>
    <v>       0.90096369       0.74952109       0.88460289 </v>
    <v>       0.02605052       0.25123329       0.35675466 </v>
    <v>       0.47394948       0.25123329       0.85675466 </v>
    <v>       0.52605052       0.74876671       0.14324534 </v>
    <v>       0.97394948       0.74876671       0.64324534 </v>
   </varray>
  </structure>
  <varray name="primitive_index" >
   <v type="int" >        1 </v>
   <v type="int" >        2 </v>
   <v type="int" >        3 </v>
   <v type="int" >        4 </v>
   <v type="int" >        5 </v>
   <v type="int" >        6 </v>
   <v type="int" >        7 </v>
   <v type="int" >        8 </v>
  </varray>
 </primitive_cell>
 <kpoints>
  <generation param="Gamma">
   <v type="int" name="divisions">       8        9        3 </v>
   <v name="usershift">      0.00000000       0.00000000       0.00000000 </v>
   <v name="genvec1">      0.12500000       0.00000000       0.00000000 </v>
   <v name="genvec2">      0.00000000       0.11111111       0.00000000 </v>
   <v name="genvec3">      0.00000000       0.00000000       0.33333333 </v>
   <v name="shift">      0.00000000       0.00000000       0.00000000 </v>
  </generation>
  <varray name="kpointlist" >
   <v>       0.00000000       0.00000000       0.00000000 </v>
   <v>       0.12500000       0.00000000       0.00000000 </v>
   <v>       0.25000000       0.00000000       0.00000000 </v>
   <v>       0.37500000       0.00000000       0.00000000 </v>
   <v>       0.50000000       0.00000000       0.00000000 </v>
   <v>       0.00000000       0.11111111       0.00000000 </v>
   <v>       0.12500000       0.11111111       0.00000000 </v>
   <v>       0.25000000       0.11111111       0.00000000 </v>
   <v>       0.37500000       0.11111111       0.00000000 </v>
   <v>       0.50000000       0.11111111       0.00000000 </v>
   <v>       0.00000000       0.22222222       0.00000000 </v>
   <v>       0.12500000       0.22222222       0.00000000 </v>
   <v>       0.25000000       0.22222222       0.00000000 </v>
   <v>       0.37500000       0.22222222       0.00000000 </v>
   <v>       0.50000000       0.22222222       0.00000000 </v>
   <v>       0.00000000       0.33333333       0.00000000 </v>
   <v>       0.12500000       0.33333333       0.00000000 </v>
   <v>       0.25000000       0.33333333       0.00000000 </v>
   <v>       0.37500000       0.33333333       0.00000000 </v>
   <v>       0.50000000       0.33333333       0.00000000 </v>
   <v>       0.00000000       0.44444444       0.00000000 </v>
   <v>       0.12500000       0.44444444       0.00000000 </v>
   <v>       0.25000000       0.44444444       0.00000000 </v>
   <v>       0.37500000       0.44444444       0.00000000 </v>
   <v>       0.50000000       0.44444444       0.00000000 </v>
   <v>       0.00000000       0.00000000       0.33333333 </v>
   <v>       0.12500000       0.00000000       0.33333333 </v>
   <v>       0.25000000       0.00000000       0.33333333 </v>
   <v>       0.37500000       0.00000000       0.33333333 </v>
   <v>       0.50000000       0.00000000       0.33333333 </v>
   <v>       0.00000000       0.11111111       0.33333333 </v>
   <v>       0.00000000       0.11111111      -0.33333333 </v>
   <v>       0.12500000       0.11111111       0.33333333 </v>
   <v>      -0.12500000       0.11111111      -0.33333333 </v>
   <v>       0.25000000       0.11111111       0.33333333 </v>
   <v>      -0.25000000       0.11111111      -0.33333333 </v>
   <v>       0.37500000       0.11111111       0.33333333 </v>
   <v>      -0.37500000       0.11111111      -0.33333333 </v>
   <v>       0.50000000       0.11111111       0.33333333 </v>
   <v>       0.50000000       0.11111111      -0.33333333 </v>
   <v>       0.00000000       0.22222222       0.33333333 </v>
   <v>       0.00000000       0.22222222      -0.33333333 </v>
   <v>       0.12500000       0.22222222       0.33333333 </v>
   <v>      -0.12500000       0.22222222      -0.33333333 </v>
   <v>       0.25000000       0.22222222       0.33333333 </v>
   <v>      -0.25000000       0.22222222      -0.33333333 </v>
   <v>       0.37500000       0.22222222       0.33333333 </v>
   <v>      -0.37500000       0.22222222      -0.33333333 </v>
   <v>       0.50000000       0.22222222       0.33333333 </v>
   <v>       0.50000000       0.22222222      -0.33333333 </v>
   <v>       0.00000000       0.33333333       0.33333333 </v>
   <v>       0.00000000       0.33333333      -0.33333333 </v>
   <v>       0.12500000       0.33333333       0.33333333 </v>
   <v>      -0.12500000       0.33333333      -0.33333333 </v>
   <v>       0.25000000       0.33333333       0.33333333 </v>
   <v>      -0.25000000       0.33333333      -0.33333333 </v>
   <v>       0.37500000       0.33333333       0.33333333 </v>
   <v>      -0.37500000       0.33333333      -0.33333333 </v>
   <v>       0.50000000       0.33333333       0.33333333 </v>
   <v>       0.50000000       0.33333333      -0.33333333 </v>
   <v>       0.00000000       0.44444444       0.33333333 </v>
   <v>       0.00000000       0.44444444      -0.33333333 </v>
   <v>       0.12500000       0.44444444       0.33333333 </v>
   <v>      -0.12500000       0.44444444      -0.33333333 </v>
   <v>       0.25000000       0.44444444       0.33333333 </v>
   <v>      -0.25000000       0.44444444      -0.33333333 </v>
   <v>       0.37500000       0.44444444       0.33333333 </v>
   <v>      -0.37500000       0.44444444      -0.33333333 </v>
   <v>       0.50000000       0.44444444       0.33333333 </v>
   <v>       0.50000000       0.44444444      -0.33333333 </v>
  </varray>
  <varray name="weights" >
   <v>       0.00462963 </v>
   <v>       0.00925926 </v>
   <v>       0.00925926 </v>
   <v>       0.00925926 </v>
   <v>       0.00462963 </v>
   <v>       0.00925926 </v>
   <v>       0.01851852 </v>
   <v>       0.01851852 </v>
   <v>       0.01851852 </v>
   <v>       0.00925926 </v>
   <v>       0.00925926 </v>
   <v>       0.01851852 </v>
   <v>       0.01851852 </v>
   <v>       0.01851852 </v>
   <v>       0.00925926 </v>
   <v>       0.00925926 </v>
   <v>       0.01851852 </v>
   <v>       0.01851852 </v>
   <v>       0.01851852 </v>
   <v>       0.00925926 </v>
   <v>       0.00925926 </v>
   <v>       0.01851852 </v>
   <v>       0.01851852 </v>
   <v>       0.01851852 </v>
   <v>       0.00925926 </v>
   <v>       0.00925926 </v>
   <v>       0.01851852 </v>
   <v>       0.01851852 </v>
   <v>       0.01851852 </v>
   <v>       0.00925926 </v>
   <v>       0.00925926 </v>
   <v>       0.00925926 </v>
   <v>       0.01851852 </v>
   <v>       0.01851852 </v>
   <v>       0.01851852 </v>
   <v>       0.01851852 </v>
   <v>       0.01851852 </v>
   <v>       0.01851852 </v>
   <v>       0.00925926 </v>
   <v>       0.00925926 </v>
   <v>       0.00925926 </v>
   <v>       0.00925926 </v>
   <v>       0.01851852 </v>
   <v>       0.01851852 </v>
   <v>       0.01851852 </v>
   <v>       0.01851852 </v>
   <v>       0.01851852 </v>
   <v>       0.01851852 </v>
   <v>       0.00925926 </v>
   <v>       0.00925926 </v>
   <v>       0.00925926 </v>
   <v>       0.00925926 </v>
   <v>       0.01851852 </v>
   <v>       0.01851852 </v>
   <v>       0.01851852 </v>
   <v>       0.01851852 </v>
   <v>       0.01851852 </v>
   <v>       0.01851852 </v>
   <v>       0.00925926 </v>
   <v>       0.00925926 </v>
   <v>       0.00925926 </v>
   <v>       0.00925926 </v>
   <v>       0.01851852 </v>
   <v>       0.01851852 </v>
   <v>       0.01851852 </v>
   <v>       0.01851852 </v>
   <v>       0.01851852 </v>
   <v>       0.01851852 </v>
   <v>       0.00925926 </v>
   <v>       0.00925926 </v>
  </varray>
 </kpoints>
 <parameters>
  <separator name="general" >
   <i type="string" name="SYSTEM">Pnma SnSe</i>
   <i type="logical" name="LCOMPAT"> F  </i>
  </separator>
  <separator name="electronic" >
   <i type="string" name="PREC">accura</i>
   <i name="ENMAX">    700.00000000</i>
   <i name="ENAUG">    446.84200000</i>
   <i name="EDIFF">      0.00000001</i>
   <i type="int" name="IALGO">    38</i>
   <i type="int" name="IWAVPR">    10</i>
   <i type="int" name="NBANDS">    64</i>
   <i type="int" name="NBANDSLOW">    -1</i>
   <i type="int" name="NBANDSHIGH">    -1</i>
   <i name="NELECT">     80.00000000</i>
   <i type="int" name="TURBO">     0</i>
   <i type="int" name="IRESTART">     0</i>
   <i type="int" name="NREBOOT">     0</i>
   <i type="int" name="NMIN">     0</i>
   <i name="EREF">      0.00000000</i>
   <separator name="electronic smearing" >
    <i type="int" name="ISMEAR">     0</i>
    <i name="SIGMA">      0.01000000</i>
    <i name="KSPACING">      0.50000000</i>
    <i type="logical" name="KGAMMA"> T  </i>
    <i type="logical" name="KBLOWUP"> T  </i>
   </separator>
   <separator name="electronic projectors" >
    <i type="logical" name="LREAL"> F  </i>
    <v name="ROPT">      0.00000000      0.00000000</v>
    <i type="int" name="LMAXPAW">  -100</i>
    <i type="int" name="LMAXMIX">     2</i>
    <i type="logical" name="NLSPLINE"> F  </i>
   </separator>
   <separator name="electronic startup" >
    <i type="int" name="ISTART">     0</i>
    <i type="int" name="ICHARG">     2</i>
    <i type="int" name="INIWAV">     1</i>
   </separator>
   <separator name="electronic spin" >
    <i type="int" name="ISPIN">     1</i>
    <i type="logical" name="LNONCOLLINEAR"> F  </i>
    <v name="MAGMOM">      1.00000000      1.00000000      1.00000000      1.00000000      1.00000000      1.00000000      1.00000000      1.00000000</v>
    <i name="NUPDOWN">     -1.00000000</i>
    <i type="logical" name="LSORBIT"> F  </i>
    <v name="SAXIS">      0.00000000      0.00000000      1.00000000</v>
    <i type="logical" name="LSPIRAL"> F  </i>
    <v name="QSPIRAL">      0.00000000      0.00000000      0.00000000</v>
    <i type="logical" name="LZEROZ"> F  </i>
   </separator>
   <separator name="electronic exchange-correlation" >
    <i type="logical" name="LASPH"> T  </i>
    <i type="logical" name="LMETAGGA"> F  </i>
   </separator>
   <separator name="electronic convergence" >
    <i type="int" name="NELM">   250</i>
    <i type="int" name="NELMDL">    -5</i>
    <i type="int" name="NELMIN">     5</i>
    <i name="ENINI">    700.00000000</i>
    <separator name="electronic convergence detail" >
     <i type="logical" name="LDIAG"> T  </i>
     <i type="logical" name="LSUBROT"> F  </i>
     <i name="WEIMIN">      0.00000000</i>
     <i name="EBREAK">      0.00000000</i>
     <i name="DEPER">      0.30000000</i>
     <i type="int" name="NRMM">     4</i>
     <i name="TIME">      0.40000000</i>
    </separator>
   </separator>
   <separator name="electronic mixer" >
    <i name="AMIX">      0.40000000</i>
    <i name="BMIX">      1.00000000</i>
    <i name="AMIN">      0.10000000</i>
    <i name="AMIX_MAG">      1.60000000</i>
    <i name="BMIX_MAG">      1.00000000</i>
    <separator name="electronic mixer details" >
     <i type="int" name="IMIX">     4</i>
     <i type="logical" name="MIXFIRST"> F  </i>
     <i type="int" name="MAXMIX">   -45</i>
     <i name="WC">    100.00000000</i>
     <i type="int" name="INIMIX">     1</i>
     <i type="int" name="MIXPRE">     1</i>
     <i type="int" name="MREMOVE">     5</i>
    </separator>
   </separator>
   <separator name="electronic dipolcorrection" >
    <i type="logical" name="LDIPOL"> F  </i>
    <i type="logical" name="LMONO"> F  </i>
    <i type="int" name="IDIPOL">     0</i>
    <i name="EPSILON">      1.00000000</i>
    <v name="DIPOL">   -100.00000000   -100.00000000   -100.00000000</v>
    <i name="EFIELD">      0.00000000</i>
   </separator>
  </separator>
  <separator name="grids" >
   <i type="int" name="NGX">    40</i>
   <i type="int" name="NGY">    36</i>
   <i type="int" name="NGZ">    98</i>
   <i type="int" name="NGXF">    80</i>
   <i type="int" name="NGYF">    72</i>
   <i type="int" name="NGZF">   196</i>
   <i type="logical" name="ADDGRID"> T  </i>
  </separator>
  <separator name="ionic" >
   <i type="int" name="NSW">     0</i>
   <i type="int" name="IBRION">    -1</i>
   <i type="int" name="MDALGO">     0</i>
   <i type="int" name="ISIF">     2</i>
   <i name="PSTRESS">      0.00000000</i>
   <i name="EDIFFG">      0.00000010</i>
   <i type="int" name="NFREE">     0</i>
   <i name="POTIM">      0.50000000</i>
   <i name="SMASS">     -3.00000000</i>
   <i name="SCALEE">      1.00000000</i>
  </separator>
  <separator name="ionic md" >
   <i name="TEBEG">      0.00010000</i>
   <i name="TEEND">      0.00010000</i>
   <i type="int" name="NBLOCK">     1</i>
   <i type="int" name="KBLOCK">     1</i>
   <i type="int" name="NPACO">   256</i>
   <i name="APACO">     16.00000000</i>
  </separator>
  <separator name="symmetry" >
   <i type="int" name="ISYM">     2</i>
   <i name="SYMPREC">      0.00001000</i>
  </separator>
  <separator name="dos" >
   <i type="int" name="LORBIT">     0</i>
   <v name="RWIGS">     -1.00000000     -1.00000000</v>
   <i type="int" name="NEDOS">   301</i>
   <i name="EMIN">     10.00000000</i>
   <i name="EMAX">    -10.00000000</i>
   <i name="EFERMI">      0.00000000</i>
  </separator>
  <separator name="writing" >
   <i type="int" name="NWRITE">     2</i>
   <i type="logical" name="LWAVE"> F  </i>
   <i type="logical" name="LDOWNSAMPLE"> F  </i>
   <i type="logical" name="LCHARG"> F  </i>
   <i type="logical" name="LPARD"> F  </i>
   <i type="logical" name="LVTOT"> F  </i>
   <i type="logical" name="LVHAR"> F  </i>
   <i type="logical" name="LELF"> F  </i>
   <i type="logical" name="LOPTICS"> F  </i>
   <v name="STM">      0.00000000      0.00000000      0.00000000      0.00000000      0.00000000      0.00000000      0.00000000</v>
  </separator>
  <separator name="performance" >
   <i type="int" name="NPAR">    32</i>
   <i type="int" name="NSIM">     4</i>
   <i type="int" name="NBLK">    -1</i>
   <i type="logical" name="LPLANE"> T  </i>
   <i type="logical" name="LSCALAPACK"> T  </i>
   <i type="logical" name="LSCAAWARE"> F  </i>
   <i type="logical" name="LSCALU"> F  </i>
   <i type="logical" name="LASYNC"> F  </i>
   <i type="logical" name="LORBITALREAL"> F  </i>
  </separator>
  <separator name="miscellaneous" >
   <i type="int" name="IDIOT">     3</i>
   <i type="int" name="PHON_NSTRUCT">    -1</i>
   <i type="logical" name="LMUSIC"> F  </i>
   <v name="POMASS">    118.71000000     78.96000000</v>
   <v name="DARWINR">      0.00000000      0.00000000</v>
   <v name="DARWINV">      1.00000000      1.00000000</v>
   <i type="logical" name="LCORR"> T  </i>
  </separator>
  <i type="logical" name="GGA_COMPAT"> T  </i>
  <i type="logical" name="LBERRY"> F  </i>
  <i type="int" name="ICORELEVEL">     0</i>
  <i type="logical" name="LDAU"> F  </i>
  <i type="int" name="I_CONSTRAINED_M">     0</i>
  <separator name="electronic exchange-correlation" >
   <i type="string" name="GGA">PS</i>
   <i type="int" name="VOSKOWN">     0</i>
   <i type="logical" name="LHFCALC"> F  </i>
   <i type="string" name="PRECFOCK"></i>
   <i type="logical" name="LSYMGRAD"> F  </i>
   <i type="logical" name="LHFONE"> F  </i>
   <i type="logical" name="LRHFCALC"> F  </i>
   <i type="logical" name="LTHOMAS"> F  </i>
   <i type="logical" name="LMODELHF"> F  </i>
   <i type="logical" name="LFOCKACE"> F  </i>
   <i name="ENCUT4O">     -1.00000000</i>
   <i type="int" name="EXXOEP">     0</i>
   <i type="int" name="FOURORBIT">     0</i>
   <i name="AEXX">      0.00000000</i>
   <i name="HFALPHA">      0.00000000</i>
   <i name="MCALPHA">      0.00000000</i>
   <i name="ALDAX">      1.00000000</i>
   <i name="AGGAX">      1.00000000</i>
   <i name="ALDAC">      1.00000000</i>
   <i name="AGGAC">      1.00000000</i>
   <i type="int" name="NKREDX">     1</i>
   <i type="int" name="NKREDY">     1</i>
   <i type="int" name="NKREDZ">     1</i>
   <i type="logical" name="SHIFTRED"> F  </i>
   <i type="logical" name="ODDONLY"> F  </i>
   <i type="logical" name="EVENONLY"> F  </i>
   <i type="int" name="LMAXFOCK">     0</i>
   <i type="int" name="NMAXFOCKAE">     0</i>
   <i type="logical" name="LFOCKAEDFT"> F  </i>
   <i name="HFSCREEN">      0.00000000</i>
   <i name="HFSCREENC">      0.00000000</i>
   <i type="int" name="NBANDSGWLOW">     0</i>
  </separator>
  <separator name="vdW DFT" >
   <i type="logical" name="LUSE_VDW"> F  </i>
   <i name="Zab_VDW">     -0.84910000</i>
   <i name="PARAM1">      0.12340000</i>
   <i name="PARAM2">      1.00000000</i>
   <i name="PARAM3">      0.00000000</i>
  </separator>
  <separator name="model GW" >
   <i type="int" name="MODEL_GW">     0</i>
   <i name="MODEL_EPS0">     15.24405127</i>
   <i name="MODEL_ALPHA">      1.00000000</i>
  </separator>
  <separator name="linear response parameters" >
   <i type="logical" name="LEPSILON"> T  </i>
   <i type="logical" name="LRPA"> F  </i>
   <i type="logical" name="LNABLA"> F  </i>
   <i type="logical" name="LVEL"> F  </i>
   <i type="int" name="KINTER">     0</i>
   <i name="CSHIFT">      0.10000000</i>
   <i name="OMEGAMAX">     -1.00000000</i>
   <i name="DEG_THRESHOLD">      0.00200000</i>
   <i name="RTIME">     -0.10000000</i>
   <i name="WPLASMAI">      0.00000000</i>
   <v name="DFIELD">      0.00000000      0.00000000      0.00000000</v>
   <v name="WPLASMA">      0.00000000      0.00000000      0.00000000      0.00000000      0.00000000      0.00000000      0.00000000      0.00000000      0.00000000</v>
  </separator>
  <separator name="orbital magnetization" >
   <i type="logical" name="NUCIND"> F  </i>
   <v name="MAGPOS">      0.00000000      0.00000000      0.00000000</v>
   <i type="logical" name="LNICSALL"> T  </i>
   <i type="logical" name="ORBITALMAG"> F  </i>
   <i type="logical" name="LMAGBLOCH"> F  </i>
   <i type="logical" name="LCHIMAG"> F  </i>
   <i type="logical" name="LGAUGE"> T  </i>
   <i type="int" name="MAGATOM">     0</i>
   <v name="MAGDIPOL">      0.00000000      0.00000000      0.00000000</v>
   <v name="AVECCONST">      0.00000000      0.00000000      0.00000000</v>
  </separator>
  <separator name="response functions" >
   <i type="logical" name="LFINITE_TEMPERATURE"> F  </i>
   <i type="logical" name="LADDER"> F  </i>
   <i type="logical" name="LRPAFORCE"> F  </i>
   <i type="logical" name="LFXC"> F  </i>
   <i type="logical" name="LHARTREE"> T  </i>
   <i type="int" name="IBSE">     0</i>
   <v type="int" name="KPOINT">    -1     0     0     0</v>
   <i type="logical" name="LTCTC"> F  </i>
   <i type="logical" name="LTCTE"> F  </i>
   <i type="logical" name="LTETE"> F  </i>
   <i type="logical" name="LTRIPLET"> F  </i>
   <i type="logical" name="LFXCEPS"> F  </i>
   <i type="logical" name="LFXHEG"> F  </i>
   <i type="int" name="NATURALO">     2</i>
   <i type="logical" name="LHOLEGF"> F  </i>
   <i type="logical" name="L2ORDER"> F  </i>
   <i type="logical" name="LDMP1"> F  </i>
   <i type="logical" name="LMP2LT"> F  </i>
   <i type="logical" name="LSMP2LT"> F  </i>
   <i type="logical" name="LGWLF"> F  </i>
   <i name="ENCUTGW">     -2.00000000</i>
   <i name="ENCUTGWSOFT">     -2.00000000</i>
   <i name="ENCUTLF">     -1.00000000</i>
   <i type="logical" name="LESF_SPLINES"> F  </i>
   <i type="int" name="LMAXMP2">    -1</i>
   <i name="SCISSOR">      0.00000000</i>
   <i type="int" name="NOMEGA">     0</i>
   <i type="int" name="NOMEGAR">     0</i>
   <i type="int" name="NBANDSGW">    -1</i>
   <i type="int" name="NBANDSO">    -1</i>
   <i type="int" name="NBANDSV">    -1</i>
   <i type="int" name="NELM">   250</i>
   <i type="int" name="NELMHF">     1</i>
   <i type="int" name="DIM">     3</i>
   <i type="int" name="IESPILON">     4</i>
   <i type="int" name="ANTIRES">     0</i>
   <i name="OMEGAMAX">    -30.00000000</i>
   <i name="OMEGAMIN">    -30.00000000</i>
   <i name="OMEGATL">   -200.00000000</i>
   <i type="int" name="OMEGAGRID">     0</i>
   <i name="CSHIFT">     -0.10000000</i>
   <i type="logical" name="LSELFENERGY"> F  </i>
   <i type="logical" name="LSPECTRAL"> F  </i>
   <i type="logical" name="LSPECTRALGW"> F  </i>
   <i type="logical" name="LSINGLES"> F  </i>
   <i type="logical" name="LFERMIGW"> F  </i>
   <i type="logical" name="ODDONLYGW"> F  </i>
   <i type="logical" name="EVENONLYGW"> F  </i>
   <i type="int" name="NKREDLFX">     1</i>
   <i type="int" name="NKREDLFY">     1</i>
   <i type="int" name="NKREDLFZ">     1</i>
   <i type="int" name="MAXMEM">  2800</i>
   <i type="int" name="TELESCOPE">     0</i>
   <i type="int" name="NTAUPAR">    -1</i>
   <i type="int" name="NOMEGAPAR">    -1</i>
   <i name="DAMP_NEWTON">      0.80000001</i>
   <i name="LAMBDA">      1.00000000</i>
  </separator>
  <separator name="External order field" >
   <i name="OFIELD_KAPPA">      0.00000000</i>
   <v name="OFIELD_K">      0.00000000      0.00000000      0.00000000</v>
   <i name="OFIELD_Q6_NEAR">      0.00000000</i>
   <i name="OFIELD_Q6_FAR">      0.00000000</i>
   <i name="OFIELD_A">      0.00000000</i>
  </separator>
 </parameters>
 <atominfo>
  <atoms>       8 </atoms>
  <types>       2 </types>
  <array name="atoms" >
   <dimension dim="1">ion</dimension>
   <field type="string">element</field>
   <field type="int">atomtype</field>
   <set>
    <rc><c>Sn</c><c>   1</c></rc>
    <rc><c>Sn</c><c>   1</c></rc>
    <rc><c>Sn</c><c>   1</c></rc>
    <rc><c>Sn</c><c>   1</c></rc>
    <rc><c>Se</c><c>   2</c></rc>
    <rc><c>Se</c><c>   2</c></rc>
    <rc><c>Se</c><c>   2</c></rc>
    <rc><c>Se</c><c>   2</c></rc>
   </set>
  </array>
  <array name="atomtypes" >
   <dimension dim="1">type</dimension>
   <field type="int">atomspertype</field>
   <field type="string">element</field>
   <field>mass</field>
   <field>valence</field>
   <field type="string">pseudopotential</field>
   <set>
    <rc><c>   4</c><c>Sn</c><c>    118.71000000</c><c>     14.00000000</c><c>  PAW_PBE Sn_d 06Sep2000                </c></rc>
    <rc><c>   4</c><c>Se</c><c>     78.96000000</c><c>      6.00000000</c><c>  PAW_PBE Se 06Sep2000                  </c></rc>
   </set>
  </array>
 </atominfo>
 <structure name="initialpos" >
  <crystal>
   <varray name="basis" >
    <v>       4.34539863       0.00000000       0.00000000 </v>
    <v>       0.00000000       4.11936655       0.00000000 </v>
    <v>       0.00000000       0.00000000      11.35478920 </v>
   </varray>
   <i name="volume">    203.25401695 </i>
   <varray name="rec_basis" >
    <v>       0.23012848       0.00000000       0.00000000 </v>
    <v>       0.00000000       0.24275577       0.00000000 </v>
    <v>       0.00000000       0.00000000       0.08806857 </v>
   </varray>
  </crystal>
  <varray name="positions" >
   <v>       0.09903631       0.25047891       0.11539711 </v>
   <v>       0.40096369       0.25047891       0.61539711 </v>
   <v>       0.59903631       0.74952109       0.38460289 </v>
   <v>       0.90096369       0.74952109       0.88460289 </v>
   <v>       0.02605052       0.25123329       0.35675466 </v>
   <v>       0.47394948       0.25123329       0.85675466 </v>
   <v>       0.52605052       0.74876671       0.14324534 </v>
   <v>       0.97394948       0.74876671       0.64324534 </v>
  </varray>
 </structure>
 <calculation>
  <scstep>
   <time name="dav">    1.75    0.88</time>
   <time name="total">    2.03    1.14</time>
   <energy>
    <i name="alphaZ">    217.43841536 </i>
    <i name="ewald">  -6082.71524865 </i>
    <i name="hartreedc">  -2322.11783448 </i>
    <i name="XCdc">    230.11276309 </i>
    <i name="pawpsdc">   7112.06264409 </i>
    <i name="pawaedc">  -7207.42447429 </i>
    <i name="eentropy">     -0.00015665 </i>
    <i name="bandstr">     37.91178464 </i>
    <i name="atom">   8598.20158228 </i>
    <i name="e_fr_energy">    583.46947537 </i>
    <i name="e_wo_entrp">    583.46963202 </i>
    <i name="e_0_energy">    583.46955370 </i>
   </energy>
  </scstep>
  <scstep>
   <time name="dav">    1.98    0.99</time>
   <time name="total">    1.99    0.99</time>
   <energy>
    <i name="e_fr_energy">     15.75420270 </i>
    <i name="e_wo_entrp">     15.75435988 </i>
    <i name="e_0_energy">     15.75428129 </i>
   </energy>
  </scstep>
  <scstep>
   <time name="dav">    2.66    1.33</time>
   <time name="total">    2.67    1.34</time>
   <energy>
    <i name="e_fr_energy">    -35.45606698 </i>
    <i name="e_wo_entrp">    -35.45606698 </i>
    <i name="e_0_energy">    -35.45606698 </i>
   </energy>
  </scstep>
  <scstep>
   <time name="dav">    2.28    1.15</time>
   <time name="total">    2.28    1.16</time>
   <energy>
    <i name="e_fr_energy">    -36.55547343 </i>
    <i name="e_wo_entrp">    -36.55547343 </i>
    <i name="e_0_energy">    -36.55547343 </i>
   </energy>
  </scstep>
  <scstep>
   <time name="dav">    2.95    1.49</time>
   <time name="total">    3.18    1.65</time>
   <energy>
    <i name="e_fr_energy">    -36.58320604 </i>
    <i name="e_wo_entrp">    -36.58320604 </i>
    <i name="e_0_energy">    -36.58320604 </i>
   </energy>
  </scstep>
  <scstep>
   <time name="dav">    3.09    1.55</time>
   <time name="total">    3.58    1.92</time>
   <energy>
    <i name="e_fr_energy">    -35.95339565 </i>
    <i name="e_wo_entrp">    -35.95339565 </i>
    <i name="e_0_energy">    -35.95339565 </i>
   </energy>
  </scstep>
  <scstep>
   <time name="dav">    2.84    1.43</time>
   <time name="total">    3.33    1.80</time>
   <energy>
    <i name="e_fr_energy">    -35.91870027 </i>
    <i name="e_wo_entrp">    -35.91870027 </i>
    <i name="e_0_energy">    -35.91870027 </i>
   </energy>
  </scstep>
  <scstep>
   <time name="dav">    2.48    1.25</time>
   <time name="total">    2.85    1.62</time>
   <energy>
    <i name="e_fr_energy">    -35.91366200 </i>
    <i name="e_wo_entrp">    -35.91366200 </i>
    <i name="e_0_energy">    -35.91366200 </i>
   </energy>
  </scstep>
  <scstep>
   <time name="dav">    2.83    1.42</time>
   <time name="total">    3.31    1.79</time>
   <energy>
    <i name="e_fr_energy">    -35.91369411 </i>
    <i name="e_wo_entrp">    -35.91369411 </i>
    <i name="e_0_energy">    -35.91369411 </i>
   </energy>
  </scstep>
  <scstep>
   <time name="dav">    2.31    1.16</time>
   <time name="total">    2.69    1.53</time>
   <energy>
    <i name="e_fr_energy">    -35.91369667 </i>
    <i name="e_wo_entrp">    -35.91369667 </i>
    <i name="e_0_energy">    -35.91369667 </i>
   </energy>
  </scstep>
  <scstep>
   <time name="dav">    2.79    1.40</time>
   <time name="total">    3.29    1.78</time>
   <energy>
    <i name="e_fr_energy">    -35.91370992 </i>
    <i name="e_wo_entrp">    -35.91370992 </i>
    <i name="e_0_energy">    -35.91370992 </i>
   </energy>
  </scstep>
  <scstep>
   <time name="dav">    2.44    1.26</time>
   <time name="total">    2.81    1.62</time>
   <energy>
    <i name="e_fr_energy">    -35.91370822 </i>
    <i name="e_wo_entrp">    -35.91370822 </i>
    <i name="e_0_energy">    -35.91370822 </i>
   </energy>
  </scstep>
  <scstep>
   <time name="dav">    2.75    1.38</time>
   <time name="total">    3.16    1.74</time>
   <energy>
    <i name="e_fr_energy">    -35.91370816 </i>
    <i name="e_wo_entrp">    -35.91370816 </i>
    <i name="e_0_energy">    -35.91370816 </i>
   </energy>
  </scstep>
  <scstep>
   <time name="dav">    2.42    1.22</time>
   <time name="total">    2.89    1.58</time>
   <energy>
    <i name="e_fr_energy">    -35.91370818 </i>
    <i name="e_wo_entrp">    -35.91370818 </i>
    <i name="e_0_energy">    -35.91370818 </i>
   </energy>
  </scstep>
  <scstep>
   <time name="dav">    2.22    1.11</time>
   <time name="total">    2.67    1.48</time>
   <energy>
    <i name="e_fr_energy">    -35.91370812 </i>
    <i name="e_wo_entrp">    -35.91370812 </i>
    <i name="e_0_energy">    -35.91370812 </i>
   </energy>
  </scstep>
  <scstep>
   <time name="dav">    1.83    0.92</time>
   <time name="total">    2.33    1.30</time>
   <energy>
    <i name="e_fr_energy">    -35.91370810 </i>
    <i name="e_wo_entrp">    -35.91370810 </i>
    <i name="e_0_energy">    -35.91370810 </i>
   </energy>
  </scstep>
  <scstep>
   <time name="dav">    1.72    0.87</time>
   <time name="total">    1.98    1.12</time>
   <energy>
    <i name="alphaZ">    217.43841536 </i>
    <i name="ewald">  -6082.71524865 </i>
    <i name="hartreedc">  -2303.87256212 </i>
    <i name="XCdc">    230.43082660 </i>
    <i name="pawpsdc">   8471.63213023 </i>
    <i name="pawaedc">  -8567.53139241 </i>
    <i name="eentropy">     -0.00000000 </i>
    <i name="bandstr">   -599.49745939 </i>
    <i name="atom">   8598.20158228 </i>
    <i name="e_fr_energy">    -35.91370811 </i>
    <i name="e_wo_entrp">    -35.91370811 </i>
    <i name="e_0_energy">    -35.91370811 </i>
   </energy>
  </scstep>
  <structure>
   <crystal>
    <varray name="basis" >
     <v>       4.34539863       0.00000000       0.00000000 </v>
     <v>       0.00000000       4.11936655       0.00000000 </v>
     <v>       0.00000000       0.00000000      11.35478920 </v>
    </varray>
    <i name="volume">    203.25401695 </i>
    <varray name="rec_basis" >
     <v>       0.23012848       0.00000000       0.00000000 </v>
     <v>       0.00000000       0.24275577       0.00000000 </v>
     <v>       0.00000000       0.00000000       0.08806857 </v>
    </varray>
   </crystal>
   <varray name="positions" >
    <v>       0.09903631       0.25047891       0.11539711 </v>
    <v>       0.40096369       0.25047891       0.61539711 </v>
    <v>       0.59903631       0.74952109       0.38460289 </v>
    <v>       0.90096369       0.74952109       0.88460289 </v>
    <v>       0.02605052       0.25123329       0.35675466 </v>
    <v>       0.47394948       0.25123329       0.85675466 </v>
    <v>       0.52605052       0.74876671       0.14324534 </v>
    <v>       0.97394948       0.74876671       0.64324534 </v>
   </varray>
  </structure>
  <varray name="forces" >
   <v>      -0.00794942      -0.01615764       0.00369828 </v>
   <v>       0.00794942      -0.01615764       0.00369828 </v>
   <v>      -0.00794942       0.01615764      -0.00369828 </v>
   <v>       0.00794942       0.01615764      -0.00369828 </v>
   <v>      -0.00329864      -0.02760160      -0.00281375 </v>
   <v>       0.00329864      -0.02760160      -0.00281375 </v>
   <v>      -0.00329864       0.02760160       0.00281375 </v>
   <v>       0.00329864       0.02760160       0.00281375 </v>
  </varray>
  <varray name="stress" >
   <v>       0.02019243       0.00000000       0.00000000 </v>
   <v>       0.00000000       0.04296001      -0.16418358 </v>
   <v>       0.00000000      -0.16418344      -0.50820190 </v>
  </varray>
  <energy>
   <i name="e_fr_energy">    -37.43158483 </i>
   <i name="e_wo_entrp">    -37.43158483 </i>
   <i name="e_0_energy">    -37.43158483 </i>
  </energy>
  <scstep>
   <time name="total">    1.25    0.64</time>
   <energy>
    <i name="e_fr_energy">   -132.50961314 </i>
    <i name="e_wo_entrp">   -132.50961314 </i>
    <i name="e_0_energy">   -132.50961314 </i>
   </energy>
  </scstep>
  <scstep>
   <time name="total">    1.63    0.85</time>
   <energy>
    <i name="e_fr_energy">   -259.12685171 </i>
    <i name="e_wo_entrp">   -259.12685171 </i>
    <i name="e_0_energy">   -259.12685171 </i>
   </energy>
  </scstep>
  <scstep>
   <time name="total">    1.67    0.89</time>
   <energy>
    <i name="e_fr_energy">   -259.92852584 </i>
    <i name="e_wo_entrp">   -259.92852584 </i>
    <i name="e_0_energy">   -259.92852584 </i>
   </energy>
  </scstep>
  <scstep>
   <time name="total">    1.37    0.74</time>
   <energy>
    <i name="e_fr_energy">   -260.10414901 </i>
    <i name="e_wo_entrp">   -260.10414901 </i>
    <i name="e_0_energy">   -260.10414901 </i>
   </energy>
  </scstep>
  <scstep>
   <time name="total">    1.44    0.78</time>
   <energy>
    <i name="e_fr_energy">   -260.10719571 </i>
    <i name="e_wo_entrp">   -260.10719571 </i>
    <i name="e_0_energy">   -260.10719571 </i>
   </energy>
  </scstep>
  <scstep>
   <time name="total">    1.44    0.76</time>
   <energy>
    <i name="e_fr_energy">   -260.10944773 </i>
    <i name="e_wo_entrp">   -260.10944773 </i>
    <i name="e_0_energy">   -260.10944773 </i>
   </energy>
  </scstep>
  <scstep>
   <time name="total">    1.57    0.79</time>
   <energy>
    <i name="e_fr_energy">   -260.10966071 </i>
    <i name="e_wo_entrp">   -260.10966071 </i>
    <i name="e_0_energy">   -260.10966071 </i>
   </energy>
  </scstep>
  <scstep>
   <time name="total">    1.60    0.80</time>
   <energy>
    <i name="e_fr_energy">   -260.10966353 </i>
    <i name="e_wo_entrp">   -260.10966353 </i>
    <i name="e_0_energy">   -260.10966353 </i>
   </energy>
  </scstep>
  <scstep>
   <time name="total">    1.63    0.84</time>
   <energy>
    <i name="e_fr_energy">   -260.10966152 </i>
    <i name="e_wo_entrp">   -260.10966152 </i>
    <i name="e_0_energy">   -260.10966152 </i>
   </energy>
  </scstep>
  <scstep>
   <time name="total">    1.58    0.82</time>
   <energy>
    <i name="e_fr_energy">   -260.10966650 </i>
    <i name="e_wo_entrp">   -260.10966650 </i>
    <i name="e_0_energy">   -260.10966650 </i>
   </energy>
  </scstep>
  <scstep>
   <time name="total">    1.53    0.80</time>
   <energy>
    <i name="e_fr_energy">   -260.10966460 </i>
    <i name="e_wo_entrp">   -260.10966460 </i>
    <i name="e_0_energy">   -260.10966460 </i>
   </energy>
  </scstep>
  <scstep>
   <time name="total">    1.51    0.78</time>
   <energy>
    <i name="e_fr_energy">   -260.10966311 </i>
    <i name="e_wo_entrp">   -260.10966311 </i>
    <i name="e_0_energy">   -260.10966311 </i>
   </energy>
  </scstep>
  <scstep>
   <time name="total">    1.45    0.73</time>
   <energy>
    <i name="e_fr_energy">   -260.10966185 </i>
    <i name="e_wo_entrp">   -260.10966185 </i>
    <i name="e_0_energy">   -260.10966185 </i>
   </energy>
  </scstep>
  <scstep>
   <time name="total">    1.20    0.61</time>
   <energy>
    <i name="e_fr_energy">   -129.99891523 </i>
    <i name="e_wo_entrp">   -129.99891523 </i>
    <i name="e_0_energy">   -129.99891523 </i>
   </energy>
  </scstep>
  <scstep>
   <time name="total">    1.64    0.86</time>
   <energy>
    <i name="e_fr_energy">   -258.98792805 </i>
    <i name="e_wo_entrp">   -258.98792805 </i>
    <i name="e_0_energy">   -258.98792805 </i>
   </energy>
  </scstep>
  <scstep>
   <time name="total">    1.64    0.89</time>
   <energy>
    <i name="e_fr_energy">   -259.81386522 </i>
    <i name="e_wo_entrp">   -259.81386522 </i>
    <i name="e_0_energy">   -259.81386522 </i>
   </energy>
  </scstep>
  <scstep>
   <time name="total">    1.37    0.75</time>
   <energy>
    <i name="e_fr_energy">   -259.95171783 </i>
    <i name="e_wo_entrp">   -259.95171783 </i>
    <i name="e_0_energy">   -259.95171783 </i>
   </energy>
  </scstep>
  <scstep>
   <time name="total">    1.41    0.78</time>
   <energy>
    <i name="e_fr_energy">   -259.96252632 </i>
    <i name="e_wo_entrp">   -259.96252632 </i>
    <i name="e_0_energy">   -259.96252632 </i>
   </energy>
  </scstep>
  <scstep>
   <time name="total">    1.55    0.78</time>
   <energy>
    <i name="e_fr_energy">   -259.96573460 </i>
    <i name="e_wo_entrp">   -259.96573460 </i>
    <i name="e_0_energy">   -259.96573460 </i>
   </energy>
  </scstep>
  <scstep>
   <time name="total">    1.60    0.80</time>
   <energy>
    <i name="e_fr_energy">   -259.96593016 </i>
    <i name="e_wo_entrp">   -259.96593016 </i>
    <i name="e_0_energy">   -259.96593016 </i>
   </energy>
  </scstep>
  <scstep>
   <time name="total">    1.57    0.79</time>
   <energy>
    <i name="e_fr_energy">   -259.96585806 </i>
    <i name="e_wo_entrp">   -259.96585806 </i>
    <i name="e_0_energy">   -259.96585806 </i>
   </energy>
  </scstep>
  <scstep>
   <time name="total">    1.65    0.83</time>
   <energy>
    <i name="e_fr_energy">   -259.96582978 </i>
    <i name="e_wo_entrp">   -259.96582978 </i>
    <i name="e_0_energy">   -259.96582978 </i>
   </energy>
  </scstep>
  <scstep>
   <time name="total">    1.61    0.82</time>
   <energy>
    <i name="e_fr_energy">   -259.96586466 </i>
    <i name="e_wo_entrp">   -259.96586466 </i>
    <i name="e_0_energy">   -259.96586466 </i>
   </energy>
  </scstep>
  <scstep>
   <time name="total">    1.56    0.79</time>
   <energy>
    <i name="e_fr_energy">   -259.96586285 </i>
    <i name="e_wo_entrp">   -259.96586285 </i>
    <i name="e_0_energy">   -259.96586285 </i>
   </energy>
  </scstep>
  <scstep>
   <time name="total">    1.48    0.74</time>
   <energy>
    <i name="e_fr_energy">   -259.96589127 </i>
    <i name="e_wo_entrp">   -259.96589127 </i>
    <i name="e_0_energy">   -259.96589127 </i>
   </energy>
  </scstep>
  <scstep>
   <time name="total">    1.40    0.70</time>
   <energy>
    <i name="e_fr_energy">   -259.96585449 </i>
    <i name="e_wo_entrp">   -259.96585449 </i>
    <i name="e_0_energy">   -259.96585449 </i>
   </energy>
  </scstep>
  <scstep>
   <time name="total">    1.19    0.60</time>
   <energy>
    <i name="e_fr_energy">   -129.26028155 </i>
    <i name="e_wo_entrp">   -129.26028155 </i>
    <i name="e_0_energy">   -129.26028155 </i>
   </energy>
  </scstep>
  <scstep>
   <time name="total">    1.66    0.89</time>
   <energy>
    <i name="e_fr_energy">   -263.71784126 </i>
    <i name="e_wo_entrp">   -263.71784126 </i>
    <i name="e_0_energy">   -263.71784126 </i>
   </energy>
  </scstep>
  <scstep>
   <time name="total">    1.63    0.89</time>
   <energy>
    <i name="e_fr_energy">   -264.68977007 </i>
    <i name="e_wo_entrp">   -264.68977007 </i>
    <i name="e_0_energy">   -264.68977007 </i>
   </energy>
  </scstep>
  <scstep>
   <time name="total">    1.35    0.74</time>
   <energy>
    <i name="e_fr_energy">   -264.98449772 </i>
    <i name="e_wo_entrp">   -264.98449772 </i>
    <i name="e_0_energy">   -264.98449772 </i>
   </energy>
  </scstep>
  <scstep>
   <time name="total">    1.48    0.80</time>
   <energy>
    <i name="e_fr_energy">   -264.98565159 </i>
    <i name="e_wo_entrp">   -264.98565159 </i>
    <i name="e_0_energy">   -264.98565159 </i>
   </energy>
  </scstep>
  <scstep>
   <time name="total">    1.49    0.79</time>
   <energy>
    <i name="e_fr_energy">   -264.98951484 </i>
    <i name="e_wo_entrp">   -264.98951484 </i>
    <i name="e_0_energy">   -264.98951484 </i>
   </energy>
  </scstep>
  <scstep>
   <time name="total">    1.62    0.81</time>
   <energy>
    <i name="e_fr_energy">   -264.98970596 </i>
    <i name="e_wo_entrp">   -264.98970596 </i>
    <i name="e_0_energy">   -264.98970596 </i>
   </energy>
  </scstep>
  <scstep>
   <time name="total">    1.66    0.83</time>
   <energy>
    <i name="e_fr_energy">   -264.98968108 </i>
    <i name="e_wo_entrp">   -264.98968108 </i>
    <i name="e_0_energy">   -264.98968108 </i>
   </energy>
  </scstep>
  <scstep>
   <time name="total">    1.62    0.83</time>
   <energy>
    <i name="e_fr_energy">   -264.98967244 </i>
    <i name="e_wo_entrp">   -264.98967244 </i>
    <i name="e_0_energy">   -264.98967244 </i>
   </energy>
  </scstep>
  <scstep>
   <time name="total">    1.59    0.83</time>
   <energy>
    <i name="e_fr_energy">   -264.98970347 </i>
    <i name="e_wo_entrp">   -264.98970347 </i>
    <i name="e_0_energy">   -264.98970347 </i>
   </energy>
  </scstep>
  <scstep>
   <time name="total">    1.54    0.80</time>
   <energy>
    <i name="e_fr_energy">   -264.98970119 </i>
    <i name="e_wo_entrp">   -264.98970119 </i>
    <i name="e_0_energy">   -264.98970119 </i>
   </energy>
  </scstep>
  <scstep>
   <time name="total">    1.55    0.79</time>
   <energy>
    <i name="e_fr_energy">   -264.98969990 </i>
    <i name="e_wo_entrp">   -264.98969990 </i>
    <i name="e_0_energy">   -264.98969990 </i>
   </energy>
  </scstep>
  <scstep>
   <time name="total">    1.48    0.75</time>
   <energy>
    <i name="e_fr_energy">   -264.98970892 </i>
    <i name="e_wo_entrp">   -264.98970892 </i>
    <i name="e_0_energy">   -264.98970892 </i>
   </energy>
  </scstep>
  <scstep>
   <time name="total">    1.94    1.27</time>
   <energy>
    <i name="e_fr_energy">     -2.26670885 </i>
    <i name="e_wo_entrp">     -2.26670885 </i>
    <i name="e_0_energy">     -2.26670885 </i>
   </energy>
  </scstep>
  <scstep>
   <time name="total">    2.36    1.44</time>
   <energy>
    <i name="e_fr_energy">    -13.86950790 </i>
    <i name="e_wo_entrp">    -13.86950790 </i>
    <i name="e_0_energy">    -13.86950790 </i>
   </energy>
  </scstep>
  <scstep>
   <time name="total">    2.39    1.46</time>
   <energy>
    <i name="e_fr_energy">    -13.94384969 </i>
    <i name="e_wo_entrp">    -13.94384969 </i>
    <i name="e_0_energy">    -13.94384969 </i>
   </energy>
  </scstep>
  <scstep>
   <time name="total">    2.39    1.48</time>
   <energy>
    <i name="e_fr_energy">    -13.94427981 </i>
    <i name="e_wo_entrp">    -13.94427981 </i>
    <i name="e_0_energy">    -13.94427981 </i>
   </energy>
  </scstep>
  <scstep>
   <time name="total">    2.41    1.49</time>
   <energy>
    <i name="e_fr_energy">    -13.94437057 </i>
    <i name="e_wo_entrp">    -13.94437057 </i>
    <i name="e_0_energy">    -13.94437057 </i>
   </energy>
  </scstep>
  <scstep>
   <time name="total">    2.42    1.49</time>
   <energy>
    <i name="e_fr_energy">    -13.94437458 </i>
    <i name="e_wo_entrp">    -13.94437458 </i>
    <i name="e_0_energy">    -13.94437458 </i>
   </energy>
  </scstep>
  <scstep>
   <time name="total">    2.51    1.50</time>
   <energy>
    <i name="e_fr_energy">    -13.94437586 </i>
    <i name="e_wo_entrp">    -13.94437586 </i>
    <i name="e_0_energy">    -13.94437586 </i>
   </energy>
  </scstep>
  <scstep>
   <time name="total">    2.50    1.46</time>
   <energy>
    <i name="e_fr_energy">    -13.94437597 </i>
    <i name="e_wo_entrp">    -13.94437597 </i>
    <i name="e_0_energy">    -13.94437597 </i>
   </energy>
  </scstep>
  <scstep>
   <time name="total">    2.56    1.50</time>
   <energy>
    <i name="e_fr_energy">    -13.94437599 </i>
    <i name="e_wo_entrp">    -13.94437599 </i>
    <i name="e_0_energy">    -13.94437599 </i>
   </energy>
  </scstep>
  <scstep>
   <time name="total">    2.48    1.46</time>
   <energy>
    <i name="e_fr_energy">    -13.94437599 </i>
    <i name="e_wo_entrp">    -13.94437599 </i>
    <i name="e_0_energy">    -13.94437599 </i>
   </energy>
  </scstep>
  <scstep>
   <time name="total">    2.43    1.44</time>
   <energy>
    <i name="e_fr_energy">    -13.94437599 </i>
    <i name="e_wo_entrp">    -13.94437599 </i>
    <i name="e_0_energy">    -13.94437599 </i>
   </energy>
  </scstep>
  <scstep>
   <time name="total">    1.92    1.25</time>
   <energy>
    <i name="e_fr_energy">     -3.84752188 </i>
    <i name="e_wo_entrp">     -3.84752188 </i>
    <i name="e_0_energy">     -3.84752188 </i>
   </energy>
  </scstep>
  <scstep>
   <time name="total">    2.33    1.44</time>
   <energy>
    <i name="e_fr_energy">    -16.77435093 </i>
    <i name="e_wo_entrp">    -16.77435093 </i>
    <i name="e_0_energy">    -16.77435093 </i>
   </energy>
  </scstep>
  <scstep>
   <time name="total">    2.39    1.47</time>
   <energy>
    <i name="e_fr_energy">    -16.86046494 </i>
    <i name="e_wo_entrp">    -16.86046494 </i>
    <i name="e_0_energy">    -16.86046494 </i>
   </energy>
  </scstep>
  <scstep>
   <time name="total">    2.41    1.49</time>
   <energy>
    <i name="e_fr_energy">    -16.86090221 </i>
    <i name="e_wo_entrp">    -16.86090221 </i>
    <i name="e_0_energy">    -16.86090221 </i>
   </energy>
  </scstep>
  <scstep>
   <time name="total">    2.41    1.48</time>
   <energy>
    <i name="e_fr_energy">    -16.86098056 </i>
    <i name="e_wo_entrp">    -16.86098056 </i>
    <i name="e_0_energy">    -16.86098056 </i>
   </energy>
  </scstep>
  <scstep>
   <time name="total">    2.40    1.48</time>
   <energy>
    <i name="e_fr_energy">    -16.86098386 </i>
    <i name="e_wo_entrp">    -16.86098386 </i>
    <i name="e_0_energy">    -16.86098386 </i>
   </energy>
  </scstep>
  <scstep>
   <time name="total">    2.43    1.50</time>
   <energy>
    <i name="e_fr_energy">    -16.86098517 </i>
    <i name="e_wo_entrp">    -16.86098517 </i>
    <i name="e_0_energy">    -16.86098517 </i>
   </energy>
  </scstep>
  <scstep>
   <time name="total">    2.50    1.47</time>
   <energy>
    <i name="e_fr_energy">    -16.86098527 </i>
    <i name="e_wo_entrp">    -16.86098527 </i>
    <i name="e_0_energy">    -16.86098527 </i>
   </energy>
  </scstep>
  <scstep>
   <time name="total">    2.51    1.47</time>
   <energy>
    <i name="e_fr_energy">    -16.86098529 </i>
    <i name="e_wo_entrp">    -16.86098529 </i>
    <i name="e_0_energy">    -16.86098529 </i>
   </energy>
  </scstep>
  <scstep>
   <time name="total">    2.45    1.44</time>
   <energy>
    <i name="e_fr_energy">    -16.86098529 </i>
    <i name="e_wo_entrp">    -16.86098529 </i>
    <i name="e_0_energy">    -16.86098529 </i>
   </energy>
  </scstep>
  <scstep>
   <time name="total">    2.39    1.41</time>
   <energy>
    <i name="e_fr_energy">    -16.86098530 </i>
    <i name="e_wo_entrp">    -16.86098530 </i>
    <i name="e_0_energy">    -16.86098530 </i>
   </energy>
  </scstep>
  <scstep>
   <time name="total">    2.31    1.37</time>
   <energy>
    <i name="e_fr_energy">    -16.86098530 </i>
    <i name="e_wo_entrp">    -16.86098530 </i>
    <i name="e_0_energy">    -16.86098530 </i>
   </energy>
  </scstep>
  <scstep>
   <time name="total">    1.92    1.25</time>
   <energy>
    <i name="e_fr_energy">     -4.13199006 </i>
    <i name="e_wo_entrp">     -4.13199006 </i>
    <i name="e_0_energy">     -4.13199006 </i>
   </energy>
  </scstep>
  <scstep>
   <time name="total">    2.37    1.46</time>
   <energy>
    <i name="e_fr_energy">    -15.58022683 </i>
    <i name="e_wo_entrp">    -15.58022683 </i>
    <i name="e_0_energy">    -15.58022683 </i>
   </energy>
  </scstep>
  <scstep>
   <time name="total">    2.40    1.48</time>
   <energy>
    <i name="e_fr_energy">    -15.64353115 </i>
    <i name="e_wo_entrp">    -15.64353115 </i>
    <i name="e_0_energy">    -15.64353115 </i>
   </energy>
  </scstep>
  <scstep>
   <time name="total">    2.41    1.49</time>
   <energy>
    <i name="e_fr_energy">    -15.64393739 </i>
    <i name="e_wo_entrp">    -15.64393739 </i>
    <i name="e_0_energy">    -15.64393739 </i>
   </energy>
  </scstep>
  <scstep>
   <time name="total">    2.40    1.47</time>
   <energy>
    <i name="e_fr_energy">    -15.64403664 </i>
    <i name="e_wo_entrp">    -15.64403664 </i>
    <i name="e_0_energy">    -15.64403664 </i>
   </energy>
  </scstep>
  <scstep>
   <time name="total">    2.43    1.49</time>
   <energy>
    <i name="e_fr_energy">    -15.64404035 </i>
    <i name="e_wo_entrp">    -15.64404035 </i>
    <i name="e_0_energy">    -15.64404035 </i>
   </energy>
  </scstep>
  <scstep>
   <time name="total">    2.44    1.49</time>
   <energy>
    <i name="e_fr_energy">    -15.64404199 </i>
    <i name="e_wo_entrp">    -15.64404199 </i>
    <i name="e_0_energy">    -15.64404199 </i>
   </energy>
  </scstep>
  <scstep>
   <time name="total">    2.48    1.48</time>
   <energy>
    <i name="e_fr_energy">    -15.64404209 </i>
    <i name="e_wo_entrp">    -15.64404209 </i>
    <i name="e_0_energy">    -15.64404209 </i>
   </energy>
  </scstep>
  <scstep>
   <time name="total">    2.52    1.47</time>
   <energy>
    <i name="e_fr_energy">    -15.64404213 </i>
    <i name="e_wo_entrp">    -15.64404213 </i>
    <i name="e_0_energy">    -15.64404213 </i>
   </energy>
  </scstep>
  <scstep>
   <time name="total">    2.44    1.43</time>
   <energy>
    <i name="e_fr_energy">    -15.64404213 </i>
    <i name="e_wo_entrp">    -15.64404213 </i>
    <i name="e_0_energy">    -15.64404213 </i>
   </energy>
  </scstep>
  <scstep>
   <time name="total">    2.42    1.43</time>
   <energy>
    <i name="e_fr_energy">    -15.64404213 </i>
    <i name="e_wo_entrp">    -15.64404213 </i>
    <i name="e_0_energy">    -15.64404213 </i>
   </energy>
  </scstep>
  <scstep>
   <time name="total">    2.31    1.37</time>
   <energy>
    <i name="e_fr_energy">    -15.64404213 </i>
    <i name="e_wo_entrp">    -15.64404213 </i>
    <i name="e_0_energy">    -15.64404213 </i>
   </energy>
  </scstep>
  <scstep>
   <time name="total">    2.28    1.35</time>
   <energy>
    <i name="e_fr_energy">    -15.64404213 </i>
    <i name="e_wo_entrp">    -15.64404213 </i>
    <i name="e_0_energy">    -15.64404213 </i>
   </energy>
  </scstep>
  <varray name="dielectric_ipa" >
   <v>      25.82880844       0.00000000       0.00000000 </v>
   <v>       0.00000000      31.02200868       0.01060022 </v>
   <v>       0.00000000       0.01060106      28.85516732 </v>
  </varray>
  <kpoints>
   <generation param="Gamma">
    <v type="int" name="divisions">       8        9        3 </v>
    <v name="usershift">      0.00000000       0.00000000       0.00000000 </v>
    <v name="genvec1">      0.12500000       0.00000000       0.00000000 </v>
    <v name="genvec2">      0.00000000       0.11111111       0.00000000 </v>
    <v name="genvec3">      0.00000000       0.00000000       0.33333333 </v>
    <v name="shift">      0.00000000       0.00000000       0.00000000 </v>
   </generation>
   <varray name="kpointlist" >
    <v>       0.00000000       0.00000000       0.00000000 </v>
    <v>       0.12500000       0.00000000       0.00000000 </v>
    <v>       0.25000000       0.00000000       0.00000000 </v>
    <v>       0.37500000       0.00000000       0.00000000 </v>
    <v>       0.50000000       0.00000000       0.00000000 </v>
    <v>       0.00000000       0.11111111       0.00000000 </v>
    <v>       0.12500000       0.11111111       0.00000000 </v>
    <v>       0.25000000       0.11111111       0.00000000 </v>
    <v>       0.37500000       0.11111111       0.00000000 </v>
    <v>       0.50000000       0.11111111       0.00000000 </v>
    <v>       0.00000000       0.22222222       0.00000000 </v>
    <v>       0.12500000       0.22222222       0.00000000 </v>
    <v>       0.25000000       0.22222222       0.00000000 </v>
    <v>       0.37500000       0.22222222       0.00000000 </v>
    <v>       0.50000000       0.22222222       0.00000000 </v>
    <v>       0.00000000       0.33333333       0.00000000 </v>
    <v>       0.12500000       0.33333333       0.00000000 </v>
    <v>       0.25000000       0.33333333       0.00000000 </v>
    <v>       0.37500000       0.33333333       0.00000000 </v>
    <v>       0.50000000       0.33333333       0.00000000 </v>
    <v>       0.00000000       0.44444444       0.00000000 </v>
    <v>       0.12500000       0.44444444       0.00000000 </v>
    <v>       0.25000000       0.44444444       0.00000000 </v>
    <v>       0.37500000       0.44444444       0.00000000 </v>
    <v>       0.50000000       0.44444444       0.00000000 </v>
    <v>       0.00000000       0.00000000       0.33333333 </v>
    <v>       0.12500000       0.00000000       0.33333333 </v>
    <v>       0.25000000       0.00000000       0.33333333 </v>
    <v>       0.37500000       0.00000000       0.33333333 </v>
    <v>       0.50000000       0.00000000       0.33333333 </v>
    <v>       0.00000000       0.11111111       0.33333333 </v>
    <v>       0.00000000       0.11111111      -0.33333333 </v>
    <v>       0.12500000       0.11111111       0.33333333 </v>
    <v>      -0.12500000       0.11111111      -0.33333333 </v>
    <v>       0.25000000       0.11111111       0.33333333 </v>
    <v>      -0.25000000       0.11111111      -0.33333333 </v>
    <v>       0.37500000       0.11111111       0.33333333 </v>
    <v>      -0.37500000       0.11111111      -0.33333333 </v>
    <v>       0.50000000       0.11111111       0.33333333 </v>
    <v>       0.50000000       0.11111111      -0.33333333 </v>
    <v>       0.00000000       0.22222222       0.33333333 </v>
    <v>       0.00000000       0.22222222      -0.33333333 </v>
    <v>       0.12500000       0.22222222       0.33333333 </v>
    <v>      -0.12500000       0.22222222      -0.33333333 </v>
    <v>       0.25000000       0.22222222       0.33333333 </v>
    <v>      -0.25000000       0.22222222      -0.33333333 </v>
    <v>       0.37500000       0.22222222       0.33333333 </v>
    <v>      -0.37500000       0.22222222      -0.33333333 </v>
    <v>       0.50000000       0.22222222       0.33333333 </v>
    <v>       0.50000000       0.22222222      -0.33333333 </v>
    <v>       0.00000000       0.33333333       0.33333333 </v>
    <v>       0.00000000       0.33333333      -0.33333333 </v>
    <v>       0.12500000       0.33333333       0.33333333 </v>
    <v>      -0.12500000       0.33333333      -0.33333333 </v>
    <v>       0.25000000       0.33333333       0.33333333 </v>
    <v>      -0.25000000       0.33333333      -0.33333333 </v>
    <v>       0.37500000       0.33333333       0.33333333 </v>
    <v>      -0.37500000       0.33333333      -0.33333333 </v>
    <v>       0.50000000       0.33333333       0.33333333 </v>
    <v>       0.50000000       0.33333333      -0.33333333 </v>
    <v>       0.00000000       0.44444444       0.33333333 </v>
    <v>       0.00000000       0.44444444      -0.33333333 </v>
    <v>       0.12500000       0.44444444       0.33333333 </v>
    <v>      -0.12500000       0.44444444      -0.33333333 </v>
    <v>       0.25000000       0.44444444       0.33333333 </v>
    <v>      -0.25000000       0.44444444      -0.33333333 </v>
    <v>       0.37500000       0.44444444       0.33333333 </v>
    <v>      -0.37500000       0.44444444      -0.33333333 </v>
    <v>       0.50000000       0.44444444       0.33333333 </v>
    <v>       0.50000000       0.44444444      -0.33333333 </v>
   </varray>
   <varray name="weights" >
    <v>       0.00462963 </v>
    <v>       0.00925926 </v>
    <v>       0.00925926 </v>
    <v>       0.00925926 </v>
    <v>       0.00462963 </v>
    <v>       0.00925926 </v>
    <v>       0.01851852 </v>
    <v>       0.01851852 </v>
    <v>       0.01851852 </v>
    <v>       0.00925926 </v>
    <v>       0.00925926 </v>
    <v>       0.01851852 </v>
    <v>       0.01851852 </v>
    <v>       0.01851852 </v>
    <v>       0.00925926 </v>
    <v>       0.00925926 </v>
    <v>       0.01851852 </v>
    <v>       0.01851852 </v>
    <v>       0.01851852 </v>
    <v>       0.00925926 </v>
    <v>       0.00925926 </v>
    <v>       0.01851852 </v>
    <v>       0.01851852 </v>
    <v>       0.01851852 </v>
    <v>       0.00925926 </v>
    <v>       0.00925926 </v>
    <v>       0.01851852 </v>
    <v>       0.01851852 </v>
    <v>       0.01851852 </v>
    <v>       0.00925926 </v>
    <v>       0.00925926 </v>
    <v>       0.00925926 </v>
    <v>       0.01851852 </v>
    <v>       0.01851852 </v>
    <v>       0.01851852 </v>
    <v>       0.01851852 </v>
    <v>       0.01851852 </v>
    <v>       0.01851852 </v>
    <v>       0.00925926 </v>
    <v>       0.00925926 </v>
    <v>       0.00925926 </v>
    <v>       0.00925926 </v>
    <v>       0.01851852 </v>
    <v>       0.01851852 </v>
    <v>       0.01851852 </v>
    <v>       0.01851852 </v>
    <v>       0.01851852 </v>
    <v>       0.01851852 </v>
    <v>       0.00925926 </v>
    <v>       0.00925926 </v>
    <v>       0.00925926 </v>
    <v>       0.00925926 </v>
    <v>       0.01851852 </v>
    <v>       0.01851852 </v>
    <v>       0.01851852 </v>
    <v>       0.01851852 </v>
    <v>       0.01851852 </v>
    <v>       0.01851852 </v>
    <v>       0.00925926 </v>
    <v>       0.00925926 </v>
    <v>       0.00925926 </v>
    <v>       0.00925926 </v>
    <v>       0.01851852 </v>
    <v>       0.01851852 </v>
    <v>       0.01851852 </v>
    <v>       0.01851852 </v>
    <v>       0.01851852 </v>
    <v>       0.01851852 </v>
    <v>       0.00925926 </v>
    <v>       0.00925926 </v>
   </varray>
  </kpoints>
  <scstep>
   <time name="total">    1.94    1.27</time>
   <energy>
    <i name="e_fr_energy">     -2.26670885 </i>
    <i name="e_wo_entrp">     -2.26670885 </i>
    <i name="e_0_energy">     -2.26670885 </i>
   </energy>
  </scstep>
  <scstep>
   <time name="total">    2.65    1.62</time>
   <energy>
    <i name="e_fr_energy">    -13.86950790 </i>
    <i name="e_wo_entrp">    -13.86950790 </i>
    <i name="e_0_energy">    -13.86950790 </i>
   </energy>
  </scstep>
  <scstep>
   <time name="total">    2.56    1.63</time>
   <energy>
    <i name="e_fr_energy">    -13.35473300 </i>
    <i name="e_wo_entrp">    -13.35473300 </i>
    <i name="e_0_energy">    -13.35473300 </i>
   </energy>
  </scstep>
  <scstep>
   <time name="total">    2.55    1.63</time>
   <energy>
    <i name="e_fr_energy">    -13.52423992 </i>
    <i name="e_wo_entrp">    -13.52423992 </i>
    <i name="e_0_energy">    -13.52423992 </i>
   </energy>
  </scstep>
  <scstep>
   <time name="total">    2.62    1.64</time>
   <energy>
    <i name="e_fr_energy">    -13.73102157 </i>
    <i name="e_wo_entrp">    -13.73102157 </i>
    <i name="e_0_energy">    -13.73102157 </i>
   </energy>
  </scstep>
  <scstep>
   <time name="total">    2.66    1.63</time>
   <energy>
    <i name="e_fr_energy">    -13.78327850 </i>
    <i name="e_wo_entrp">    -13.78327850 </i>
    <i name="e_0_energy">    -13.78327850 </i>
   </energy>
  </scstep>
  <scstep>
   <time name="total">    2.70    1.66</time>
   <energy>
    <i name="e_fr_energy">    -13.79821707 </i>
    <i name="e_wo_entrp">    -13.79821707 </i>
    <i name="e_0_energy">    -13.79821707 </i>
   </energy>
  </scstep>
  <scstep>
   <time name="total">    2.71    1.65</time>
   <energy>
    <i name="e_fr_energy">    -13.79295579 </i>
    <i name="e_wo_entrp">    -13.79295579 </i>
    <i name="e_0_energy">    -13.79295579 </i>
   </energy>
  </scstep>
  <scstep>
   <time name="total">    2.80    1.69</time>
   <energy>
    <i name="e_fr_energy">    -13.80245365 </i>
    <i name="e_wo_entrp">    -13.80245365 </i>
    <i name="e_0_energy">    -13.80245365 </i>
   </energy>
  </scstep>
  <scstep>
   <time name="total">    2.73    1.66</time>
   <energy>
    <i name="e_fr_energy">    -13.79904150 </i>
    <i name="e_wo_entrp">    -13.79904150 </i>
    <i name="e_0_energy">    -13.79904150 </i>
   </energy>
  </scstep>
  <scstep>
   <time name="total">    2.72    1.65</time>
   <energy>
    <i name="e_fr_energy">    -13.80226040 </i>
    <i name="e_wo_entrp">    -13.80226040 </i>
    <i name="e_0_energy">    -13.80226040 </i>
   </energy>
  </scstep>
  <scstep>
   <time name="total">    2.69    1.64</time>
   <energy>
    <i name="e_fr_energy">    -13.80011042 </i>
    <i name="e_wo_entrp">    -13.80011042 </i>
    <i name="e_0_energy">    -13.80011042 </i>
   </energy>
  </scstep>
  <scstep>
   <time name="total">    2.74    1.66</time>
   <energy>
    <i name="e_fr_energy">    -13.80049762 </i>
    <i name="e_wo_entrp">    -13.80049762 </i>
    <i name="e_0_energy">    -13.80049762 </i>
   </energy>
  </scstep>
  <scstep>
   <time name="total">    2.59    1.59</time>
   <energy>
    <i name="e_fr_energy">    -13.80100909 </i>
    <i name="e_wo_entrp">    -13.80100909 </i>
    <i name="e_0_energy">    -13.80100909 </i>
   </energy>
  </scstep>
  <scstep>
   <time name="total">    2.61    1.60</time>
   <energy>
    <i name="e_fr_energy">    -13.79858666 </i>
    <i name="e_wo_entrp">    -13.79858666 </i>
    <i name="e_0_energy">    -13.79858666 </i>
   </energy>
  </scstep>
  <scstep>
   <time name="total">    2.56    1.57</time>
   <energy>
    <i name="e_fr_energy">    -13.80324731 </i>
    <i name="e_wo_entrp">    -13.80324731 </i>
    <i name="e_0_energy">    -13.80324731 </i>
   </energy>
  </scstep>
  <scstep>
   <time name="total">    2.52    1.55</time>
   <energy>
    <i name="e_fr_energy">    -13.80367362 </i>
    <i name="e_wo_entrp">    -13.80367362 </i>
    <i name="e_0_energy">    -13.80367362 </i>
   </energy>
  </scstep>
  <scstep>
   <time name="total">    2.51    1.55</time>
   <energy>
    <i name="e_fr_energy">    -13.80081575 </i>
    <i name="e_wo_entrp">    -13.80081575 </i>
    <i name="e_0_energy">    -13.80081575 </i>
   </energy>
  </scstep>
  <scstep>
   <time name="total">    2.49    1.54</time>
   <energy>
    <i name="e_fr_energy">    -13.80172452 </i>
    <i name="e_wo_entrp">    -13.80172452 </i>
    <i name="e_0_energy">    -13.80172452 </i>
   </energy>
  </scstep>
  <scstep>
   <time name="total">    2.52    1.55</time>
   <energy>
    <i name="e_fr_energy">    -13.80153360 </i>
    <i name="e_wo_entrp">    -13.80153360 </i>
    <i name="e_0_energy">    -13.80153360 </i>
   </energy>
  </scstep>
  <scstep>
   <time name="total">    2.51    1.55</time>
   <energy>
    <i name="e_fr_energy">    -13.79914191 </i>
    <i name="e_wo_entrp">    -13.79914191 </i>
    <i name="e_0_energy">    -13.79914191 </i>
   </energy>
  </scstep>
  <scstep>
   <time name="total">    2.51    1.55</time>
   <energy>
    <i name="e_fr_energy">    -13.79985994 </i>
    <i name="e_wo_entrp">    -13.79985994 </i>
    <i name="e_0_energy">    -13.79985994 </i>
   </energy>
  </scstep>
  <scstep>
   <time name="total">    2.49    1.54</time>
   <energy>
    <i name="e_fr_energy">    -13.80108923 </i>
    <i name="e_wo_entrp">    -13.80108923 </i>
    <i name="e_0_energy">    -13.80108923 </i>
   </energy>
  </scstep>
  <scstep>
   <time name="total">    2.51    1.55</time>
   <energy>
    <i name="e_fr_energy">    -13.80130874 </i>
    <i name="e_wo_entrp">    -13.80130874 </i>
    <i name="e_0_energy">    -13.80130874 </i>
   </energy>
  </scstep>
  <scstep>
   <time name="total">    2.48    1.53</time>
   <energy>
    <i name="e_fr_energy">    -13.80010776 </i>
    <i name="e_wo_entrp">    -13.80010776 </i>
    <i name="e_0_energy">    -13.80010776 </i>
   </energy>
  </scstep>
  <scstep>
   <time name="total">    2.52    1.55</time>
   <energy>
    <i name="e_fr_energy">    -13.80237576 </i>
    <i name="e_wo_entrp">    -13.80237576 </i>
    <i name="e_0_energy">    -13.80237576 </i>
   </energy>
  </scstep>
  <scstep>
   <time name="total">    2.52    1.55</time>
   <energy>
    <i name="e_fr_energy">    -13.80237623 </i>
    <i name="e_wo_entrp">    -13.80237623 </i>
    <i name="e_0_energy">    -13.80237623 </i>
   </energy>
  </scstep>
  <scstep>
   <time name="total">    2.51    1.55</time>
   <energy>
    <i name="e_fr_energy">    -13.80177806 </i>
    <i name="e_wo_entrp">    -13.80177806 </i>
    <i name="e_0_energy">    -13.80177806 </i>
   </energy>
  </scstep>
  <scstep>
   <time name="total">    2.53    1.56</time>
   <energy>
    <i name="e_fr_energy">    -13.80102407 </i>
    <i name="e_wo_entrp">    -13.80102407 </i>
    <i name="e_0_energy">    -13.80102407 </i>
   </energy>
  </scstep>
  <scstep>
   <time name="total">    2.54    1.56</time>
   <energy>
    <i name="e_fr_energy">    -13.79908601 </i>
    <i name="e_wo_entrp">    -13.79908601 </i>
    <i name="e_0_energy">    -13.79908601 </i>
   </energy>
  </scstep>
  <scstep>
   <time name="total">    2.54    1.56</time>
   <energy>
    <i name="e_fr_energy">    -13.80044499 </i>
    <i name="e_wo_entrp">    -13.80044499 </i>
    <i name="e_0_energy">    -13.80044499 </i>
   </energy>
  </scstep>
  <kpoints>
   <generation param="Gamma">
    <v type="int" name="divisions">       8        9        3 </v>
    <v name="usershift">      0.00000000       0.00000000       0.00000000 </v>
    <v name="genvec1">      0.12500000       0.00000000       0.00000000 </v>
    <v name="genvec2">      0.00000000       0.11111111       0.00000000 </v>
    <v name="genvec3">      0.00000000       0.00000000       0.33333333 </v>
    <v name="shift">      0.00000000       0.00000000       0.00000000 </v>
   </generation>
   <varray name="kpointlist" >
    <v>       0.00000000       0.00000000       0.00000000 </v>
    <v>       0.12500000       0.00000000       0.00000000 </v>
    <v>       0.25000000       0.00000000       0.00000000 </v>
    <v>       0.37500000       0.00000000       0.00000000 </v>
    <v>       0.50000000       0.00000000       0.00000000 </v>
    <v>       0.00000000       0.11111111       0.00000000 </v>
    <v>       0.12500000       0.11111111       0.00000000 </v>
    <v>       0.25000000       0.11111111       0.00000000 </v>
    <v>       0.37500000       0.11111111       0.00000000 </v>
    <v>       0.50000000       0.11111111       0.00000000 </v>
    <v>       0.00000000       0.22222222       0.00000000 </v>
    <v>       0.12500000       0.22222222       0.00000000 </v>
    <v>       0.25000000       0.22222222       0.00000000 </v>
    <v>       0.37500000       0.22222222       0.00000000 </v>
    <v>       0.50000000       0.22222222       0.00000000 </v>
    <v>       0.00000000       0.33333333       0.00000000 </v>
    <v>       0.12500000       0.33333333       0.00000000 </v>
    <v>       0.25000000       0.33333333       0.00000000 </v>
    <v>       0.37500000       0.33333333       0.00000000 </v>
    <v>       0.50000000       0.33333333       0.00000000 </v>
    <v>       0.00000000       0.44444444       0.00000000 </v>
    <v>       0.12500000       0.44444444       0.00000000 </v>
    <v>       0.25000000       0.44444444       0.00000000 </v>
    <v>       0.37500000       0.44444444       0.00000000 </v>
    <v>       0.50000000       0.44444444       0.00000000 </v>
    <v>       0.00000000       0.00000000       0.33333333 </v>
    <v>       0.12500000       0.00000000       0.33333333 </v>
    <v>       0.25000000       0.00000000       0.33333333 </v>
    <v>       0.37500000       0.00000000       0.33333333 </v>
    <v>       0.50000000       0.00000000       0.33333333 </v>
    <v>       0.00000000       0.11111111       0.33333333 </v>
    <v>       0.00000000       0.11111111      -0.33333333 </v>
    <v>       0.12500000       0.11111111       0.33333333 </v>
    <v>      -0.12500000       0.11111111      -0.33333333 </v>
    <v>       0.25000000       0.11111111       0.33333333 </v>
    <v>      -0.25000000       0.11111111      -0.33333333 </v>
    <v>       0.37500000       0.11111111       0.33333333 </v>
    <v>      -0.37500000       0.11111111      -0.33333333 </v>
    <v>       0.50000000       0.11111111       0.33333333 </v>
    <v>       0.50000000       0.11111111      -0.33333333 </v>
    <v>       0.00000000       0.22222222       0.33333333 </v>
    <v>       0.00000000       0.22222222      -0.33333333 </v>
    <v>       0.12500000       0.22222222       0.33333333 </v>
    <v>      -0.12500000       0.22222222      -0.33333333 </v>
    <v>       0.25000000       0.22222222       0.33333333 </v>
    <v>      -0.25000000       0.22222222      -0.33333333 </v>
    <v>       0.37500000       0.22222222       0.33333333 </v>
    <v>      -0.37500000       0.22222222      -0.33333333 </v>
    <v>       0.50000000       0.22222222       0.33333333 </v>
    <v>       0.50000000       0.22222222      -0.33333333 </v>
    <v>       0.00000000       0.33333333       0.33333333 </v>
    <v>       0.00000000       0.33333333      -0.33333333 </v>
    <v>       0.12500000       0.33333333       0.33333333 </v>
    <v>      -0.12500000       0.33333333      -0.33333333 </v>
    <v>       0.25000000       0.33333333       0.33333333 </v>
    <v>      -0.25000000       0.33333333      -0.33333333 </v>
    <v>       0.37500000       0.33333333       0.33333333 </v>
    <v>      -0.37500000       0.33333333      -0.33333333 </v>
    <v>       0.50000000       0.33333333       0.33333333 </v>
    <v>       0.50000000       0.33333333      -0.33333333 </v>
    <v>       0.00000000       0.44444444       0.33333333 </v>
    <v>       0.00000000       0.44444444      -0.33333333 </v>
    <v>       0.12500000       0.44444444       0.33333333 </v>
    <v>      -0.12500000       0.44444444      -0.33333333 </v>
    <v>       0.25000000       0.44444444       0.33333333 </v>
    <v>      -0.25000000       0.44444444      -0.33333333 </v>
    <v>       0.37500000       0.44444444       0.33333333 </v>
    <v>      -0.37500000       0.44444444      -0.33333333 </v>
    <v>       0.50000000       0.44444444       0.33333333 </v>
    <v>       0.50000000       0.44444444      -0.33333333 </v>
   </varray>
   <varray name="weights" >
    <v>       0.00462963 </v>
    <v>       0.00925926 </v>
    <v>       0.00925926 </v>
    <v>       0.00925926 </v>
    <v>       0.00462963 </v>
    <v>       0.00925926 </v>
    <v>       0.01851852 </v>
    <v>       0.01851852 </v>
    <v>       0.01851852 </v>
    <v>       0.00925926 </v>
    <v>       0.00925926 </v>
    <v>       0.01851852 </v>
    <v>       0.01851852 </v>
    <v>       0.01851852 </v>
    <v>       0.00925926 </v>
    <v>       0.00925926 </v>
    <v>       0.01851852 </v>
    <v>       0.01851852 </v>
    <v>       0.01851852 </v>
    <v>       0.00925926 </v>
    <v>       0.00925926 </v>
    <v>       0.01851852 </v>
    <v>       0.01851852 </v>
    <v>       0.01851852 </v>
    <v>       0.00925926 </v>
    <v>       0.00925926 </v>
    <v>       0.01851852 </v>
    <v>       0.01851852 </v>
    <v>       0.01851852 </v>
    <v>       0.00925926 </v>
    <v>       0.00925926 </v>
    <v>       0.00925926 </v>
    <v>       0.01851852 </v>
    <v>       0.01851852 </v>
    <v>       0.01851852 </v>
    <v>       0.01851852 </v>
    <v>       0.01851852 </v>
    <v>       0.01851852 </v>
    <v>       0.00925926 </v>
    <v>       0.00925926 </v>
    <v>       0.00925926 </v>
    <v>       0.00925926 </v>
    <v>       0.01851852 </v>
    <v>       0.01851852 </v>
    <v>       0.01851852 </v>
    <v>       0.01851852 </v>
    <v>       0.01851852 </v>
    <v>       0.01851852 </v>
    <v>       0.00925926 </v>
    <v>       0.00925926 </v>
    <v>       0.00925926 </v>
    <v>       0.00925926 </v>
    <v>       0.01851852 </v>
    <v>       0.01851852 </v>
    <v>       0.01851852 </v>
    <v>       0.01851852 </v>
    <v>       0.01851852 </v>
    <v>       0.01851852 </v>
    <v>       0.00925926 </v>
    <v>       0.00925926 </v>
    <v>       0.00925926 </v>
    <v>       0.00925926 </v>
    <v>       0.01851852 </v>
    <v>       0.01851852 </v>
    <v>       0.01851852 </v>
    <v>       0.01851852 </v>
    <v>       0.01851852 </v>
    <v>       0.01851852 </v>
    <v>       0.00925926 </v>
    <v>       0.00925926 </v>
   </varray>
  </kpoints>
  <scstep>
   <time name="total">    1.90    1.23</time>
   <energy>
    <i name="e_fr_energy">     -3.84752188 </i>
    <i name="e_wo_entrp">     -3.84752188 </i>
    <i name="e_0_energy">     -3.84752188 </i>
   </energy>
  </scstep>
  <scstep>
   <time name="total">    2.63    1.62</time>
   <energy>
    <i name="e_fr_energy">    -16.77435093 </i>
    <i name="e_wo_entrp">    -16.77435093 </i>
    <i name="e_0_energy">    -16.77435093 </i>
   </energy>
  </scstep>
  <scstep>
   <time name="total">    2.51    1.60</time>
   <energy>
    <i name="e_fr_energy">    -16.48912296 </i>
    <i name="e_wo_entrp">    -16.48912296 </i>
    <i name="e_0_energy">    -16.48912296 </i>
   </energy>
  </scstep>
  <scstep>
   <time name="total">    2.52    1.61</time>
   <energy>
    <i name="e_fr_energy">    -16.90737578 </i>
    <i name="e_wo_entrp">    -16.90737578 </i>
    <i name="e_0_energy">    -16.90737578 </i>
   </energy>
  </scstep>
  <scstep>
   <time name="total">    2.55    1.62</time>
   <energy>
    <i name="e_fr_energy">    -17.02113083 </i>
    <i name="e_wo_entrp">    -17.02113083 </i>
    <i name="e_0_energy">    -17.02113083 </i>
   </energy>
  </scstep>
  <scstep>
   <time name="total">    2.65    1.65</time>
   <energy>
    <i name="e_fr_energy">    -17.04047515 </i>
    <i name="e_wo_entrp">    -17.04047515 </i>
    <i name="e_0_energy">    -17.04047515 </i>
   </energy>
  </scstep>
  <scstep>
   <time name="total">    2.65    1.62</time>
   <energy>
    <i name="e_fr_energy">    -17.03760140 </i>
    <i name="e_wo_entrp">    -17.03760140 </i>
    <i name="e_0_energy">    -17.03760140 </i>
   </energy>
  </scstep>
  <scstep>
   <time name="total">    2.78    1.71</time>
   <energy>
    <i name="e_fr_energy">    -17.04221663 </i>
    <i name="e_wo_entrp">    -17.04221663 </i>
    <i name="e_0_energy">    -17.04221663 </i>
   </energy>
  </scstep>
  <scstep>
   <time name="total">    2.71    1.65</time>
   <energy>
    <i name="e_fr_energy">    -17.04001891 </i>
    <i name="e_wo_entrp">    -17.04001891 </i>
    <i name="e_0_energy">    -17.04001891 </i>
   </energy>
  </scstep>
  <scstep>
   <time name="total">    2.75    1.67</time>
   <energy>
    <i name="e_fr_energy">    -17.04215244 </i>
    <i name="e_wo_entrp">    -17.04215244 </i>
    <i name="e_0_energy">    -17.04215244 </i>
   </energy>
  </scstep>
  <scstep>
   <time name="total">    2.80    1.69</time>
   <energy>
    <i name="e_fr_energy">    -17.03976516 </i>
    <i name="e_wo_entrp">    -17.03976516 </i>
    <i name="e_0_energy">    -17.03976516 </i>
   </energy>
  </scstep>
  <scstep>
   <time name="total">    2.75    1.67</time>
   <energy>
    <i name="e_fr_energy">    -17.04174231 </i>
    <i name="e_wo_entrp">    -17.04174231 </i>
    <i name="e_0_energy">    -17.04174231 </i>
   </energy>
  </scstep>
  <scstep>
   <time name="total">    2.72    1.65</time>
   <energy>
    <i name="e_fr_energy">    -17.04116182 </i>
    <i name="e_wo_entrp">    -17.04116182 </i>
    <i name="e_0_energy">    -17.04116182 </i>
   </energy>
  </scstep>
  <scstep>
   <time name="total">    2.59    1.59</time>
   <energy>
    <i name="e_fr_energy">    -17.04059860 </i>
    <i name="e_wo_entrp">    -17.04059860 </i>
    <i name="e_0_energy">    -17.04059860 </i>
   </energy>
  </scstep>
  <scstep>
   <time name="total">    2.62    1.60</time>
   <energy>
    <i name="e_fr_energy">    -17.04022562 </i>
    <i name="e_wo_entrp">    -17.04022562 </i>
    <i name="e_0_energy">    -17.04022562 </i>
   </energy>
  </scstep>
  <scstep>
   <time name="total">    2.53    1.56</time>
   <energy>
    <i name="e_fr_energy">    -17.04144553 </i>
    <i name="e_wo_entrp">    -17.04144553 </i>
    <i name="e_0_energy">    -17.04144553 </i>
   </energy>
  </scstep>
  <scstep>
   <time name="total">    2.48    1.53</time>
   <energy>
    <i name="e_fr_energy">    -17.04081986 </i>
    <i name="e_wo_entrp">    -17.04081986 </i>
    <i name="e_0_energy">    -17.04081986 </i>
   </energy>
  </scstep>
  <scstep>
   <time name="total">    2.50    1.54</time>
   <energy>
    <i name="e_fr_energy">    -17.04128623 </i>
    <i name="e_wo_entrp">    -17.04128623 </i>
    <i name="e_0_energy">    -17.04128623 </i>
   </energy>
  </scstep>
  <scstep>
   <time name="total">    2.50    1.54</time>
   <energy>
    <i name="e_fr_energy">    -17.04144559 </i>
    <i name="e_wo_entrp">    -17.04144559 </i>
    <i name="e_0_energy">    -17.04144559 </i>
   </energy>
  </scstep>
  <scstep>
   <time name="total">    2.49    1.54</time>
   <energy>
    <i name="e_fr_energy">    -17.04135910 </i>
    <i name="e_wo_entrp">    -17.04135910 </i>
    <i name="e_0_energy">    -17.04135910 </i>
   </energy>
  </scstep>
  <scstep>
   <time name="total">    2.51    1.55</time>
   <energy>
    <i name="e_fr_energy">    -17.04105760 </i>
    <i name="e_wo_entrp">    -17.04105760 </i>
    <i name="e_0_energy">    -17.04105760 </i>
   </energy>
  </scstep>
  <scstep>
   <time name="total">    2.50    1.54</time>
   <energy>
    <i name="e_fr_energy">    -17.04113683 </i>
    <i name="e_wo_entrp">    -17.04113683 </i>
    <i name="e_0_energy">    -17.04113683 </i>
   </energy>
  </scstep>
  <scstep>
   <time name="total">    2.51    1.55</time>
   <energy>
    <i name="e_fr_energy">    -17.04106235 </i>
    <i name="e_wo_entrp">    -17.04106235 </i>
    <i name="e_0_energy">    -17.04106235 </i>
   </energy>
  </scstep>
  <scstep>
   <time name="total">    2.56    1.58</time>
   <energy>
    <i name="e_fr_energy">    -17.04132532 </i>
    <i name="e_wo_entrp">    -17.04132532 </i>
    <i name="e_0_energy">    -17.04132532 </i>
   </energy>
  </scstep>
  <scstep>
   <time name="total">    2.51    1.55</time>
   <energy>
    <i name="e_fr_energy">    -17.04121618 </i>
    <i name="e_wo_entrp">    -17.04121618 </i>
    <i name="e_0_energy">    -17.04121618 </i>
   </energy>
  </scstep>
  <scstep>
   <time name="total">    2.53    1.56</time>
   <energy>
    <i name="e_fr_energy">    -17.04155154 </i>
    <i name="e_wo_entrp">    -17.04155154 </i>
    <i name="e_0_energy">    -17.04155154 </i>
   </energy>
  </scstep>
  <kpoints>
   <generation param="Gamma">
    <v type="int" name="divisions">       8        9        3 </v>
    <v name="usershift">      0.00000000       0.00000000       0.00000000 </v>
    <v name="genvec1">      0.12500000       0.00000000       0.00000000 </v>
    <v name="genvec2">      0.00000000       0.11111111       0.00000000 </v>
    <v name="genvec3">      0.00000000       0.00000000       0.33333333 </v>
    <v name="shift">      0.00000000       0.00000000       0.00000000 </v>
   </generation>
   <varray name="kpointlist" >
    <v>       0.00000000       0.00000000       0.00000000 </v>
    <v>       0.12500000       0.00000000       0.00000000 </v>
    <v>       0.25000000       0.00000000       0.00000000 </v>
    <v>       0.37500000       0.00000000       0.00000000 </v>
    <v>       0.50000000       0.00000000       0.00000000 </v>
    <v>       0.00000000       0.11111111       0.00000000 </v>
    <v>       0.12500000       0.11111111       0.00000000 </v>
    <v>       0.25000000       0.11111111       0.00000000 </v>
    <v>       0.37500000       0.11111111       0.00000000 </v>
    <v>       0.50000000       0.11111111       0.00000000 </v>
    <v>       0.00000000       0.22222222       0.00000000 </v>
    <v>       0.12500000       0.22222222       0.00000000 </v>
    <v>       0.25000000       0.22222222       0.00000000 </v>
    <v>       0.37500000       0.22222222       0.00000000 </v>
    <v>       0.50000000       0.22222222       0.00000000 </v>
    <v>       0.00000000       0.33333333       0.00000000 </v>
    <v>       0.12500000       0.33333333       0.00000000 </v>
    <v>       0.25000000       0.33333333       0.00000000 </v>
    <v>       0.37500000       0.33333333       0.00000000 </v>
    <v>       0.50000000       0.33333333       0.00000000 </v>
    <v>       0.00000000       0.44444444       0.00000000 </v>
    <v>       0.12500000       0.44444444       0.00000000 </v>
    <v>       0.25000000       0.44444444       0.00000000 </v>
    <v>       0.37500000       0.44444444       0.00000000 </v>
    <v>       0.50000000       0.44444444       0.00000000 </v>
    <v>       0.00000000       0.00000000       0.33333333 </v>
    <v>       0.12500000       0.00000000       0.33333333 </v>
    <v>       0.25000000       0.00000000       0.33333333 </v>
    <v>       0.37500000       0.00000000       0.33333333 </v>
    <v>       0.50000000       0.00000000       0.33333333 </v>
    <v>       0.00000000       0.11111111       0.33333333 </v>
    <v>       0.00000000       0.11111111      -0.33333333 </v>
    <v>       0.12500000       0.11111111       0.33333333 </v>
    <v>      -0.12500000       0.11111111      -0.33333333 </v>
    <v>       0.25000000       0.11111111       0.33333333 </v>
    <v>      -0.25000000       0.11111111      -0.33333333 </v>
    <v>       0.37500000       0.11111111       0.33333333 </v>
    <v>      -0.37500000       0.11111111      -0.33333333 </v>
    <v>       0.50000000       0.11111111       0.33333333 </v>
    <v>       0.50000000       0.11111111      -0.33333333 </v>
    <v>       0.00000000       0.22222222       0.33333333 </v>
    <v>       0.00000000       0.22222222      -0.33333333 </v>
    <v>       0.12500000       0.22222222       0.33333333 </v>
    <v>      -0.12500000       0.22222222      -0.33333333 </v>
    <v>       0.25000000       0.22222222       0.33333333 </v>
    <v>      -0.25000000       0.22222222      -0.33333333 </v>
    <v>       0.37500000       0.22222222       0.33333333 </v>
    <v>      -0.37500000       0.22222222      -0.33333333 </v>
    <v>       0.50000000       0.22222222       0.33333333 </v>
    <v>       0.50000000       0.22222222      -0.33333333 </v>
    <v>       0.00000000       0.33333333       0.33333333 </v>
    <v>       0.00000000       0.33333333      -0.33333333 </v>
    <v>       0.12500000       0.33333333       0.33333333 </v>
    <v>      -0.12500000       0.33333333      -0.33333333 </v>
    <v>       0.25000000       0.33333333       0.33333333 </v>
    <v>      -0.25000000       0.33333333      -0.33333333 </v>
    <v>       0.37500000       0.33333333       0.33333333 </v>
    <v>      -0.37500000       0.33333333      -0.33333333 </v>
    <v>       0.50000000       0.33333333       0.33333333 </v>
    <v>       0.50000000       0.33333333      -0.33333333 </v>
    <v>       0.00000000       0.44444444       0.33333333 </v>
    <v>       0.00000000       0.44444444      -0.33333333 </v>
    <v>       0.12500000       0.44444444       0.33333333 </v>
    <v>      -0.12500000       0.44444444      -0.33333333 </v>
    <v>       0.25000000       0.44444444       0.33333333 </v>
    <v>      -0.25000000       0.44444444      -0.33333333 </v>
    <v>       0.37500000       0.44444444       0.33333333 </v>
    <v>      -0.37500000       0.44444444      -0.33333333 </v>
    <v>       0.50000000       0.44444444       0.33333333 </v>
    <v>       0.50000000       0.44444444      -0.33333333 </v>
   </varray>
   <varray name="weights" >
    <v>       0.00462963 </v>
    <v>       0.00925926 </v>
    <v>       0.00925926 </v>
    <v>       0.00925926 </v>
    <v>       0.00462963 </v>
    <v>       0.00925926 </v>
    <v>       0.01851852 </v>
    <v>       0.01851852 </v>
    <v>       0.01851852 </v>
    <v>       0.00925926 </v>
    <v>       0.00925926 </v>
    <v>       0.01851852 </v>
    <v>       0.01851852 </v>
    <v>       0.01851852 </v>
    <v>       0.00925926 </v>
    <v>       0.00925926 </v>
    <v>       0.01851852 </v>
    <v>       0.01851852 </v>
    <v>       0.01851852 </v>
    <v>       0.00925926 </v>
    <v>       0.00925926 </v>
    <v>       0.01851852 </v>
    <v>       0.01851852 </v>
    <v>       0.01851852 </v>
    <v>       0.00925926 </v>
    <v>       0.00925926 </v>
    <v>       0.01851852 </v>
    <v>       0.01851852 </v>
    <v>       0.01851852 </v>
    <v>       0.00925926 </v>
    <v>       0.00925926 </v>
    <v>       0.00925926 </v>
    <v>       0.01851852 </v>
    <v>       0.01851852 </v>
    <v>       0.01851852 </v>
    <v>       0.01851852 </v>
    <v>       0.01851852 </v>
    <v>       0.01851852 </v>
    <v>       0.00925926 </v>
    <v>       0.00925926 </v>
    <v>       0.00925926 </v>
    <v>       0.00925926 </v>
    <v>       0.01851852 </v>
    <v>       0.01851852 </v>
    <v>       0.01851852 </v>
    <v>       0.01851852 </v>
    <v>       0.01851852 </v>
    <v>       0.01851852 </v>
    <v>       0.00925926 </v>
    <v>       0.00925926 </v>
    <v>       0.00925926 </v>
    <v>       0.00925926 </v>
    <v>       0.01851852 </v>
    <v>       0.01851852 </v>
    <v>       0.01851852 </v>
    <v>       0.01851852 </v>
    <v>       0.01851852 </v>
    <v>       0.01851852 </v>
    <v>       0.00925926 </v>
    <v>       0.00925926 </v>
    <v>       0.00925926 </v>
    <v>       0.00925926 </v>
    <v>       0.01851852 </v>
    <v>       0.01851852 </v>
    <v>       0.01851852 </v>
    <v>       0.01851852 </v>
    <v>       0.01851852 </v>
    <v>       0.01851852 </v>
    <v>       0.00925926 </v>
    <v>       0.00925926 </v>
   </varray>
  </kpoints>
  <scstep>
   <time name="total">    1.94    1.25</time>
   <energy>
    <i name="e_fr_energy">     -4.13199006 </i>
    <i name="e_wo_entrp">     -4.13199006 </i>
    <i name="e_0_energy">     -4.13199006 </i>
   </energy>
  </scstep>
  <scstep>
   <time name="total">    2.66    1.63</time>
   <energy>
    <i name="e_fr_energy">    -15.58022683 </i>
    <i name="e_wo_entrp">    -15.58022683 </i>
    <i name="e_0_energy">    -15.58022683 </i>
   </energy>
  </scstep>
  <scstep>
   <time name="total">    2.57    1.64</time>
   <energy>
    <i name="e_fr_energy">    -15.17597513 </i>
    <i name="e_wo_entrp">    -15.17597513 </i>
    <i name="e_0_energy">    -15.17597513 </i>
   </energy>
  </scstep>
  <scstep>
   <time name="total">    2.56    1.63</time>
   <energy>
    <i name="e_fr_energy">    -15.35090009 </i>
    <i name="e_wo_entrp">    -15.35090009 </i>
    <i name="e_0_energy">    -15.35090009 </i>
   </energy>
  </scstep>
  <scstep>
   <time name="total">    2.61    1.63</time>
   <energy>
    <i name="e_fr_energy">    -15.49540978 </i>
    <i name="e_wo_entrp">    -15.49540978 </i>
    <i name="e_0_energy">    -15.49540978 </i>
   </energy>
  </scstep>
  <scstep>
   <time name="total">    2.66    1.63</time>
   <energy>
    <i name="e_fr_energy">    -15.56833612 </i>
    <i name="e_wo_entrp">    -15.56833612 </i>
    <i name="e_0_energy">    -15.56833612 </i>
   </energy>
  </scstep>
  <scstep>
   <time name="total">    2.76    1.68</time>
   <energy>
    <i name="e_fr_energy">    -15.56654768 </i>
    <i name="e_wo_entrp">    -15.56654768 </i>
    <i name="e_0_energy">    -15.56654768 </i>
   </energy>
  </scstep>
  <scstep>
   <time name="total">    2.72    1.67</time>
   <energy>
    <i name="e_fr_energy">    -15.56970583 </i>
    <i name="e_wo_entrp">    -15.56970583 </i>
    <i name="e_0_energy">    -15.56970583 </i>
   </energy>
  </scstep>
  <scstep>
   <time name="total">    2.76    1.67</time>
   <energy>
    <i name="e_fr_energy">    -15.56943546 </i>
    <i name="e_wo_entrp">    -15.56943546 </i>
    <i name="e_0_energy">    -15.56943546 </i>
   </energy>
  </scstep>
  <scstep>
   <time name="total">    2.70    1.64</time>
   <energy>
    <i name="e_fr_energy">    -15.57015522 </i>
    <i name="e_wo_entrp">    -15.57015522 </i>
    <i name="e_0_energy">    -15.57015522 </i>
   </energy>
  </scstep>
  <scstep>
   <time name="total">    2.69    1.64</time>
   <energy>
    <i name="e_fr_energy">    -15.56794888 </i>
    <i name="e_wo_entrp">    -15.56794888 </i>
    <i name="e_0_energy">    -15.56794888 </i>
   </energy>
  </scstep>
  <scstep>
   <time name="total">    2.76    1.68</time>
   <energy>
    <i name="e_fr_energy">    -15.57075899 </i>
    <i name="e_wo_entrp">    -15.57075899 </i>
    <i name="e_0_energy">    -15.57075899 </i>
   </energy>
  </scstep>
  <scstep>
   <time name="total">    2.72    1.65</time>
   <energy>
    <i name="e_fr_energy">    -15.56828925 </i>
    <i name="e_wo_entrp">    -15.56828925 </i>
    <i name="e_0_energy">    -15.56828925 </i>
   </energy>
  </scstep>
  <scstep>
   <time name="total">    2.66    1.62</time>
   <energy>
    <i name="e_fr_energy">    -15.57095652 </i>
    <i name="e_wo_entrp">    -15.57095652 </i>
    <i name="e_0_energy">    -15.57095652 </i>
   </energy>
  </scstep>
  <scstep>
   <time name="total">    2.58    1.59</time>
   <energy>
    <i name="e_fr_energy">    -15.56834300 </i>
    <i name="e_wo_entrp">    -15.56834300 </i>
    <i name="e_0_energy">    -15.56834300 </i>
   </energy>
  </scstep>
  <scstep>
   <time name="total">    2.54    1.56</time>
   <energy>
    <i name="e_fr_energy">    -15.57000175 </i>
    <i name="e_wo_entrp">    -15.57000175 </i>
    <i name="e_0_energy">    -15.57000175 </i>
   </energy>
  </scstep>
  <scstep>
   <time name="total">    2.50    1.55</time>
   <energy>
    <i name="e_fr_energy">    -15.56668465 </i>
    <i name="e_wo_entrp">    -15.56668465 </i>
    <i name="e_0_energy">    -15.56668465 </i>
   </energy>
  </scstep>
  <scstep>
   <time name="total">    2.48    1.53</time>
   <energy>
    <i name="e_fr_energy">    -15.56933822 </i>
    <i name="e_wo_entrp">    -15.56933822 </i>
    <i name="e_0_energy">    -15.56933822 </i>
   </energy>
  </scstep>
  <scstep>
   <time name="total">    2.46    1.53</time>
   <energy>
    <i name="e_fr_energy">    -15.56593438 </i>
    <i name="e_wo_entrp">    -15.56593438 </i>
    <i name="e_0_energy">    -15.56593438 </i>
   </energy>
  </scstep>
  <scstep>
   <time name="total">    2.52    1.55</time>
   <energy>
    <i name="e_fr_energy">    -15.56877253 </i>
    <i name="e_wo_entrp">    -15.56877253 </i>
    <i name="e_0_energy">    -15.56877253 </i>
   </energy>
  </scstep>
  <scstep>
   <time name="total">    2.46    1.52</time>
   <energy>
    <i name="e_fr_energy">    -15.56720657 </i>
    <i name="e_wo_entrp">    -15.56720657 </i>
    <i name="e_0_energy">    -15.56720657 </i>
   </energy>
  </scstep>
  <scstep>
   <time name="total">    2.48    1.53</time>
   <energy>
    <i name="e_fr_energy">    -15.56824102 </i>
    <i name="e_wo_entrp">    -15.56824102 </i>
    <i name="e_0_energy">    -15.56824102 </i>
   </energy>
  </scstep>
  <scstep>
   <time name="total">    2.47    1.53</time>
   <energy>
    <i name="e_fr_energy">    -15.56635036 </i>
    <i name="e_wo_entrp">    -15.56635036 </i>
    <i name="e_0_energy">    -15.56635036 </i>
   </energy>
  </scstep>
  <scstep>
   <time name="total">    2.49    1.54</time>
   <energy>
    <i name="e_fr_energy">    -15.56660355 </i>
    <i name="e_wo_entrp">    -15.56660355 </i>
    <i name="e_0_energy">    -15.56660355 </i>
   </energy>
  </scstep>
  <scstep>
   <time name="total">    2.49    1.54</time>
   <energy>
    <i name="e_fr_energy">    -15.56651041 </i>
    <i name="e_wo_entrp">    -15.56651041 </i>
    <i name="e_0_energy">    -15.56651041 </i>
   </energy>
  </scstep>
  <kpoints>
   <generation param="Gamma">
    <v type="int" name="divisions">       8        9        3 </v>
    <v name="usershift">      0.00000000       0.00000000       0.00000000 </v>
    <v name="genvec1">      0.12500000       0.00000000       0.00000000 </v>
    <v name="genvec2">      0.00000000       0.11111111       0.00000000 </v>
    <v name="genvec3">      0.00000000       0.00000000       0.33333333 </v>
    <v name="shift">      0.00000000       0.00000000       0.00000000 </v>
   </generation>
   <varray name="kpointlist" >
    <v>       0.00000000       0.00000000       0.00000000 </v>
    <v>       0.12500000       0.00000000       0.00000000 </v>
    <v>       0.25000000       0.00000000       0.00000000 </v>
    <v>       0.37500000       0.00000000       0.00000000 </v>
    <v>       0.50000000       0.00000000       0.00000000 </v>
    <v>       0.00000000       0.11111111       0.00000000 </v>
    <v>       0.12500000       0.11111111       0.00000000 </v>
    <v>       0.25000000       0.11111111       0.00000000 </v>
    <v>       0.37500000       0.11111111       0.00000000 </v>
    <v>       0.50000000       0.11111111       0.00000000 </v>
    <v>       0.00000000       0.22222222       0.00000000 </v>
    <v>       0.12500000       0.22222222       0.00000000 </v>
    <v>       0.25000000       0.22222222       0.00000000 </v>
    <v>       0.37500000       0.22222222       0.00000000 </v>
    <v>       0.50000000       0.22222222       0.00000000 </v>
    <v>       0.00000000       0.33333333       0.00000000 </v>
    <v>       0.12500000       0.33333333       0.00000000 </v>
    <v>       0.25000000       0.33333333       0.00000000 </v>
    <v>       0.37500000       0.33333333       0.00000000 </v>
    <v>       0.50000000       0.33333333       0.00000000 </v>
    <v>       0.00000000       0.44444444       0.00000000 </v>
    <v>       0.12500000       0.44444444       0.00000000 </v>
    <v>       0.25000000       0.44444444       0.00000000 </v>
    <v>       0.37500000       0.44444444       0.00000000 </v>
    <v>       0.50000000       0.44444444       0.00000000 </v>
    <v>       0.00000000       0.00000000       0.33333333 </v>
    <v>       0.12500000       0.00000000       0.33333333 </v>
    <v>       0.25000000       0.00000000       0.33333333 </v>
    <v>       0.37500000       0.00000000       0.33333333 </v>
    <v>       0.50000000       0.00000000       0.33333333 </v>
    <v>       0.00000000       0.11111111       0.33333333 </v>
    <v>       0.00000000       0.11111111      -0.33333333 </v>
    <v>       0.12500000       0.11111111       0.33333333 </v>
    <v>      -0.12500000       0.11111111      -0.33333333 </v>
    <v>       0.25000000       0.11111111       0.33333333 </v>
    <v>      -0.25000000       0.11111111      -0.33333333 </v>
    <v>       0.37500000       0.11111111       0.33333333 </v>
    <v>      -0.37500000       0.11111111      -0.33333333 </v>
    <v>       0.50000000       0.11111111       0.33333333 </v>
    <v>       0.50000000       0.11111111      -0.33333333 </v>
    <v>       0.00000000       0.22222222       0.33333333 </v>
    <v>       0.00000000       0.22222222      -0.33333333 </v>
    <v>       0.12500000       0.22222222       0.33333333 </v>
    <v>      -0.12500000       0.22222222      -0.33333333 </v>
    <v>       0.25000000       0.22222222       0.33333333 </v>
    <v>      -0.25000000       0.22222222      -0.33333333 </v>
    <v>       0.37500000       0.22222222       0.33333333 </v>
    <v>      -0.37500000       0.22222222      -0.33333333 </v>
    <v>       0.50000000       0.22222222       0.33333333 </v>
    <v>       0.50000000       0.22222222      -0.33333333 </v>
    <v>       0.00000000       0.33333333       0.33333333 </v>
    <v>       0.00000000       0.33333333      -0.33333333 </v>
    <v>       0.12500000       0.33333333       0.33333333 </v>
    <v>      -0.12500000       0.33333333      -0.33333333 </v>
    <v>       0.25000000       0.33333333       0.33333333 </v>
    <v>      -0.25000000       0.33333333      -0.33333333 </v>
    <v>       0.37500000       0.33333333       0.33333333 </v>
    <v>      -0.37500000       0.33333333      -0.33333333 </v>
    <v>       0.50000000       0.33333333       0.33333333 </v>
    <v>       0.50000000       0.33333333      -0.33333333 </v>
    <v>       0.00000000       0.44444444       0.33333333 </v>
    <v>       0.00000000       0.44444444      -0.33333333 </v>
    <v>       0.12500000       0.44444444       0.33333333 </v>
    <v>      -0.12500000       0.44444444      -0.33333333 </v>
    <v>       0.25000000       0.44444444       0.33333333 </v>
    <v>      -0.25000000       0.44444444      -0.33333333 </v>
    <v>       0.37500000       0.44444444       0.33333333 </v>
    <v>      -0.37500000       0.44444444      -0.33333333 </v>
    <v>       0.50000000       0.44444444       0.33333333 </v>
    <v>       0.50000000       0.44444444      -0.33333333 </v>
   </varray>
   <varray name="weights" >
    <v>       0.00462963 </v>
    <v>       0.00925926 </v>
    <v>       0.00925926 </v>
    <v>       0.00925926 </v>
    <v>       0.00462963 </v>
    <v>       0.00925926 </v>
    <v>       0.01851852 </v>
    <v>       0.01851852 </v>
    <v>       0.01851852 </v>
    <v>       0.00925926 </v>
    <v>       0.00925926 </v>
    <v>       0.01851852 </v>
    <v>       0.01851852 </v>
    <v>       0.01851852 </v>
    <v>       0.00925926 </v>
    <v>       0.00925926 </v>
    <v>       0.01851852 </v>
    <v>       0.01851852 </v>
    <v>       0.01851852 </v>
    <v>       0.00925926 </v>
    <v>       0.00925926 </v>
    <v>       0.01851852 </v>
    <v>       0.01851852 </v>
    <v>       0.01851852 </v>
    <v>       0.00925926 </v>
    <v>       0.00925926 </v>
    <v>       0.01851852 </v>
    <v>       0.01851852 </v>
    <v>       0.01851852 </v>
    <v>       0.00925926 </v>
    <v>       0.00925926 </v>
    <v>       0.00925926 </v>
    <v>       0.01851852 </v>
    <v>       0.01851852 </v>
    <v>       0.01851852 </v>
    <v>       0.01851852 </v>
    <v>       0.01851852 </v>
    <v>       0.01851852 </v>
    <v>       0.00925926 </v>
    <v>       0.00925926 </v>
    <v>       0.00925926 </v>
    <v>       0.00925926 </v>
    <v>       0.01851852 </v>
    <v>       0.01851852 </v>
    <v>       0.01851852 </v>
    <v>       0.01851852 </v>
    <v>       0.01851852 </v>
    <v>       0.01851852 </v>
    <v>       0.00925926 </v>
    <v>       0.00925926 </v>
    <v>       0.00925926 </v>
    <v>       0.00925926 </v>
    <v>       0.01851852 </v>
    <v>       0.01851852 </v>
    <v>       0.01851852 </v>
    <v>       0.01851852 </v>
    <v>       0.01851852 </v>
    <v>       0.01851852 </v>
    <v>       0.00925926 </v>
    <v>       0.00925926 </v>
    <v>       0.00925926 </v>
    <v>       0.00925926 </v>
    <v>       0.01851852 </v>
    <v>       0.01851852 </v>
    <v>       0.01851852 </v>
    <v>       0.01851852 </v>
    <v>       0.01851852 </v>
    <v>       0.01851852 </v>
    <v>       0.00925926 </v>
    <v>       0.00925926 </v>
   </varray>
  </kpoints>
  <varray name="dielectric_dft" >
   <v>      24.37312748       0.00000000       0.00000000 </v>
   <v>       0.00000000      29.79617781       0.00798735 </v>
   <v>       0.00000000       0.00798705      27.66752762 </v>
  </varray>
  <varray name="epsilon" >
   <v>      24.37312748       0.00000000       0.00000000 </v>
   <v>       0.00000000      29.79617781       0.00798735 </v>
   <v>       0.00000000       0.00798705      27.66752762 </v>
  </varray>
  <kpoints>
   <generation param="Gamma">
    <v type="int" name="divisions">       8        9        3 </v>
    <v name="usershift">      0.00000000       0.00000000       0.00000000 </v>
    <v name="genvec1">      0.12500000       0.00000000       0.00000000 </v>
    <v name="genvec2">      0.00000000       0.11111111       0.00000000 </v>
    <v name="genvec3">      0.00000000       0.00000000       0.33333333 </v>
    <v name="shift">      0.00000000       0.00000000       0.00000000 </v>
   </generation>
   <varray name="kpointlist" >
    <v>       0.00000000       0.00000000       0.00000000 </v>
    <v>       0.12500000       0.00000000       0.00000000 </v>
    <v>       0.25000000       0.00000000       0.00000000 </v>
    <v>       0.37500000       0.00000000       0.00000000 </v>
    <v>       0.50000000       0.00000000       0.00000000 </v>
    <v>       0.00000000       0.11111111       0.00000000 </v>
    <v>       0.12500000       0.11111111       0.00000000 </v>
    <v>       0.25000000       0.11111111       0.00000000 </v>
    <v>       0.37500000       0.11111111       0.00000000 </v>
    <v>       0.50000000       0.11111111       0.00000000 </v>
    <v>       0.00000000       0.22222222       0.00000000 </v>
    <v>       0.12500000       0.22222222       0.00000000 </v>
    <v>       0.25000000       0.22222222       0.00000000 </v>
    <v>       0.37500000       0.22222222       0.00000000 </v>
    <v>       0.50000000       0.22222222       0.00000000 </v>
    <v>       0.00000000       0.33333333       0.00000000 </v>
    <v>       0.12500000       0.33333333       0.00000000 </v>
    <v>       0.25000000       0.33333333       0.00000000 </v>
    <v>       0.37500000       0.33333333       0.00000000 </v>
    <v>       0.50000000       0.33333333       0.00000000 </v>
    <v>       0.00000000       0.44444444       0.00000000 </v>
    <v>       0.12500000       0.44444444       0.00000000 </v>
    <v>       0.25000000       0.44444444       0.00000000 </v>
    <v>       0.37500000       0.44444444       0.00000000 </v>
    <v>       0.50000000       0.44444444       0.00000000 </v>
    <v>       0.00000000       0.00000000       0.33333333 </v>
    <v>       0.12500000       0.00000000       0.33333333 </v>
    <v>       0.25000000       0.00000000       0.33333333 </v>
    <v>       0.37500000       0.00000000       0.33333333 </v>
    <v>       0.50000000       0.00000000       0.33333333 </v>
    <v>       0.00000000       0.11111111       0.33333333 </v>
    <v>       0.00000000       0.11111111      -0.33333333 </v>
    <v>       0.12500000       0.11111111       0.33333333 </v>
    <v>      -0.12500000       0.11111111      -0.33333333 </v>
    <v>       0.25000000       0.11111111       0.33333333 </v>
    <v>      -0.25000000       0.11111111      -0.33333333 </v>
    <v>       0.37500000       0.11111111       0.33333333 </v>
    <v>      -0.37500000       0.11111111      -0.33333333 </v>
    <v>       0.50000000       0.11111111       0.33333333 </v>
    <v>       0.50000000       0.11111111      -0.33333333 </v>
    <v>       0.00000000       0.22222222       0.33333333 </v>
    <v>       0.00000000       0.22222222      -0.33333333 </v>
    <v>       0.12500000       0.22222222       0.33333333 </v>
    <v>      -0.12500000       0.22222222      -0.33333333 </v>
    <v>       0.25000000       0.22222222       0.33333333 </v>
    <v>      -0.25000000       0.22222222      -0.33333333 </v>
    <v>       0.37500000       0.22222222       0.33333333 </v>
    <v>      -0.37500000       0.22222222      -0.33333333 </v>
    <v>       0.50000000       0.22222222       0.33333333 </v>
    <v>       0.50000000       0.22222222      -0.33333333 </v>
    <v>       0.00000000       0.33333333       0.33333333 </v>
    <v>       0.00000000       0.33333333      -0.33333333 </v>
    <v>       0.12500000       0.33333333       0.33333333 </v>
    <v>      -0.12500000       0.33333333      -0.33333333 </v>
    <v>       0.25000000       0.33333333       0.33333333 </v>
    <v>      -0.25000000       0.33333333      -0.33333333 </v>
    <v>       0.37500000       0.33333333       0.33333333 </v>
    <v>      -0.37500000       0.33333333      -0.33333333 </v>
    <v>       0.50000000       0.33333333       0.33333333 </v>
    <v>       0.50000000       0.33333333      -0.33333333 </v>
    <v>       0.00000000       0.44444444       0.33333333 </v>
    <v>       0.00000000       0.44444444      -0.33333333 </v>
    <v>       0.12500000       0.44444444       0.33333333 </v>
    <v>      -0.12500000       0.44444444      -0.33333333 </v>
    <v>       0.25000000       0.44444444       0.33333333 </v>
    <v>      -0.25000000       0.44444444      -0.33333333 </v>
    <v>       0.37500000       0.44444444       0.33333333 </v>
    <v>      -0.37500000       0.44444444      -0.33333333 </v>
    <v>       0.50000000       0.44444444       0.33333333 </v>
    <v>       0.50000000       0.44444444      -0.33333333 </v>
   </varray>
   <varray name="weights" >
    <v>       0.00462963 </v>
    <v>       0.00925926 </v>
    <v>       0.00925926 </v>
    <v>       0.00925926 </v>
    <v>       0.00462963 </v>
    <v>       0.00925926 </v>
    <v>       0.01851852 </v>
    <v>       0.01851852 </v>
    <v>       0.01851852 </v>
    <v>       0.00925926 </v>
    <v>       0.00925926 </v>
    <v>       0.01851852 </v>
    <v>       0.01851852 </v>
    <v>       0.01851852 </v>
    <v>       0.00925926 </v>
    <v>       0.00925926 </v>
    <v>       0.01851852 </v>
    <v>       0.01851852 </v>
    <v>       0.01851852 </v>
    <v>       0.00925926 </v>
    <v>       0.00925926 </v>
    <v>       0.01851852 </v>
    <v>       0.01851852 </v>
    <v>       0.01851852 </v>
    <v>       0.00925926 </v>
    <v>       0.00925926 </v>
    <v>       0.01851852 </v>
    <v>       0.01851852 </v>
    <v>       0.01851852 </v>
    <v>       0.00925926 </v>
    <v>       0.00925926 </v>
    <v>       0.00925926 </v>
    <v>       0.01851852 </v>
    <v>       0.01851852 </v>
    <v>       0.01851852 </v>
    <v>       0.01851852 </v>
    <v>       0.01851852 </v>
    <v>       0.01851852 </v>
    <v>       0.00925926 </v>
    <v>       0.00925926 </v>
    <v>       0.00925926 </v>
    <v>       0.00925926 </v>
    <v>       0.01851852 </v>
    <v>       0.01851852 </v>
    <v>       0.01851852 </v>
    <v>       0.01851852 </v>
    <v>       0.01851852 </v>
    <v>       0.01851852 </v>
    <v>       0.00925926 </v>
    <v>       0.00925926 </v>
    <v>       0.00925926 </v>
    <v>       0.00925926 </v>
    <v>       0.01851852 </v>
    <v>       0.01851852 </v>
    <v>       0.01851852 </v>
    <v>       0.01851852 </v>
    <v>       0.01851852 </v>
    <v>       0.01851852 </v>
    <v>       0.00925926 </v>
    <v>       0.00925926 </v>
    <v>       0.00925926 </v>
    <v>       0.00925926 </v>
    <v>       0.01851852 </v>
    <v>       0.01851852 </v>
    <v>       0.01851852 </v>
    <v>       0.01851852 </v>
    <v>       0.01851852 </v>
    <v>       0.01851852 </v>
    <v>       0.00925926 </v>
    <v>       0.00925926 </v>
   </varray>
  </kpoints>
  <array name="born_charges" >
   <dimension dim="1">ion</dimension>
   <set>
    <v>       3.99364115      -0.01695664      -0.59168426 </v>
    <v>      -0.01140470       4.57150597       0.00292710 </v>
    <v>       0.08564151       0.00995642       4.23577398 </v>
   </set>
   <set>
    <v>       3.99364115       0.01695664       0.59168426 </v>
    <v>       0.01140470       4.57150597       0.00292710 </v>
    <v>      -0.08564151       0.00995642       4.23577398 </v>
   </set>
   <set>
    <v>       3.99364115       0.01695664       0.59168426 </v>
    <v>       0.01140470       4.57150597       0.00292710 </v>
    <v>      -0.08564151       0.00995642       4.23577398 </v>
   </set>
   <set>
    <v>       3.99364115      -0.01695664      -0.59168426 </v>
    <v>      -0.01140470       4.57150597       0.00292710 </v>
    <v>       0.08564151       0.00995642       4.23577398 </v>
   </set>
   <set>
    <v>      -3.99364115      -0.01229146       0.57778127 </v>
    <v>      -0.00423100      -4.57150597      -0.00292710 </v>
    <v>       0.69183892      -0.00995642      -4.23577398 </v>
   </set>
   <set>
    <v>      -3.99364115       0.01229146      -0.57778127 </v>
    <v>       0.00423100      -4.57150597      -0.00292710 </v>
    <v>      -0.69183892      -0.00995642      -4.23577398 </v>
   </set>
   <set>
    <v>      -3.99364115       0.01229146      -0.57778127 </v>
    <v>       0.00423100      -4.57150597      -0.00292710 </v>
    <v>      -0.69183892      -0.00995642      -4.23577398 </v>
   </set>
   <set>
    <v>      -3.99364115      -0.01229146       0.57778127 </v>
    <v>      -0.00423100      -4.57150597      -0.00292710 </v>
    <v>       0.69183892      -0.00995642      -4.23577398 </v>
   </set>
  </array>
  <time name="totalsc">  460.85  282.29</time>
  <eigenvalues>
   <array>
    <dimension dim="1">band</dimension>
    <dimension dim="2">kpoint</dimension>
    <dimension dim="3">spin</dimension>
    <field>eigene</field>
    <field>occ</field>
    <set>
     <set comment="spin 1">
      <set comment="kpoint 1">
       <r>  -15.4185    1.0000 </r>
       <r>  -15.3994    1.0000 </r>
       <r>  -15.3983    1.0000 </r>
       <r>  -15.3928    1.0000 </r>
       <r>  -15.3915    1.0000 </r>
       <r>  -15.3901    1.0000 </r>
       <r>  -15.3866    1.0000 </r>
       <r>  -15.3830    1.0000 </r>
       <r>  -15.3819    1.0000 </r>
       <r>  -15.3801    1.0000 </r>
       <r>  -15.3764    1.0000 </r>
       <r>  -15.3756    1.0000 </r>
       <r>  -15.3652    1.0000 </r>
       <r>  -15.3604    1.0000 </r>
       <r>  -15.3450    1.0000 </r>
       <r>  -15.3354    1.0000 </r>
       <r>  -15.3349    1.0000 </r>
       <r>  -15.3270    1.0000 </r>
       <r>  -15.3144    1.0000 </r>
       <r>  -15.3051    1.0000 </r>
       <r>   -8.1766    1.0000 </r>
       <r>   -7.7614    1.0000 </r>
       <r>   -7.1072    1.0000 </r>
       <r>   -6.4997    1.0000 </r>
       <r>   -1.4512    1.0000 </r>
       <r>   -0.2040    1.0000 </r>
       <r>    0.0299    1.0000 </r>
       <r>    0.8492    1.0000 </r>
       <r>    0.9750    1.0000 </r>
       <r>    2.3089    1.0000 </r>
       <r>    2.3264    1.0000 </r>
       <r>    2.4388    1.0000 </r>
       <r>    2.8959    1.0000 </r>
       <r>    2.9126    1.0000 </r>
       <r>    3.4129    1.0000 </r>
       <r>    3.9131    1.0000 </r>
       <r>    4.2218    1.0000 </r>
       <r>    4.5897    1.0000 </r>
       <r>    5.1305    1.0000 </r>
       <r>    5.2880    1.0000 </r>
       <r>    6.3313    0.0000 </r>
       <r>    8.7794    0.0000 </r>
       <r>    8.8886    0.0000 </r>
       <r>    8.9260    0.0000 </r>
       <r>    9.1721    0.0000 </r>
       <r>    9.3677    0.0000 </r>
       <r>   10.0892    0.0000 </r>
       <r>   10.4090    0.0000 </r>
       <r>   10.5181    0.0000 </r>
       <r>   10.7515    0.0000 </r>
       <r>   11.3475    0.0000 </r>
       <r>   11.8015    0.0000 </r>
       <r>   12.0336    0.0000 </r>
       <r>   12.0716    0.0000 </r>
       <r>   12.1531    0.0000 </r>
       <r>   12.6164    0.0000 </r>
       <r>   12.6699    0.0000 </r>
       <r>   13.5877    0.0000 </r>
       <r>   14.3933    0.0000 </r>
       <r>   14.4080    0.0000 </r>
       <r>   14.5484    0.0000 </r>
       <r>   14.6916    0.0000 </r>
       <r>   15.0275    0.0000 </r>
       <r>   15.0366    0.0000 </r>
      </set>
      <set comment="kpoint 2">
       <r>  -15.4173    1.0000 </r>
       <r>  -15.3996    1.0000 </r>
       <r>  -15.3970    1.0000 </r>
       <r>  -15.3925    1.0000 </r>
       <r>  -15.3914    1.0000 </r>
       <r>  -15.3912    1.0000 </r>
       <r>  -15.3872    1.0000 </r>
       <r>  -15.3833    1.0000 </r>
       <r>  -15.3808    1.0000 </r>
       <r>  -15.3802    1.0000 </r>
       <r>  -15.3773    1.0000 </r>
       <r>  -15.3735    1.0000 </r>
       <r>  -15.3641    1.0000 </r>
       <r>  -15.3607    1.0000 </r>
       <r>  -15.3452    1.0000 </r>
       <r>  -15.3356    1.0000 </r>
       <r>  -15.3349    1.0000 </r>
       <r>  -15.3274    1.0000 </r>
       <r>  -15.3140    1.0000 </r>
       <r>  -15.3054    1.0000 </r>
       <r>   -8.1024    1.0000 </r>
       <r>   -7.6941    1.0000 </r>
       <r>   -7.0844    1.0000 </r>
       <r>   -6.5086    1.0000 </r>
       <r>   -1.7386    1.0000 </r>
       <r>   -0.3992    1.0000 </r>
       <r>   -0.2367    1.0000 </r>
       <r>    0.4717    1.0000 </r>
       <r>    0.8577    1.0000 </r>
       <r>    2.3534    1.0000 </r>
       <r>    2.4379    1.0000 </r>
       <r>    2.8598    1.0000 </r>
       <r>    3.0111    1.0000 </r>
       <r>    3.4369    1.0000 </r>
       <r>    3.4969    1.0000 </r>
       <r>    3.9871    1.0000 </r>
       <r>    4.2716    1.0000 </r>
       <r>    4.9222    1.0000 </r>
       <r>    4.9636    1.0000 </r>
       <r>    5.3405    1.0000 </r>
       <r>    6.3424    0.0000 </r>
       <r>    8.1997    0.0000 </r>
       <r>    8.8509    0.0000 </r>
       <r>    8.9950    0.0000 </r>
       <r>    9.0698    0.0000 </r>
       <r>    9.1595    0.0000 </r>
       <r>    9.9607    0.0000 </r>
       <r>   10.2466    0.0000 </r>
       <r>   10.2928    0.0000 </r>
       <r>   10.3901    0.0000 </r>
       <r>   11.2784    0.0000 </r>
       <r>   11.2824    0.0000 </r>
       <r>   11.5575    0.0000 </r>
       <r>   12.0139    0.0000 </r>
       <r>   12.0921    0.0000 </r>
       <r>   12.6087    0.0000 </r>
       <r>   13.0598    0.0000 </r>
       <r>   13.6536    0.0000 </r>
       <r>   13.9927    0.0000 </r>
       <r>   14.5743    0.0000 </r>
       <r>   14.8808    0.0000 </r>
       <r>   15.3461    0.0000 </r>
       <r>   15.3985    0.0000 </r>
       <r>   15.6533    0.0000 </r>
      </set>
      <set comment="kpoint 3">
       <r>  -15.4139    1.0000 </r>
       <r>  -15.4003    1.0000 </r>
       <r>  -15.3945    1.0000 </r>
       <r>  -15.3942    1.0000 </r>
       <r>  -15.3938    1.0000 </r>
       <r>  -15.3900    1.0000 </r>
       <r>  -15.3874    1.0000 </r>
       <r>  -15.3844    1.0000 </r>
       <r>  -15.3806    1.0000 </r>
       <r>  -15.3794    1.0000 </r>
       <r>  -15.3771    1.0000 </r>
       <r>  -15.3686    1.0000 </r>
       <r>  -15.3631    1.0000 </r>
       <r>  -15.3604    1.0000 </r>
       <r>  -15.3450    1.0000 </r>
       <r>  -15.3373    1.0000 </r>
       <r>  -15.3337    1.0000 </r>
       <r>  -15.3285    1.0000 </r>
       <r>  -15.3130    1.0000 </r>
       <r>  -15.3065    1.0000 </r>
       <r>   -7.8927    1.0000 </r>
       <r>   -7.5038    1.0000 </r>
       <r>   -7.0499    1.0000 </r>
       <r>   -6.5571    1.0000 </r>
       <r>   -2.2664    1.0000 </r>
       <r>   -1.1163    1.0000 </r>
       <r>   -0.7999    1.0000 </r>
       <r>    0.0296    1.0000 </r>
       <r>    0.8754    1.0000 </r>
       <r>    2.6445    1.0000 </r>
       <r>    2.7576    1.0000 </r>
       <r>    3.2961    1.0000 </r>
       <r>    3.4847    1.0000 </r>
       <r>    3.7051    1.0000 </r>
       <r>    3.8900    1.0000 </r>
       <r>    4.3697    1.0000 </r>
       <r>    4.6295    1.0000 </r>
       <r>    4.7564    1.0000 </r>
       <r>    5.2787    1.0000 </r>
       <r>    5.5830    1.0000 </r>
       <r>    6.6653    0.0000 </r>
       <r>    7.1826    0.0000 </r>
       <r>    7.9194    0.0000 </r>
       <r>    8.1041    0.0000 </r>
       <r>    8.8603    0.0000 </r>
       <r>    8.9421    0.0000 </r>
       <r>    9.3317    0.0000 </r>
       <r>    9.4452    0.0000 </r>
       <r>   10.3191    0.0000 </r>
       <r>   10.5822    0.0000 </r>
       <r>   10.5926    0.0000 </r>
       <r>   11.1423    0.0000 </r>
       <r>   11.2430    0.0000 </r>
       <r>   12.2733    0.0000 </r>
       <r>   12.6750    0.0000 </r>
       <r>   12.6835    0.0000 </r>
       <r>   13.3224    0.0000 </r>
       <r>   13.5418    0.0000 </r>
       <r>   14.1352    0.0000 </r>
       <r>   14.7076    0.0000 </r>
       <r>   15.1879    0.0000 </r>
       <r>   15.5466    0.0000 </r>
       <r>   15.9293    0.0000 </r>
       <r>   16.2981    0.0000 </r>
      </set>
      <set comment="kpoint 4">
       <r>  -15.4096    1.0000 </r>
       <r>  -15.4022    1.0000 </r>
       <r>  -15.3968    1.0000 </r>
       <r>  -15.3964    1.0000 </r>
       <r>  -15.3919    1.0000 </r>
       <r>  -15.3893    1.0000 </r>
       <r>  -15.3867    1.0000 </r>
       <r>  -15.3857    1.0000 </r>
       <r>  -15.3816    1.0000 </r>
       <r>  -15.3813    1.0000 </r>
       <r>  -15.3719    1.0000 </r>
       <r>  -15.3645    1.0000 </r>
       <r>  -15.3637    1.0000 </r>
       <r>  -15.3593    1.0000 </r>
       <r>  -15.3436    1.0000 </r>
       <r>  -15.3391    1.0000 </r>
       <r>  -15.3322    1.0000 </r>
       <r>  -15.3296    1.0000 </r>
       <r>  -15.3114    1.0000 </r>
       <r>  -15.3079    1.0000 </r>
       <r>   -7.5923    1.0000 </r>
       <r>   -7.2275    1.0000 </r>
       <r>   -7.0936    1.0000 </r>
       <r>   -6.6915    1.0000 </r>
       <r>   -2.5942    1.0000 </r>
       <r>   -1.9591    1.0000 </r>
       <r>   -1.0525    1.0000 </r>
       <r>   -0.5669    1.0000 </r>
       <r>    1.3266    1.0000 </r>
       <r>    2.5379    1.0000 </r>
       <r>    3.2275    1.0000 </r>
       <r>    3.7063    1.0000 </r>
       <r>    3.8643    1.0000 </r>
       <r>    4.0864    1.0000 </r>
       <r>    4.1811    1.0000 </r>
       <r>    4.3627    1.0000 </r>
       <r>    4.7019    1.0000 </r>
       <r>    5.1627    1.0000 </r>
       <r>    5.6664    1.0000 </r>
       <r>    5.8772    1.0000 </r>
       <r>    6.6662    0.0000 </r>
       <r>    7.0754    0.0000 </r>
       <r>    7.2424    0.0000 </r>
       <r>    7.3182    0.0000 </r>
       <r>    7.9179    0.0000 </r>
       <r>    8.0143    0.0000 </r>
       <r>    8.6644    0.0000 </r>
       <r>    8.8967    0.0000 </r>
       <r>    9.3153    0.0000 </r>
       <r>    9.6064    0.0000 </r>
       <r>   11.4618    0.0000 </r>
       <r>   11.7504    0.0000 </r>
       <r>   12.4118    0.0000 </r>
       <r>   12.6918    0.0000 </r>
       <r>   13.1029    0.0000 </r>
       <r>   13.6023    0.0000 </r>
       <r>   13.6449    0.0000 </r>
       <r>   14.1593    0.0000 </r>
       <r>   14.2932    0.0000 </r>
       <r>   14.6451    0.0000 </r>
       <r>   14.7510    0.0000 </r>
       <r>   15.7192    0.0000 </r>
       <r>   16.5467    0.0000 </r>
       <r>   16.6341    0.0000 </r>
      </set>
      <set comment="kpoint 5">
       <r>  -15.4054    1.0000 </r>
       <r>  -15.4054    1.0000 </r>
       <r>  -15.3977    1.0000 </r>
       <r>  -15.3977    1.0000 </r>
       <r>  -15.3900    1.0000 </r>
       <r>  -15.3900    1.0000 </r>
       <r>  -15.3863    1.0000 </r>
       <r>  -15.3863    1.0000 </r>
       <r>  -15.3820    1.0000 </r>
       <r>  -15.3820    1.0000 </r>
       <r>  -15.3674    1.0000 </r>
       <r>  -15.3674    1.0000 </r>
       <r>  -15.3604    1.0000 </r>
       <r>  -15.3604    1.0000 </r>
       <r>  -15.3412    1.0000 </r>
       <r>  -15.3412    1.0000 </r>
       <r>  -15.3308    1.0000 </r>
       <r>  -15.3308    1.0000 </r>
       <r>  -15.3097    1.0000 </r>
       <r>  -15.3097    1.0000 </r>
       <r>   -7.2885    1.0000 </r>
       <r>   -7.2885    1.0000 </r>
       <r>   -6.9304    1.0000 </r>
       <r>   -6.9304    1.0000 </r>
       <r>   -2.4949    1.0000 </r>
       <r>   -2.4949    1.0000 </r>
       <r>   -0.9737    1.0000 </r>
       <r>   -0.9737    1.0000 </r>
       <r>    1.9486    1.0000 </r>
       <r>    1.9486    1.0000 </r>
       <r>    3.6925    1.0000 </r>
       <r>    3.6925    1.0000 </r>
       <r>    4.1171    1.0000 </r>
       <r>    4.1171    1.0000 </r>
       <r>    4.4423    1.0000 </r>
       <r>    4.4423    1.0000 </r>
       <r>    5.0260    1.0000 </r>
       <r>    5.0260    1.0000 </r>
       <r>    5.6394    1.0000 </r>
       <r>    5.6394    1.0000 </r>
       <r>    7.0681    0.0000 </r>
       <r>    7.0681    0.0000 </r>
       <r>    7.2459    0.0000 </r>
       <r>    7.2459    0.0000 </r>
       <r>    7.5500    0.0000 </r>
       <r>    7.5500    0.0000 </r>
       <r>    8.3552    0.0000 </r>
       <r>    8.3552    0.0000 </r>
       <r>    8.9639    0.0000 </r>
       <r>    8.9639    0.0000 </r>
       <r>   11.9068    0.0000 </r>
       <r>   11.9068    0.0000 </r>
       <r>   13.1146    0.0000 </r>
       <r>   13.1146    0.0000 </r>
       <r>   13.7866    0.0000 </r>
       <r>   13.7866    0.0000 </r>
       <r>   13.8997    0.0000 </r>
       <r>   13.8997    0.0000 </r>
       <r>   15.0999    0.0000 </r>
       <r>   15.0999    0.0000 </r>
       <r>   15.6203    0.0000 </r>
       <r>   15.6203    0.0000 </r>
       <r>   16.0049    0.0000 </r>
       <r>   16.0049    0.0000 </r>
      </set>
      <set comment="kpoint 6">
       <r>  -15.4148    1.0000 </r>
       <r>  -15.3968    1.0000 </r>
       <r>  -15.3965    1.0000 </r>
       <r>  -15.3925    1.0000 </r>
       <r>  -15.3915    1.0000 </r>
       <r>  -15.3908    1.0000 </r>
       <r>  -15.3908    1.0000 </r>
       <r>  -15.3851    1.0000 </r>
       <r>  -15.3818    1.0000 </r>
       <r>  -15.3791    1.0000 </r>
       <r>  -15.3788    1.0000 </r>
       <r>  -15.3731    1.0000 </r>
       <r>  -15.3631    1.0000 </r>
       <r>  -15.3606    1.0000 </r>
       <r>  -15.3435    1.0000 </r>
       <r>  -15.3360    1.0000 </r>
       <r>  -15.3337    1.0000 </r>
       <r>  -15.3284    1.0000 </r>
       <r>  -15.3149    1.0000 </r>
       <r>  -15.3067    1.0000 </r>
       <r>   -8.1047    1.0000 </r>
       <r>   -7.7007    1.0000 </r>
       <r>   -7.0685    1.0000 </r>
       <r>   -6.4977    1.0000 </r>
       <r>   -1.5661    1.0000 </r>
       <r>   -0.4571    1.0000 </r>
       <r>    0.0238    1.0000 </r>
       <r>    0.4202    1.0000 </r>
       <r>    0.8858    1.0000 </r>
       <r>    2.2252    1.0000 </r>
       <r>    2.5177    1.0000 </r>
       <r>    2.6308    1.0000 </r>
       <r>    2.8961    1.0000 </r>
       <r>    2.9775    1.0000 </r>
       <r>    3.6186    1.0000 </r>
       <r>    3.9495    1.0000 </r>
       <r>    4.2347    1.0000 </r>
       <r>    4.8315    1.0000 </r>
       <r>    5.1500    1.0000 </r>
       <r>    5.2277    1.0000 </r>
       <r>    6.4467    0.0000 </r>
       <r>    8.3172    0.0000 </r>
       <r>    8.8357    0.0000 </r>
       <r>    9.0687    0.0000 </r>
       <r>    9.1864    0.0000 </r>
       <r>    9.3097    0.0000 </r>
       <r>    9.7711    0.0000 </r>
       <r>   10.1680    0.0000 </r>
       <r>   10.2538    0.0000 </r>
       <r>   10.6558    0.0000 </r>
       <r>   11.0874    0.0000 </r>
       <r>   11.3904    0.0000 </r>
       <r>   11.7687    0.0000 </r>
       <r>   11.7759    0.0000 </r>
       <r>   12.2725    0.0000 </r>
       <r>   12.3614    0.0000 </r>
       <r>   12.6082    0.0000 </r>
       <r>   13.9259    0.0000 </r>
       <r>   14.1355    0.0000 </r>
       <r>   14.4954    0.0000 </r>
       <r>   15.1161    0.0000 </r>
       <r>   15.2062    0.0000 </r>
       <r>   15.2583    0.0000 </r>
       <r>   15.4132    0.0000 </r>
      </set>
      <set comment="kpoint 7">
       <r>  -15.4138    1.0000 </r>
       <r>  -15.3968    1.0000 </r>
       <r>  -15.3957    1.0000 </r>
       <r>  -15.3927    1.0000 </r>
       <r>  -15.3926    1.0000 </r>
       <r>  -15.3909    1.0000 </r>
       <r>  -15.3901    1.0000 </r>
       <r>  -15.3856    1.0000 </r>
       <r>  -15.3820    1.0000 </r>
       <r>  -15.3811    1.0000 </r>
       <r>  -15.3767    1.0000 </r>
       <r>  -15.3713    1.0000 </r>
       <r>  -15.3627    1.0000 </r>
       <r>  -15.3603    1.0000 </r>
       <r>  -15.3436    1.0000 </r>
       <r>  -15.3355    1.0000 </r>
       <r>  -15.3344    1.0000 </r>
       <r>  -15.3288    1.0000 </r>
       <r>  -15.3145    1.0000 </r>
       <r>  -15.3070    1.0000 </r>
       <r>   -8.0314    1.0000 </r>
       <r>   -7.6345    1.0000 </r>
       <r>   -7.0458    1.0000 </r>
       <r>   -6.5045    1.0000 </r>
       <r>   -1.7856    1.0000 </r>
       <r>   -0.5487    1.0000 </r>
       <r>   -0.2744    1.0000 </r>
       <r>    0.2834    1.0000 </r>
       <r>    0.8042    1.0000 </r>
       <r>    2.0051    1.0000 </r>
       <r>    2.1707    1.0000 </r>
       <r>    3.1789    1.0000 </r>
       <r>    3.2142    1.0000 </r>
       <r>    3.3424    1.0000 </r>
       <r>    3.4156    1.0000 </r>
       <r>    4.0444    1.0000 </r>
       <r>    4.5023    1.0000 </r>
       <r>    4.9945    1.0000 </r>
       <r>    5.2325    1.0000 </r>
       <r>    5.3087    1.0000 </r>
       <r>    6.4724    0.0000 </r>
       <r>    7.8084    0.0000 </r>
       <r>    8.4214    0.0000 </r>
       <r>    8.7359    0.0000 </r>
       <r>    8.9936    0.0000 </r>
       <r>    9.2970    0.0000 </r>
       <r>    9.5997    0.0000 </r>
       <r>    9.9692    0.0000 </r>
       <r>   10.2641    0.0000 </r>
       <r>   10.8797    0.0000 </r>
       <r>   10.9873    0.0000 </r>
       <r>   11.3332    0.0000 </r>
       <r>   11.5790    0.0000 </r>
       <r>   12.1062    0.0000 </r>
       <r>   12.3330    0.0000 </r>
       <r>   12.6969    0.0000 </r>
       <r>   12.9416    0.0000 </r>
       <r>   13.9622    0.0000 </r>
       <r>   14.1991    0.0000 </r>
       <r>   14.5134    0.0000 </r>
       <r>   14.8218    0.0000 </r>
       <r>   15.0210    0.0000 </r>
       <r>   15.2487    0.0000 </r>
       <r>   15.5555    0.0000 </r>
      </set>
      <set comment="kpoint 8">
       <r>  -15.4112    1.0000 </r>
       <r>  -15.3977    1.0000 </r>
       <r>  -15.3957    1.0000 </r>
       <r>  -15.3952    1.0000 </r>
       <r>  -15.3932    1.0000 </r>
       <r>  -15.3896    1.0000 </r>
       <r>  -15.3888    1.0000 </r>
       <r>  -15.3868    1.0000 </r>
       <r>  -15.3833    1.0000 </r>
       <r>  -15.3824    1.0000 </r>
       <r>  -15.3738    1.0000 </r>
       <r>  -15.3667    1.0000 </r>
       <r>  -15.3627    1.0000 </r>
       <r>  -15.3588    1.0000 </r>
       <r>  -15.3435    1.0000 </r>
       <r>  -15.3360    1.0000 </r>
       <r>  -15.3343    1.0000 </r>
       <r>  -15.3296    1.0000 </r>
       <r>  -15.3136    1.0000 </r>
       <r>  -15.3078    1.0000 </r>
       <r>   -7.8249    1.0000 </r>
       <r>   -7.4480    1.0000 </r>
       <r>   -7.0106    1.0000 </r>
       <r>   -6.5462    1.0000 </r>
       <r>   -2.2236    1.0000 </r>
       <r>   -1.0853    1.0000 </r>
       <r>   -0.7982    1.0000 </r>
       <r>   -0.0607    1.0000 </r>
       <r>    0.9542    1.0000 </r>
       <r>    1.9967    1.0000 </r>
       <r>    2.1626    1.0000 </r>
       <r>    3.1951    1.0000 </r>
       <r>    3.5684    1.0000 </r>
       <r>    3.6338    1.0000 </r>
       <r>    4.0204    1.0000 </r>
       <r>    4.0763    1.0000 </r>
       <r>    4.8382    1.0000 </r>
       <r>    5.1067    1.0000 </r>
       <r>    5.3390    1.0000 </r>
       <r>    5.5424    1.0000 </r>
       <r>    6.7815    0.0000 </r>
       <r>    7.2788    0.0000 </r>
       <r>    7.5189    0.0000 </r>
       <r>    7.6834    0.0000 </r>
       <r>    8.8705    0.0000 </r>
       <r>    8.9561    0.0000 </r>
       <r>    9.2954    0.0000 </r>
       <r>    9.8452    0.0000 </r>
       <r>   10.3657    0.0000 </r>
       <r>   10.5826    0.0000 </r>
       <r>   10.9493    0.0000 </r>
       <r>   11.4046    0.0000 </r>
       <r>   11.7754    0.0000 </r>
       <r>   11.9625    0.0000 </r>
       <r>   12.7620    0.0000 </r>
       <r>   13.0544    0.0000 </r>
       <r>   13.5395    0.0000 </r>
       <r>   13.9839    0.0000 </r>
       <r>   14.0192    0.0000 </r>
       <r>   14.4071    0.0000 </r>
       <r>   14.8078    0.0000 </r>
       <r>   15.5597    0.0000 </r>
       <r>   15.7452    0.0000 </r>
       <r>   16.2253    0.0000 </r>
      </set>
      <set comment="kpoint 9">
       <r>  -15.4078    1.0000 </r>
       <r>  -15.4007    1.0000 </r>
       <r>  -15.3974    1.0000 </r>
       <r>  -15.3971    1.0000 </r>
       <r>  -15.3924    1.0000 </r>
       <r>  -15.3903    1.0000 </r>
       <r>  -15.3876    1.0000 </r>
       <r>  -15.3866    1.0000 </r>
       <r>  -15.3842    1.0000 </r>
       <r>  -15.3830    1.0000 </r>
       <r>  -15.3698    1.0000 </r>
       <r>  -15.3639    1.0000 </r>
       <r>  -15.3619    1.0000 </r>
       <r>  -15.3577    1.0000 </r>
       <r>  -15.3420    1.0000 </r>
       <r>  -15.3377    1.0000 </r>
       <r>  -15.3328    1.0000 </r>
       <r>  -15.3305    1.0000 </r>
       <r>  -15.3122    1.0000 </r>
       <r>  -15.3091    1.0000 </r>
       <r>   -7.5308    1.0000 </r>
       <r>   -7.1793    1.0000 </r>
       <r>   -7.0502    1.0000 </r>
       <r>   -6.6690    1.0000 </r>
       <r>   -2.5076    1.0000 </r>
       <r>   -1.8831    1.0000 </r>
       <r>   -0.9883    1.0000 </r>
       <r>   -0.5506    1.0000 </r>
       <r>    1.3936    1.0000 </r>
       <r>    2.2236    1.0000 </r>
       <r>    2.4311    1.0000 </r>
       <r>    3.2920    1.0000 </r>
       <r>    3.3861    1.0000 </r>
       <r>    3.6423    1.0000 </r>
       <r>    4.1247    1.0000 </r>
       <r>    4.4491    1.0000 </r>
       <r>    5.0108    1.0000 </r>
       <r>    5.1285    1.0000 </r>
       <r>    5.4257    1.0000 </r>
       <r>    5.5089    1.0000 </r>
       <r>    6.9268    0.0000 </r>
       <r>    7.0886    0.0000 </r>
       <r>    7.1726    0.0000 </r>
       <r>    7.4852    0.0000 </r>
       <r>    8.3568    0.0000 </r>
       <r>    8.4819    0.0000 </r>
       <r>    8.7793    0.0000 </r>
       <r>    9.4844    0.0000 </r>
       <r>    9.9366    0.0000 </r>
       <r>   10.2571    0.0000 </r>
       <r>   11.3665    0.0000 </r>
       <r>   11.6233    0.0000 </r>
       <r>   11.9656    0.0000 </r>
       <r>   12.7387    0.0000 </r>
       <r>   12.8845    0.0000 </r>
       <r>   13.2043    0.0000 </r>
       <r>   14.0568    0.0000 </r>
       <r>   14.3534    0.0000 </r>
       <r>   14.3895    0.0000 </r>
       <r>   14.8437    0.0000 </r>
       <r>   15.3265    0.0000 </r>
       <r>   15.6863    0.0000 </r>
       <r>   16.7839    0.0000 </r>
       <r>   16.8876    0.0000 </r>
      </set>
      <set comment="kpoint 10">
       <r>  -15.4042    1.0000 </r>
       <r>  -15.4042    1.0000 </r>
       <r>  -15.3980    1.0000 </r>
       <r>  -15.3980    1.0000 </r>
       <r>  -15.3916    1.0000 </r>
       <r>  -15.3916    1.0000 </r>
       <r>  -15.3870    1.0000 </r>
       <r>  -15.3870    1.0000 </r>
       <r>  -15.3836    1.0000 </r>
       <r>  -15.3836    1.0000 </r>
       <r>  -15.3662    1.0000 </r>
       <r>  -15.3662    1.0000 </r>
       <r>  -15.3587    1.0000 </r>
       <r>  -15.3587    1.0000 </r>
       <r>  -15.3398    1.0000 </r>
       <r>  -15.3398    1.0000 </r>
       <r>  -15.3315    1.0000 </r>
       <r>  -15.3315    1.0000 </r>
       <r>  -15.3106    1.0000 </r>
       <r>  -15.3106    1.0000 </r>
       <r>   -7.2364    1.0000 </r>
       <r>   -7.2364    1.0000 </r>
       <r>   -6.8940    1.0000 </r>
       <r>   -6.8940    1.0000 </r>
       <r>   -2.4013    1.0000 </r>
       <r>   -2.4013    1.0000 </r>
       <r>   -0.9107    1.0000 </r>
       <r>   -0.9107    1.0000 </r>
       <r>    1.9437    1.0000 </r>
       <r>    1.9437    1.0000 </r>
       <r>    2.9891    1.0000 </r>
       <r>    2.9891    1.0000 </r>
       <r>    3.4148    1.0000 </r>
       <r>    3.4148    1.0000 </r>
       <r>    4.2883    1.0000 </r>
       <r>    4.2883    1.0000 </r>
       <r>    5.2353    1.0000 </r>
       <r>    5.2353    1.0000 </r>
       <r>    5.4022    1.0000 </r>
       <r>    5.4022    1.0000 </r>
       <r>    6.8748    0.0000 </r>
       <r>    6.8748    0.0000 </r>
       <r>    7.3071    0.0000 </r>
       <r>    7.3071    0.0000 </r>
       <r>    8.5190    0.0000 </r>
       <r>    8.5190    0.0000 </r>
       <r>    8.8568    0.0000 </r>
       <r>    8.8568    0.0000 </r>
       <r>    9.6822    0.0000 </r>
       <r>    9.6822    0.0000 </r>
       <r>   11.7519    0.0000 </r>
       <r>   11.7519    0.0000 </r>
       <r>   12.2208    0.0000 </r>
       <r>   12.2208    0.0000 </r>
       <r>   13.7485    0.0000 </r>
       <r>   13.7485    0.0000 </r>
       <r>   14.5097    0.0000 </r>
       <r>   14.5097    0.0000 </r>
       <r>   15.4194    0.0000 </r>
       <r>   15.4194    0.0000 </r>
       <r>   15.7122    0.0000 </r>
       <r>   15.7122    0.0000 </r>
       <r>   16.2071    0.0000 </r>
       <r>   16.2071    0.0000 </r>
      </set>
      <set comment="kpoint 11">
       <r>  -15.4051    1.0000 </r>
       <r>  -15.3971    1.0000 </r>
       <r>  -15.3946    1.0000 </r>
       <r>  -15.3933    1.0000 </r>
       <r>  -15.3929    1.0000 </r>
       <r>  -15.3927    1.0000 </r>
       <r>  -15.3881    1.0000 </r>
       <r>  -15.3875    1.0000 </r>
       <r>  -15.3840    1.0000 </r>
       <r>  -15.3840    1.0000 </r>
       <r>  -15.3754    1.0000 </r>
       <r>  -15.3682    1.0000 </r>
       <r>  -15.3616    1.0000 </r>
       <r>  -15.3591    1.0000 </r>
       <r>  -15.3393    1.0000 </r>
       <r>  -15.3381    1.0000 </r>
       <r>  -15.3330    1.0000 </r>
       <r>  -15.3307    1.0000 </r>
       <r>  -15.3157    1.0000 </r>
       <r>  -15.3105    1.0000 </r>
       <r>   -7.8970    1.0000 </r>
       <r>   -7.5300    1.0000 </r>
       <r>   -6.9731    1.0000 </r>
       <r>   -6.5166    1.0000 </r>
       <r>   -1.8541    1.0000 </r>
       <r>   -0.9720    1.0000 </r>
       <r>   -0.4400    1.0000 </r>
       <r>   -0.1953    1.0000 </r>
       <r>    0.8868    1.0000 </r>
       <r>    2.4059    1.0000 </r>
       <r>    2.7498    1.0000 </r>
       <r>    2.9213    1.0000 </r>
       <r>    2.9774    1.0000 </r>
       <r>    3.2016    1.0000 </r>
       <r>    3.9352    1.0000 </r>
       <r>    4.0795    1.0000 </r>
       <r>    4.3067    1.0000 </r>
       <r>    5.0397    1.0000 </r>
       <r>    5.1722    1.0000 </r>
       <r>    5.4423    1.0000 </r>
       <r>    6.7188    0.0000 </r>
       <r>    7.0655    0.0000 </r>
       <r>    8.3997    0.0000 </r>
       <r>    8.5153    0.0000 </r>
       <r>    8.6137    0.0000 </r>
       <r>    9.1704    0.0000 </r>
       <r>    9.2912    0.0000 </r>
       <r>    9.7579    0.0000 </r>
       <r>   10.4325    0.0000 </r>
       <r>   10.6034    0.0000 </r>
       <r>   10.7016    0.0000 </r>
       <r>   10.8708    0.0000 </r>
       <r>   11.4651    0.0000 </r>
       <r>   11.5049    0.0000 </r>
       <r>   12.1438    0.0000 </r>
       <r>   12.6656    0.0000 </r>
       <r>   13.1515    0.0000 </r>
       <r>   13.4867    0.0000 </r>
       <r>   14.7112    0.0000 </r>
       <r>   14.7800    0.0000 </r>
       <r>   15.3757    0.0000 </r>
       <r>   15.3924    0.0000 </r>
       <r>   15.5755    0.0000 </r>
       <r>   16.1324    0.0000 </r>
      </set>
      <set comment="kpoint 12">
       <r>  -15.4058    1.0000 </r>
       <r>  -15.3970    1.0000 </r>
       <r>  -15.3963    1.0000 </r>
       <r>  -15.3937    1.0000 </r>
       <r>  -15.3928    1.0000 </r>
       <r>  -15.3919    1.0000 </r>
       <r>  -15.3880    1.0000 </r>
       <r>  -15.3873    1.0000 </r>
       <r>  -15.3849    1.0000 </r>
       <r>  -15.3843    1.0000 </r>
       <r>  -15.3742    1.0000 </r>
       <r>  -15.3665    1.0000 </r>
       <r>  -15.3622    1.0000 </r>
       <r>  -15.3577    1.0000 </r>
       <r>  -15.3396    1.0000 </r>
       <r>  -15.3375    1.0000 </r>
       <r>  -15.3331    1.0000 </r>
       <r>  -15.3313    1.0000 </r>
       <r>  -15.3155    1.0000 </r>
       <r>  -15.3106    1.0000 </r>
       <r>   -7.8269    1.0000 </r>
       <r>   -7.4676    1.0000 </r>
       <r>   -6.9502    1.0000 </r>
       <r>   -6.5162    1.0000 </r>
       <r>   -1.9289    1.0000 </r>
       <r>   -0.9279    1.0000 </r>
       <r>   -0.5424    1.0000 </r>
       <r>   -0.2871    1.0000 </r>
       <r>    0.9519    1.0000 </r>
       <r>    1.7325    1.0000 </r>
       <r>    2.0565    1.0000 </r>
       <r>    2.9255    1.0000 </r>
       <r>    3.3650    1.0000 </r>
       <r>    3.6157    1.0000 </r>
       <r>    3.7021    1.0000 </r>
       <r>    4.0795    1.0000 </r>
       <r>    4.7718    1.0000 </r>
       <r>    5.0750    1.0000 </r>
       <r>    5.2280    1.0000 </r>
       <r>    5.4624    1.0000 </r>
       <r>    6.7562    0.0000 </r>
       <r>    7.1366    0.0000 </r>
       <r>    7.6699    0.0000 </r>
       <r>    7.8091    0.0000 </r>
       <r>    8.9396    0.0000 </r>
       <r>    9.0349    0.0000 </r>
       <r>    9.6437    0.0000 </r>
       <r>    9.9055    0.0000 </r>
       <r>   10.4759    0.0000 </r>
       <r>   10.5666    0.0000 </r>
       <r>   10.7370    0.0000 </r>
       <r>   11.3999    0.0000 </r>
       <r>   11.4360    0.0000 </r>
       <r>   12.4265    0.0000 </r>
       <r>   12.4553    0.0000 </r>
       <r>   12.9250    0.0000 </r>
       <r>   13.3424    0.0000 </r>
       <r>   13.8748    0.0000 </r>
       <r>   13.9793    0.0000 </r>
       <r>   14.3622    0.0000 </r>
       <r>   14.7740    0.0000 </r>
       <r>   15.5286    0.0000 </r>
       <r>   15.7049    0.0000 </r>
       <r>   15.9664    0.0000 </r>
      </set>
      <set comment="kpoint 13">
       <r>  -15.4076    1.0000 </r>
       <r>  -15.4006    1.0000 </r>
       <r>  -15.3966    1.0000 </r>
       <r>  -15.3954    1.0000 </r>
       <r>  -15.3931    1.0000 </r>
       <r>  -15.3912    1.0000 </r>
       <r>  -15.3889    1.0000 </r>
       <r>  -15.3863    1.0000 </r>
       <r>  -15.3846    1.0000 </r>
       <r>  -15.3842    1.0000 </r>
       <r>  -15.3714    1.0000 </r>
       <r>  -15.3627    1.0000 </r>
       <r>  -15.3623    1.0000 </r>
       <r>  -15.3557    1.0000 </r>
       <r>  -15.3394    1.0000 </r>
       <r>  -15.3363    1.0000 </r>
       <r>  -15.3333    1.0000 </r>
       <r>  -15.3326    1.0000 </r>
       <r>  -15.3148    1.0000 </r>
       <r>  -15.3111    1.0000 </r>
       <r>   -7.6312    1.0000 </r>
       <r>   -7.2937    1.0000 </r>
       <r>   -6.9117    1.0000 </r>
       <r>   -6.5354    1.0000 </r>
       <r>   -2.1192    1.0000 </r>
       <r>   -1.0405    1.0000 </r>
       <r>   -0.8566    1.0000 </r>
       <r>   -0.3818    1.0000 </r>
       <r>    1.1880    1.0000 </r>
       <r>    1.3008    1.0000 </r>
       <r>    1.5639    1.0000 </r>
       <r>    2.6982    1.0000 </r>
       <r>    2.8135    1.0000 </r>
       <r>    3.7900    1.0000 </r>
       <r>    3.9182    1.0000 </r>
       <r>    4.2918    1.0000 </r>
       <r>    4.6961    1.0000 </r>
       <r>    4.9430    1.0000 </r>
       <r>    5.0545    1.0000 </r>
       <r>    5.3116    1.0000 </r>
       <r>    6.7306    0.0000 </r>
       <r>    7.1913    0.0000 </r>
       <r>    7.8383    0.0000 </r>
       <r>    8.2804    0.0000 </r>
       <r>    8.5167    0.0000 </r>
       <r>    8.9655    0.0000 </r>
       <r>    9.3094    0.0000 </r>
       <r>   10.3349    0.0000 </r>
       <r>   10.8350    0.0000 </r>
       <r>   10.9561    0.0000 </r>
       <r>   11.0216    0.0000 </r>
       <r>   11.4339    0.0000 </r>
       <r>   11.6825    0.0000 </r>
       <r>   12.7362    0.0000 </r>
       <r>   12.9889    0.0000 </r>
       <r>   13.2384    0.0000 </r>
       <r>   13.8095    0.0000 </r>
       <r>   13.9033    0.0000 </r>
       <r>   14.1850    0.0000 </r>
       <r>   14.7127    0.0000 </r>
       <r>   15.1774    0.0000 </r>
       <r>   15.3704    0.0000 </r>
       <r>   16.0607    0.0000 </r>
       <r>   16.1558    0.0000 </r>
      </set>
      <set comment="kpoint 14">
       <r>  -15.4091    1.0000 </r>
       <r>  -15.4054    1.0000 </r>
       <r>  -15.3975    1.0000 </r>
       <r>  -15.3971    1.0000 </r>
       <r>  -15.3935    1.0000 </r>
       <r>  -15.3906    1.0000 </r>
       <r>  -15.3901    1.0000 </r>
       <r>  -15.3878    1.0000 </r>
       <r>  -15.3826    1.0000 </r>
       <r>  -15.3823    1.0000 </r>
       <r>  -15.3681    1.0000 </r>
       <r>  -15.3634    1.0000 </r>
       <r>  -15.3579    1.0000 </r>
       <r>  -15.3545    1.0000 </r>
       <r>  -15.3380    1.0000 </r>
       <r>  -15.3349    1.0000 </r>
       <r>  -15.3343    1.0000 </r>
       <r>  -15.3332    1.0000 </r>
       <r>  -15.3138    1.0000 </r>
       <r>  -15.3118    1.0000 </r>
       <r>   -7.3583    1.0000 </r>
       <r>   -7.0494    1.0000 </r>
       <r>   -6.9370    1.0000 </r>
       <r>   -6.6208    1.0000 </r>
       <r>   -2.2583    1.0000 </r>
       <r>   -1.6730    1.0000 </r>
       <r>   -0.8336    1.0000 </r>
       <r>   -0.5586    1.0000 </r>
       <r>    1.3672    1.0000 </r>
       <r>    1.5568    1.0000 </r>
       <r>    1.5904    1.0000 </r>
       <r>    2.5118    1.0000 </r>
       <r>    2.6309    1.0000 </r>
       <r>    3.3004    1.0000 </r>
       <r>    3.4383    1.0000 </r>
       <r>    4.0735    1.0000 </r>
       <r>    4.3438    1.0000 </r>
       <r>    4.8188    1.0000 </r>
       <r>    4.8293    1.0000 </r>
       <r>    5.3099    1.0000 </r>
       <r>    6.5255    0.0000 </r>
       <r>    7.7972    0.0000 </r>
       <r>    7.9295    0.0000 </r>
       <r>    8.8400    0.0000 </r>
       <r>    9.0029    0.0000 </r>
       <r>    9.3124    0.0000 </r>
       <r>    9.5351    0.0000 </r>
       <r>   10.5030    0.0000 </r>
       <r>   10.6307    0.0000 </r>
       <r>   11.0143    0.0000 </r>
       <r>   11.1020    0.0000 </r>
       <r>   11.5379    0.0000 </r>
       <r>   11.5881    0.0000 </r>
       <r>   11.8924    0.0000 </r>
       <r>   12.9392    0.0000 </r>
       <r>   13.7453    0.0000 </r>
       <r>   14.0184    0.0000 </r>
       <r>   14.5269    0.0000 </r>
       <r>   15.0432    0.0000 </r>
       <r>   15.6960    0.0000 </r>
       <r>   15.8540    0.0000 </r>
       <r>   16.2509    0.0000 </r>
       <r>   16.4130    0.0000 </r>
       <r>   16.8697    0.0000 </r>
      </set>
      <set comment="kpoint 15">
       <r>  -15.4086    1.0000 </r>
       <r>  -15.4086    1.0000 </r>
       <r>  -15.3982    1.0000 </r>
       <r>  -15.3982    1.0000 </r>
       <r>  -15.3918    1.0000 </r>
       <r>  -15.3918    1.0000 </r>
       <r>  -15.3894    1.0000 </r>
       <r>  -15.3894    1.0000 </r>
       <r>  -15.3816    1.0000 </r>
       <r>  -15.3816    1.0000 </r>
       <r>  -15.3652    1.0000 </r>
       <r>  -15.3652    1.0000 </r>
       <r>  -15.3551    1.0000 </r>
       <r>  -15.3551    1.0000 </r>
       <r>  -15.3360    1.0000 </r>
       <r>  -15.3360    1.0000 </r>
       <r>  -15.3338    1.0000 </r>
       <r>  -15.3338    1.0000 </r>
       <r>  -15.3127    1.0000 </r>
       <r>  -15.3127    1.0000 </r>
       <r>   -7.0946    1.0000 </r>
       <r>   -7.0946    1.0000 </r>
       <r>   -6.8018    1.0000 </r>
       <r>   -6.8018    1.0000 </r>
       <r>   -2.1273    1.0000 </r>
       <r>   -2.1273    1.0000 </r>
       <r>   -0.7543    1.0000 </r>
       <r>   -0.7543    1.0000 </r>
       <r>    1.7001    1.0000 </r>
       <r>    1.7001    1.0000 </r>
       <r>    1.9804    1.0000 </r>
       <r>    1.9804    1.0000 </r>
       <r>    2.7655    1.0000 </r>
       <r>    2.7655    1.0000 </r>
       <r>    3.4987    1.0000 </r>
       <r>    3.4987    1.0000 </r>
       <r>    4.5139    1.0000 </r>
       <r>    4.5139    1.0000 </r>
       <r>    5.0081    1.0000 </r>
       <r>    5.0081    1.0000 </r>
       <r>    7.0664    0.0000 </r>
       <r>    7.0664    0.0000 </r>
       <r>    8.6249    0.0000 </r>
       <r>    8.6249    0.0000 </r>
       <r>    9.6264    0.0000 </r>
       <r>    9.6264    0.0000 </r>
       <r>   10.1877    0.0000 </r>
       <r>   10.1877    0.0000 </r>
       <r>   10.5563    0.0000 </r>
       <r>   10.5563    0.0000 </r>
       <r>   11.2368    0.0000 </r>
       <r>   11.2368    0.0000 </r>
       <r>   11.6220    0.0000 </r>
       <r>   11.6220    0.0000 </r>
       <r>   13.2191    0.0000 </r>
       <r>   13.2191    0.0000 </r>
       <r>   15.2726    0.0000 </r>
       <r>   15.2726    0.0000 </r>
       <r>   15.7359    0.0000 </r>
       <r>   15.7359    0.0000 </r>
       <r>   16.0920    0.0000 </r>
       <r>   16.0920    0.0000 </r>
       <r>   17.0437    0.0000 </r>
       <r>   17.0437    0.0000 </r>
      </set>
      <set comment="kpoint 16">
       <r>  -15.4020    1.0000 </r>
       <r>  -15.3984    1.0000 </r>
       <r>  -15.3977    1.0000 </r>
       <r>  -15.3949    1.0000 </r>
       <r>  -15.3912    1.0000 </r>
       <r>  -15.3901    1.0000 </r>
       <r>  -15.3884    1.0000 </r>
       <r>  -15.3880    1.0000 </r>
       <r>  -15.3859    1.0000 </r>
       <r>  -15.3784    1.0000 </r>
       <r>  -15.3727    1.0000 </r>
       <r>  -15.3645    1.0000 </r>
       <r>  -15.3618    1.0000 </r>
       <r>  -15.3546    1.0000 </r>
       <r>  -15.3417    1.0000 </r>
       <r>  -15.3401    1.0000 </r>
       <r>  -15.3335    1.0000 </r>
       <r>  -15.3266    1.0000 </r>
       <r>  -15.3167    1.0000 </r>
       <r>  -15.3151    1.0000 </r>
       <r>   -7.5801    1.0000 </r>
       <r>   -7.2872    1.0000 </r>
       <r>   -6.8842    1.0000 </r>
       <r>   -6.6195    1.0000 </r>
       <r>   -2.1428    1.0000 </r>
       <r>   -1.3765    1.0000 </r>
       <r>   -1.2895    1.0000 </r>
       <r>   -0.7054    1.0000 </r>
       <r>    1.2289    1.0000 </r>
       <r>    2.7128    1.0000 </r>
       <r>    2.9625    1.0000 </r>
       <r>    3.1494    1.0000 </r>
       <r>    3.2469    1.0000 </r>
       <r>    3.4963    1.0000 </r>
       <r>    4.1048    1.0000 </r>
       <r>    4.2221    1.0000 </r>
       <r>    4.5820    1.0000 </r>
       <r>    4.9749    1.0000 </r>
       <r>    5.1145    1.0000 </r>
       <r>    5.7520    1.0000 </r>
       <r>    6.3139    0.0000 </r>
       <r>    7.0807    0.0000 </r>
       <r>    7.5269    0.0000 </r>
       <r>    7.6208    0.0000 </r>
       <r>    7.8415    0.0000 </r>
       <r>    8.3534    0.0000 </r>
       <r>    8.4237    0.0000 </r>
       <r>    9.2773    0.0000 </r>
       <r>    9.6850    0.0000 </r>
       <r>    9.8884    0.0000 </r>
       <r>   10.7330    0.0000 </r>
       <r>   11.1017    0.0000 </r>
       <r>   12.1139    0.0000 </r>
       <r>   12.6865    0.0000 </r>
       <r>   12.8347    0.0000 </r>
       <r>   13.1278    0.0000 </r>
       <r>   13.9980    0.0000 </r>
       <r>   14.1095    0.0000 </r>
       <r>   14.1563    0.0000 </r>
       <r>   14.6578    0.0000 </r>
       <r>   15.3732    0.0000 </r>
       <r>   15.4878    0.0000 </r>
       <r>   15.8762    0.0000 </r>
       <r>   16.4896    0.0000 </r>
      </set>
      <set comment="kpoint 17">
       <r>  -15.4052    1.0000 </r>
       <r>  -15.4012    1.0000 </r>
       <r>  -15.3981    1.0000 </r>
       <r>  -15.3961    1.0000 </r>
       <r>  -15.3911    1.0000 </r>
       <r>  -15.3891    1.0000 </r>
       <r>  -15.3884    1.0000 </r>
       <r>  -15.3862    1.0000 </r>
       <r>  -15.3850    1.0000 </r>
       <r>  -15.3786    1.0000 </r>
       <r>  -15.3721    1.0000 </r>
       <r>  -15.3646    1.0000 </r>
       <r>  -15.3604    1.0000 </r>
       <r>  -15.3538    1.0000 </r>
       <r>  -15.3412    1.0000 </r>
       <r>  -15.3397    1.0000 </r>
       <r>  -15.3335    1.0000 </r>
       <r>  -15.3271    1.0000 </r>
       <r>  -15.3165    1.0000 </r>
       <r>  -15.3150    1.0000 </r>
       <r>   -7.5168    1.0000 </r>
       <r>   -7.2321    1.0000 </r>
       <r>   -6.8591    1.0000 </r>
       <r>   -6.6052    1.0000 </r>
       <r>   -2.1000    1.0000 </r>
       <r>   -1.2836    1.0000 </r>
       <r>   -1.2289    1.0000 </r>
       <r>   -0.7422    1.0000 </r>
       <r>    1.3166    1.0000 </r>
       <r>    1.8243    1.0000 </r>
       <r>    2.2163    1.0000 </r>
       <r>    2.9610    1.0000 </r>
       <r>    3.4345    1.0000 </r>
       <r>    3.4967    1.0000 </r>
       <r>    4.0446    1.0000 </r>
       <r>    4.0656    1.0000 </r>
       <r>    4.6570    1.0000 </r>
       <r>    5.0362    1.0000 </r>
       <r>    5.1283    1.0000 </r>
       <r>    5.2313    1.0000 </r>
       <r>    6.8939    0.0000 </r>
       <r>    6.9949    0.0000 </r>
       <r>    7.0760    0.0000 </r>
       <r>    7.4281    0.0000 </r>
       <r>    8.4773    0.0000 </r>
       <r>    8.8425    0.0000 </r>
       <r>    9.0822    0.0000 </r>
       <r>    9.4093    0.0000 </r>
       <r>   10.1335    0.0000 </r>
       <r>   10.5846    0.0000 </r>
       <r>   10.8490    0.0000 </r>
       <r>   10.9870    0.0000 </r>
       <r>   11.7043    0.0000 </r>
       <r>   12.9098    0.0000 </r>
       <r>   13.0052    0.0000 </r>
       <r>   13.1778    0.0000 </r>
       <r>   13.8142    0.0000 </r>
       <r>   14.1482    0.0000 </r>
       <r>   14.2789    0.0000 </r>
       <r>   14.7277    0.0000 </r>
       <r>   15.3064    0.0000 </r>
       <r>   16.0252    0.0000 </r>
       <r>   16.4391    0.0000 </r>
       <r>   16.5742    0.0000 </r>
      </set>
      <set comment="kpoint 18">
       <r>  -15.4108    1.0000 </r>
       <r>  -15.4070    1.0000 </r>
       <r>  -15.4010    1.0000 </r>
       <r>  -15.3998    1.0000 </r>
       <r>  -15.3915    1.0000 </r>
       <r>  -15.3886    1.0000 </r>
       <r>  -15.3861    1.0000 </r>
       <r>  -15.3831    1.0000 </r>
       <r>  -15.3829    1.0000 </r>
       <r>  -15.3794    1.0000 </r>
       <r>  -15.3704    1.0000 </r>
       <r>  -15.3645    1.0000 </r>
       <r>  -15.3569    1.0000 </r>
       <r>  -15.3521    1.0000 </r>
       <r>  -15.3398    1.0000 </r>
       <r>  -15.3385    1.0000 </r>
       <r>  -15.3334    1.0000 </r>
       <r>  -15.3283    1.0000 </r>
       <r>  -15.3161    1.0000 </r>
       <r>  -15.3149    1.0000 </r>
       <r>   -7.3438    1.0000 </r>
       <r>   -7.0823    1.0000 </r>
       <r>   -6.8095    1.0000 </r>
       <r>   -6.5825    1.0000 </r>
       <r>   -2.0009    1.0000 </r>
       <r>   -1.1560    1.0000 </r>
       <r>   -1.0315    1.0000 </r>
       <r>   -0.8193    1.0000 </r>
       <r>    1.0342    1.0000 </r>
       <r>    1.4470    1.0000 </r>
       <r>    1.5453    1.0000 </r>
       <r>    2.2873    1.0000 </r>
       <r>    2.5712    1.0000 </r>
       <r>    3.4106    1.0000 </r>
       <r>    3.4972    1.0000 </r>
       <r>    3.9506    1.0000 </r>
       <r>    4.2829    1.0000 </r>
       <r>    4.3745    1.0000 </r>
       <r>    4.7343    1.0000 </r>
       <r>    5.2776    1.0000 </r>
       <r>    6.4008    0.0000 </r>
       <r>    7.8304    0.0000 </r>
       <r>    8.2087    0.0000 </r>
       <r>    8.5326    0.0000 </r>
       <r>    8.8359    0.0000 </r>
       <r>    9.2966    0.0000 </r>
       <r>    9.7976    0.0000 </r>
       <r>   10.2523    0.0000 </r>
       <r>   10.6212    0.0000 </r>
       <r>   10.7583    0.0000 </r>
       <r>   11.3918    0.0000 </r>
       <r>   11.5102    0.0000 </r>
       <r>   11.7501    0.0000 </r>
       <r>   11.8056    0.0000 </r>
       <r>   13.2785    0.0000 </r>
       <r>   14.0098    0.0000 </r>
       <r>   14.0846    0.0000 </r>
       <r>   14.1962    0.0000 </r>
       <r>   14.9129    0.0000 </r>
       <r>   15.2623    0.0000 </r>
       <r>   15.9056    0.0000 </r>
       <r>   15.9387    0.0000 </r>
       <r>   16.1490    0.0000 </r>
       <r>   16.7159    0.0000 </r>
      </set>
      <set comment="kpoint 19">
       <r>  -15.4151    1.0000 </r>
       <r>  -15.4128    1.0000 </r>
       <r>  -15.4043    1.0000 </r>
       <r>  -15.4038    1.0000 </r>
       <r>  -15.3911    1.0000 </r>
       <r>  -15.3891    1.0000 </r>
       <r>  -15.3840    1.0000 </r>
       <r>  -15.3817    1.0000 </r>
       <r>  -15.3804    1.0000 </r>
       <r>  -15.3800    1.0000 </r>
       <r>  -15.3682    1.0000 </r>
       <r>  -15.3648    1.0000 </r>
       <r>  -15.3530    1.0000 </r>
       <r>  -15.3508    1.0000 </r>
       <r>  -15.3381    1.0000 </r>
       <r>  -15.3373    1.0000 </r>
       <r>  -15.3324    1.0000 </r>
       <r>  -15.3295    1.0000 </r>
       <r>  -15.3155    1.0000 </r>
       <r>  -15.3148    1.0000 </r>
       <r>   -7.1128    1.0000 </r>
       <r>   -6.8836    1.0000 </r>
       <r>   -6.8038    1.0000 </r>
       <r>   -6.6009    1.0000 </r>
       <r>   -1.8867    1.0000 </r>
       <r>   -1.3942    1.0000 </r>
       <r>   -0.7433    1.0000 </r>
       <r>   -0.7146    1.0000 </r>
       <r>    0.7343    1.0000 </r>
       <r>    1.1384    1.0000 </r>
       <r>    1.5525    1.0000 </r>
       <r>    1.8522    1.0000 </r>
       <r>    2.1837    1.0000 </r>
       <r>    2.6793    1.0000 </r>
       <r>    2.9314    1.0000 </r>
       <r>    3.4795    1.0000 </r>
       <r>    3.6042    1.0000 </r>
       <r>    4.1103    1.0000 </r>
       <r>    4.6516    1.0000 </r>
       <r>    4.7942    1.0000 </r>
       <r>    6.8369    0.0000 </r>
       <r>    8.4292    0.0000 </r>
       <r>    8.9532    0.0000 </r>
       <r>    9.1907    0.0000 </r>
       <r>    9.9119    0.0000 </r>
       <r>    9.9291    0.0000 </r>
       <r>   10.3644    0.0000 </r>
       <r>   10.6862    0.0000 </r>
       <r>   10.7325    0.0000 </r>
       <r>   10.9572    0.0000 </r>
       <r>   11.5094    0.0000 </r>
       <r>   11.6317    0.0000 </r>
       <r>   11.8313    0.0000 </r>
       <r>   12.1813    0.0000 </r>
       <r>   12.7327    0.0000 </r>
       <r>   13.4348    0.0000 </r>
       <r>   15.1690    0.0000 </r>
       <r>   15.3288    0.0000 </r>
       <r>   15.7525    0.0000 </r>
       <r>   15.8289    0.0000 </r>
       <r>   16.0747    0.0000 </r>
       <r>   16.5592    0.0000 </r>
       <r>   16.8570    0.0000 </r>
       <r>   17.1853    0.0000 </r>
      </set>
      <set comment="kpoint 20">
       <r>  -15.4160    1.0000 </r>
       <r>  -15.4160    1.0000 </r>
       <r>  -15.4056    1.0000 </r>
       <r>  -15.4056    1.0000 </r>
       <r>  -15.3901    1.0000 </r>
       <r>  -15.3901    1.0000 </r>
       <r>  -15.3826    1.0000 </r>
       <r>  -15.3826    1.0000 </r>
       <r>  -15.3795    1.0000 </r>
       <r>  -15.3795    1.0000 </r>
       <r>  -15.3661    1.0000 </r>
       <r>  -15.3661    1.0000 </r>
       <r>  -15.3508    1.0000 </r>
       <r>  -15.3508    1.0000 </r>
       <r>  -15.3371    1.0000 </r>
       <r>  -15.3371    1.0000 </r>
       <r>  -15.3308    1.0000 </r>
       <r>  -15.3308    1.0000 </r>
       <r>  -15.3150    1.0000 </r>
       <r>  -15.3150    1.0000 </r>
       <r>   -6.9071    1.0000 </r>
       <r>   -6.9071    1.0000 </r>
       <r>   -6.7038    1.0000 </r>
       <r>   -6.7038    1.0000 </r>
       <r>   -1.7018    1.0000 </r>
       <r>   -1.7018    1.0000 </r>
       <r>   -0.6350    1.0000 </r>
       <r>   -0.6350    1.0000 </r>
       <r>    0.9949    1.0000 </r>
       <r>    0.9949    1.0000 </r>
       <r>    1.4250    1.0000 </r>
       <r>    1.4250    1.0000 </r>
       <r>    2.2794    1.0000 </r>
       <r>    2.2794    1.0000 </r>
       <r>    2.9922    1.0000 </r>
       <r>    2.9922    1.0000 </r>
       <r>    3.6519    1.0000 </r>
       <r>    3.6519    1.0000 </r>
       <r>    4.6323    1.0000 </r>
       <r>    4.6323    1.0000 </r>
       <r>    7.6022    0.0000 </r>
       <r>    7.6022    0.0000 </r>
       <r>    9.5179    0.0000 </r>
       <r>    9.5179    0.0000 </r>
       <r>   10.3922    0.0000 </r>
       <r>   10.3922    0.0000 </r>
       <r>   10.7623    0.0000 </r>
       <r>   10.7623    0.0000 </r>
       <r>   10.8824    0.0000 </r>
       <r>   10.8824    0.0000 </r>
       <r>   11.6900    0.0000 </r>
       <r>   11.6900    0.0000 </r>
       <r>   11.9813    0.0000 </r>
       <r>   11.9813    0.0000 </r>
       <r>   12.7766    0.0000 </r>
       <r>   12.7766    0.0000 </r>
       <r>   15.8773    0.0000 </r>
       <r>   15.8773    0.0000 </r>
       <r>   16.4509    0.0000 </r>
       <r>   16.4509    0.0000 </r>
       <r>   16.6474    0.0000 </r>
       <r>   16.6474    0.0000 </r>
       <r>   17.3030    0.0000 </r>
       <r>   17.3031    0.0000 </r>
      </set>
      <set comment="kpoint 21">
       <r>  -15.4043    1.0000 </r>
       <r>  -15.4029    1.0000 </r>
       <r>  -15.3988    1.0000 </r>
       <r>  -15.3970    1.0000 </r>
       <r>  -15.3896    1.0000 </r>
       <r>  -15.3883    1.0000 </r>
       <r>  -15.3882    1.0000 </r>
       <r>  -15.3860    1.0000 </r>
       <r>  -15.3798    1.0000 </r>
       <r>  -15.3729    1.0000 </r>
       <r>  -15.3713    1.0000 </r>
       <r>  -15.3704    1.0000 </r>
       <r>  -15.3549    1.0000 </r>
       <r>  -15.3503    1.0000 </r>
       <r>  -15.3478    1.0000 </r>
       <r>  -15.3460    1.0000 </r>
       <r>  -15.3268    1.0000 </r>
       <r>  -15.3221    1.0000 </r>
       <r>  -15.3204    1.0000 </r>
       <r>  -15.3185    1.0000 </r>
       <r>   -7.2064    1.0000 </r>
       <r>   -7.0436    1.0000 </r>
       <r>   -6.8920    1.0000 </r>
       <r>   -6.8573    1.0000 </r>
       <r>   -2.2109    1.0000 </r>
       <r>   -1.9203    1.0000 </r>
       <r>   -1.4612    1.0000 </r>
       <r>   -1.1988    1.0000 </r>
       <r>    1.7722    1.0000 </r>
       <r>    2.3749    1.0000 </r>
       <r>    3.3417    1.0000 </r>
       <r>    3.5579    1.0000 </r>
       <r>    3.6806    1.0000 </r>
       <r>    3.7587    1.0000 </r>
       <r>    3.8210    1.0000 </r>
       <r>    4.3462    1.0000 </r>
       <r>    4.9208    1.0000 </r>
       <r>    4.9435    1.0000 </r>
       <r>    5.0295    1.0000 </r>
       <r>    5.1731    1.0000 </r>
       <r>    6.8039    0.0000 </r>
       <r>    6.9024    0.0000 </r>
       <r>    7.0079    0.0000 </r>
       <r>    7.3671    0.0000 </r>
       <r>    7.4341    0.0000 </r>
       <r>    7.6427    0.0000 </r>
       <r>    8.1857    0.0000 </r>
       <r>    8.5774    0.0000 </r>
       <r>    8.9518    0.0000 </r>
       <r>    9.1307    0.0000 </r>
       <r>   10.9488    0.0000 </r>
       <r>   11.1206    0.0000 </r>
       <r>   12.7613    0.0000 </r>
       <r>   12.9538    0.0000 </r>
       <r>   13.3698    0.0000 </r>
       <r>   13.5831    0.0000 </r>
       <r>   14.4763    0.0000 </r>
       <r>   14.9075    0.0000 </r>
       <r>   15.1406    0.0000 </r>
       <r>   15.6611    0.0000 </r>
       <r>   15.7458    0.0000 </r>
       <r>   16.2562    0.0000 </r>
       <r>   16.5652    0.0000 </r>
       <r>   16.7163    0.0000 </r>
      </set>
      <set comment="kpoint 22">
       <r>  -15.4072    1.0000 </r>
       <r>  -15.4058    1.0000 </r>
       <r>  -15.4002    1.0000 </r>
       <r>  -15.3990    1.0000 </r>
       <r>  -15.3895    1.0000 </r>
       <r>  -15.3888    1.0000 </r>
       <r>  -15.3862    1.0000 </r>
       <r>  -15.3852    1.0000 </r>
       <r>  -15.3787    1.0000 </r>
       <r>  -15.3729    1.0000 </r>
       <r>  -15.3710    1.0000 </r>
       <r>  -15.3699    1.0000 </r>
       <r>  -15.3541    1.0000 </r>
       <r>  -15.3505    1.0000 </r>
       <r>  -15.3462    1.0000 </r>
       <r>  -15.3451    1.0000 </r>
       <r>  -15.3270    1.0000 </r>
       <r>  -15.3232    1.0000 </r>
       <r>  -15.3196    1.0000 </r>
       <r>  -15.3184    1.0000 </r>
       <r>   -7.1555    1.0000 </r>
       <r>   -6.9995    1.0000 </r>
       <r>   -6.8597    1.0000 </r>
       <r>   -6.8240    1.0000 </r>
       <r>   -2.1148    1.0000 </r>
       <r>   -1.8212    1.0000 </r>
       <r>   -1.3760    1.0000 </r>
       <r>   -1.1550    1.0000 </r>
       <r>    1.8115    1.0000 </r>
       <r>    2.1436    1.0000 </r>
       <r>    2.3896    1.0000 </r>
       <r>    2.9446    1.0000 </r>
       <r>    3.2111    1.0000 </r>
       <r>    3.2528    1.0000 </r>
       <r>    4.2350    1.0000 </r>
       <r>    4.3199    1.0000 </r>
       <r>    4.3377    1.0000 </r>
       <r>    4.5789    1.0000 </r>
       <r>    5.1684    1.0000 </r>
       <r>    5.2219    1.0000 </r>
       <r>    6.6238    0.0000 </r>
       <r>    6.6319    0.0000 </r>
       <r>    7.2964    0.0000 </r>
       <r>    7.5822    0.0000 </r>
       <r>    8.4038    0.0000 </r>
       <r>    8.5242    0.0000 </r>
       <r>    8.8397    0.0000 </r>
       <r>    9.2862    0.0000 </r>
       <r>    9.4058    0.0000 </r>
       <r>   10.0482    0.0000 </r>
       <r>   10.7747    0.0000 </r>
       <r>   10.8912    0.0000 </r>
       <r>   11.8400    0.0000 </r>
       <r>   12.1931    0.0000 </r>
       <r>   14.0437    0.0000 </r>
       <r>   14.4269    0.0000 </r>
       <r>   14.6854    0.0000 </r>
       <r>   14.9304    0.0000 </r>
       <r>   15.1798    0.0000 </r>
       <r>   15.3346    0.0000 </r>
       <r>   15.7971    0.0000 </r>
       <r>   16.2178    0.0000 </r>
       <r>   16.4823    0.0000 </r>
       <r>   16.5402    0.0000 </r>
      </set>
      <set comment="kpoint 23">
       <r>  -15.4135    1.0000 </r>
       <r>  -15.4121    1.0000 </r>
       <r>  -15.4043    1.0000 </r>
       <r>  -15.4037    1.0000 </r>
       <r>  -15.3892    1.0000 </r>
       <r>  -15.3883    1.0000 </r>
       <r>  -15.3837    1.0000 </r>
       <r>  -15.3836    1.0000 </r>
       <r>  -15.3766    1.0000 </r>
       <r>  -15.3732    1.0000 </r>
       <r>  -15.3702    1.0000 </r>
       <r>  -15.3688    1.0000 </r>
       <r>  -15.3518    1.0000 </r>
       <r>  -15.3496    1.0000 </r>
       <r>  -15.3430    1.0000 </r>
       <r>  -15.3428    1.0000 </r>
       <r>  -15.3273    1.0000 </r>
       <r>  -15.3245    1.0000 </r>
       <r>  -15.3186    1.0000 </r>
       <r>  -15.3180    1.0000 </r>
       <r>   -7.0215    1.0000 </r>
       <r>   -6.8855    1.0000 </r>
       <r>   -6.7845    1.0000 </r>
       <r>   -6.7443    1.0000 </r>
       <r>   -1.8448    1.0000 </r>
       <r>   -1.5437    1.0000 </r>
       <r>   -1.1439    1.0000 </r>
       <r>   -1.0582    1.0000 </r>
       <r>    1.2377    1.0000 </r>
       <r>    1.7337    1.0000 </r>
       <r>    1.7427    1.0000 </r>
       <r>    1.9884    1.0000 </r>
       <r>    2.4592    1.0000 </r>
       <r>    2.9291    1.0000 </r>
       <r>    3.3403    1.0000 </r>
       <r>    3.5603    1.0000 </r>
       <r>    3.6027    1.0000 </r>
       <r>    4.0740    1.0000 </r>
       <r>    4.8237    1.0000 </r>
       <r>    4.9977    1.0000 </r>
       <r>    6.7482    0.0000 </r>
       <r>    7.4620    0.0000 </r>
       <r>    8.5807    0.0000 </r>
       <r>    8.9163    0.0000 </r>
       <r>    9.4920    0.0000 </r>
       <r>    9.6036    0.0000 </r>
       <r>   10.0173    0.0000 </r>
       <r>   10.2306    0.0000 </r>
       <r>   10.3373    0.0000 </r>
       <r>   10.6059    0.0000 </r>
       <r>   10.7847    0.0000 </r>
       <r>   11.4219    0.0000 </r>
       <r>   11.4763    0.0000 </r>
       <r>   11.5496    0.0000 </r>
       <r>   13.3698    0.0000 </r>
       <r>   13.6442    0.0000 </r>
       <r>   15.2125    0.0000 </r>
       <r>   15.4351    0.0000 </r>
       <r>   15.6509    0.0000 </r>
       <r>   16.2892    0.0000 </r>
       <r>   16.3955    0.0000 </r>
       <r>   16.6803    0.0000 </r>
       <r>   16.9479    0.0000 </r>
       <r>   17.1734    0.0000 </r>
      </set>
      <set comment="kpoint 24">
       <r>  -15.4190    1.0000 </r>
       <r>  -15.4182    1.0000 </r>
       <r>  -15.4087    1.0000 </r>
       <r>  -15.4085    1.0000 </r>
       <r>  -15.3890    1.0000 </r>
       <r>  -15.3883    1.0000 </r>
       <r>  -15.3820    1.0000 </r>
       <r>  -15.3816    1.0000 </r>
       <r>  -15.3750    1.0000 </r>
       <r>  -15.3736    1.0000 </r>
       <r>  -15.3693    1.0000 </r>
       <r>  -15.3683    1.0000 </r>
       <r>  -15.3490    1.0000 </r>
       <r>  -15.3481    1.0000 </r>
       <r>  -15.3405    1.0000 </r>
       <r>  -15.3404    1.0000 </r>
       <r>  -15.3269    1.0000 </r>
       <r>  -15.3254    1.0000 </r>
       <r>  -15.3179    1.0000 </r>
       <r>  -15.3176    1.0000 </r>
       <r>   -6.8590    1.0000 </r>
       <r>   -6.7528    1.0000 </r>
       <r>   -6.7242    1.0000 </r>
       <r>   -6.6722    1.0000 </r>
       <r>   -1.4804    1.0000 </r>
       <r>   -1.2123    1.0000 </r>
       <r>   -0.9534    1.0000 </r>
       <r>   -0.8600    1.0000 </r>
       <r>    0.6188    1.0000 </r>
       <r>    1.0083    1.0000 </r>
       <r>    1.2612    1.0000 </r>
       <r>    1.5528    1.0000 </r>
       <r>    2.0431    1.0000 </r>
       <r>    2.2124    1.0000 </r>
       <r>    2.7143    1.0000 </r>
       <r>    3.1531    1.0000 </r>
       <r>    3.3020    1.0000 </r>
       <r>    3.4375    1.0000 </r>
       <r>    4.5089    1.0000 </r>
       <r>    4.5587    1.0000 </r>
       <r>    7.5137    0.0000 </r>
       <r>    8.2727    0.0000 </r>
       <r>    9.0592    0.0000 </r>
       <r>    9.3877    0.0000 </r>
       <r>   10.2591    0.0000 </r>
       <r>   10.3104    0.0000 </r>
       <r>   10.4339    0.0000 </r>
       <r>   10.8212    0.0000 </r>
       <r>   10.8303    0.0000 </r>
       <r>   11.3284    0.0000 </r>
       <r>   11.7909    0.0000 </r>
       <r>   11.9221    0.0000 </r>
       <r>   12.0547    0.0000 </r>
       <r>   12.4285    0.0000 </r>
       <r>   12.7902    0.0000 </r>
       <r>   13.0740    0.0000 </r>
       <r>   15.5926    0.0000 </r>
       <r>   15.7617    0.0000 </r>
       <r>   16.6802    0.0000 </r>
       <r>   16.7603    0.0000 </r>
       <r>   16.9870    0.0000 </r>
       <r>   17.1396    0.0000 </r>
       <r>   17.5918    0.0000 </r>
       <r>   17.6363    0.0000 </r>
      </set>
      <set comment="kpoint 25">
       <r>  -15.4209    1.0000 </r>
       <r>  -15.4209    1.0000 </r>
       <r>  -15.4104    1.0000 </r>
       <r>  -15.4104    1.0000 </r>
       <r>  -15.3887    1.0000 </r>
       <r>  -15.3887    1.0000 </r>
       <r>  -15.3811    1.0000 </r>
       <r>  -15.3811    1.0000 </r>
       <r>  -15.3741    1.0000 </r>
       <r>  -15.3741    1.0000 </r>
       <r>  -15.3686    1.0000 </r>
       <r>  -15.3686    1.0000 </r>
       <r>  -15.3475    1.0000 </r>
       <r>  -15.3475    1.0000 </r>
       <r>  -15.3395    1.0000 </r>
       <r>  -15.3395    1.0000 </r>
       <r>  -15.3261    1.0000 </r>
       <r>  -15.3261    1.0000 </r>
       <r>  -15.3176    1.0000 </r>
       <r>  -15.3176    1.0000 </r>
       <r>   -6.7432    1.0000 </r>
       <r>   -6.7432    1.0000 </r>
       <r>   -6.6683    1.0000 </r>
       <r>   -6.6683    1.0000 </r>
       <r>   -1.2081    1.0000 </r>
       <r>   -1.2081    1.0000 </r>
       <r>   -0.7614    1.0000 </r>
       <r>   -0.7614    1.0000 </r>
       <r>    0.5471    1.0000 </r>
       <r>    0.5471    1.0000 </r>
       <r>    1.1623    1.0000 </r>
       <r>    1.1623    1.0000 </r>
       <r>    1.9112    1.0000 </r>
       <r>    1.9112    1.0000 </r>
       <r>    2.6484    1.0000 </r>
       <r>    2.6484    1.0000 </r>
       <r>    3.3519    1.0000 </r>
       <r>    3.3519    1.0000 </r>
       <r>    4.3816    1.0000 </r>
       <r>    4.3816    1.0000 </r>
       <r>    8.2186    0.0000 </r>
       <r>    8.2186    0.0000 </r>
       <r>    9.0878    0.0000 </r>
       <r>    9.0878    0.0000 </r>
       <r>   10.3631    0.0000 </r>
       <r>   10.3631    0.0000 </r>
       <r>   10.8042    0.0000 </r>
       <r>   10.8042    0.0000 </r>
       <r>   11.7079    0.0000 </r>
       <r>   11.7079    0.0000 </r>
       <r>   12.3444    0.0000 </r>
       <r>   12.3444    0.0000 </r>
       <r>   12.6716    0.0000 </r>
       <r>   12.6716    0.0000 </r>
       <r>   12.8478    0.0000 </r>
       <r>   12.8478    0.0000 </r>
       <r>   15.9982    0.0000 </r>
       <r>   15.9982    0.0000 </r>
       <r>   16.6991    0.0000 </r>
       <r>   16.6991    0.0000 </r>
       <r>   16.9495    0.0000 </r>
       <r>   16.9495    0.0000 </r>
       <r>   17.7969    0.0000 </r>
       <r>   17.7971    0.0000 </r>
      </set>
      <set comment="kpoint 26">
       <r>  -15.4149    1.0000 </r>
       <r>  -15.4061    1.0000 </r>
       <r>  -15.3968    1.0000 </r>
       <r>  -15.3941    1.0000 </r>
       <r>  -15.3906    1.0000 </r>
       <r>  -15.3884    1.0000 </r>
       <r>  -15.3883    1.0000 </r>
       <r>  -15.3845    1.0000 </r>
       <r>  -15.3792    1.0000 </r>
       <r>  -15.3779    1.0000 </r>
       <r>  -15.3772    1.0000 </r>
       <r>  -15.3756    1.0000 </r>
       <r>  -15.3647    1.0000 </r>
       <r>  -15.3621    1.0000 </r>
       <r>  -15.3431    1.0000 </r>
       <r>  -15.3392    1.0000 </r>
       <r>  -15.3313    1.0000 </r>
       <r>  -15.3282    1.0000 </r>
       <r>  -15.3119    1.0000 </r>
       <r>  -15.3072    1.0000 </r>
       <r>   -8.1040    1.0000 </r>
       <r>   -7.9124    1.0000 </r>
       <r>   -6.9090    1.0000 </r>
       <r>   -6.6212    1.0000 </r>
       <r>   -1.3099    1.0000 </r>
       <r>   -0.8662    1.0000 </r>
       <r>    0.7161    1.0000 </r>
       <r>    0.8311    1.0000 </r>
       <r>    1.2159    1.0000 </r>
       <r>    2.0487    1.0000 </r>
       <r>    2.4196    1.0000 </r>
       <r>    2.5418    1.0000 </r>
       <r>    2.6750    1.0000 </r>
       <r>    3.0379    1.0000 </r>
       <r>    3.6839    1.0000 </r>
       <r>    3.7032    1.0000 </r>
       <r>    3.7159    1.0000 </r>
       <r>    4.0703    1.0000 </r>
       <r>    5.2337    1.0000 </r>
       <r>    5.3056    1.0000 </r>
       <r>    7.6379    0.0000 </r>
       <r>    8.4634    0.0000 </r>
       <r>    8.5516    0.0000 </r>
       <r>    9.0522    0.0000 </r>
       <r>    9.5012    0.0000 </r>
       <r>    9.6474    0.0000 </r>
       <r>    9.9046    0.0000 </r>
       <r>   10.1164    0.0000 </r>
       <r>   10.6490    0.0000 </r>
       <r>   10.8256    0.0000 </r>
       <r>   11.3392    0.0000 </r>
       <r>   11.3762    0.0000 </r>
       <r>   11.6231    0.0000 </r>
       <r>   11.8767    0.0000 </r>
       <r>   12.1988    0.0000 </r>
       <r>   12.4625    0.0000 </r>
       <r>   13.0148    0.0000 </r>
       <r>   13.4062    0.0000 </r>
       <r>   13.9249    0.0000 </r>
       <r>   14.3283    0.0000 </r>
       <r>   14.5226    0.0000 </r>
       <r>   14.5395    0.0000 </r>
       <r>   14.8579    0.0000 </r>
       <r>   14.8663    0.0000 </r>
      </set>
      <set comment="kpoint 27">
       <r>  -15.4139    1.0000 </r>
       <r>  -15.4057    1.0000 </r>
       <r>  -15.3956    1.0000 </r>
       <r>  -15.3932    1.0000 </r>
       <r>  -15.3914    1.0000 </r>
       <r>  -15.3894    1.0000 </r>
       <r>  -15.3888    1.0000 </r>
       <r>  -15.3848    1.0000 </r>
       <r>  -15.3795    1.0000 </r>
       <r>  -15.3778    1.0000 </r>
       <r>  -15.3769    1.0000 </r>
       <r>  -15.3738    1.0000 </r>
       <r>  -15.3639    1.0000 </r>
       <r>  -15.3622    1.0000 </r>
       <r>  -15.3432    1.0000 </r>
       <r>  -15.3393    1.0000 </r>
       <r>  -15.3316    1.0000 </r>
       <r>  -15.3286    1.0000 </r>
       <r>  -15.3117    1.0000 </r>
       <r>  -15.3074    1.0000 </r>
       <r>   -8.0313    1.0000 </r>
       <r>   -7.8434    1.0000 </r>
       <r>   -6.8938    1.0000 </r>
       <r>   -6.6221    1.0000 </r>
       <r>   -1.5786    1.0000 </r>
       <r>   -1.0925    1.0000 </r>
       <r>    0.2683    1.0000 </r>
       <r>    0.4970    1.0000 </r>
       <r>    1.2664    1.0000 </r>
       <r>    2.2061    1.0000 </r>
       <r>    2.5295    1.0000 </r>
       <r>    2.7803    1.0000 </r>
       <r>    2.8318    1.0000 </r>
       <r>    3.2230    1.0000 </r>
       <r>    3.7766    1.0000 </r>
       <r>    3.8795    1.0000 </r>
       <r>    4.1281    1.0000 </r>
       <r>    4.2444    1.0000 </r>
       <r>    5.1267    1.0000 </r>
       <r>    5.3068    1.0000 </r>
       <r>    7.5934    0.0000 </r>
       <r>    8.3029    0.0000 </r>
       <r>    8.7457    0.0000 </r>
       <r>    8.9943    0.0000 </r>
       <r>    9.0165    0.0000 </r>
       <r>    9.3287    0.0000 </r>
       <r>    9.4369    0.0000 </r>
       <r>    9.9357    0.0000 </r>
       <r>   10.4707    0.0000 </r>
       <r>   10.8577    0.0000 </r>
       <r>   10.9895    0.0000 </r>
       <r>   11.2808    0.0000 </r>
       <r>   11.3752    0.0000 </r>
       <r>   11.5318    0.0000 </r>
       <r>   12.1289    0.0000 </r>
       <r>   12.6608    0.0000 </r>
       <r>   12.9694    0.0000 </r>
       <r>   13.4764    0.0000 </r>
       <r>   13.9358    0.0000 </r>
       <r>   14.1458    0.0000 </r>
       <r>   15.0397    0.0000 </r>
       <r>   15.2511    0.0000 </r>
       <r>   15.4273    0.0000 </r>
       <r>   15.5286    0.0000 </r>
      </set>
      <set comment="kpoint 28">
       <r>  -15.4112    1.0000 </r>
       <r>  -15.4047    1.0000 </r>
       <r>  -15.3937    1.0000 </r>
       <r>  -15.3932    1.0000 </r>
       <r>  -15.3922    1.0000 </r>
       <r>  -15.3913    1.0000 </r>
       <r>  -15.3893    1.0000 </r>
       <r>  -15.3861    1.0000 </r>
       <r>  -15.3802    1.0000 </r>
       <r>  -15.3787    1.0000 </r>
       <r>  -15.3738    1.0000 </r>
       <r>  -15.3697    1.0000 </r>
       <r>  -15.3629    1.0000 </r>
       <r>  -15.3615    1.0000 </r>
       <r>  -15.3431    1.0000 </r>
       <r>  -15.3395    1.0000 </r>
       <r>  -15.3318    1.0000 </r>
       <r>  -15.3295    1.0000 </r>
       <r>  -15.3112    1.0000 </r>
       <r>  -15.3080    1.0000 </r>
       <r>   -7.8266    1.0000 </r>
       <r>   -7.6503    1.0000 </r>
       <r>   -6.8775    1.0000 </r>
       <r>   -6.6492    1.0000 </r>
       <r>   -2.0920    1.0000 </r>
       <r>   -1.6065    1.0000 </r>
       <r>   -0.4949    1.0000 </r>
       <r>   -0.1444    1.0000 </r>
       <r>    1.4555    1.0000 </r>
       <r>    2.4978    1.0000 </r>
       <r>    2.8436    1.0000 </r>
       <r>    3.0783    1.0000 </r>
       <r>    3.3248    1.0000 </r>
       <r>    3.6308    1.0000 </r>
       <r>    3.9538    1.0000 </r>
       <r>    4.2515    1.0000 </r>
       <r>    4.4988    1.0000 </r>
       <r>    4.7499    1.0000 </r>
       <r>    5.0975    1.0000 </r>
       <r>    5.3945    1.0000 </r>
       <r>    7.4684    0.0000 </r>
       <r>    7.7923    0.0000 </r>
       <r>    8.0800    0.0000 </r>
       <r>    8.3031    0.0000 </r>
       <r>    8.5169    0.0000 </r>
       <r>    8.6400    0.0000 </r>
       <r>    9.1202    0.0000 </r>
       <r>    9.8362    0.0000 </r>
       <r>    9.8700    0.0000 </r>
       <r>   10.3649    0.0000 </r>
       <r>   10.6813    0.0000 </r>
       <r>   10.8284    0.0000 </r>
       <r>   11.4165    0.0000 </r>
       <r>   11.6883    0.0000 </r>
       <r>   12.6003    0.0000 </r>
       <r>   13.1156    0.0000 </r>
       <r>   13.2947    0.0000 </r>
       <r>   13.8885    0.0000 </r>
       <r>   14.2006    0.0000 </r>
       <r>   14.2183    0.0000 </r>
       <r>   15.2502    0.0000 </r>
       <r>   15.6541    0.0000 </r>
       <r>   16.4097    0.0000 </r>
       <r>   16.5556    0.0000 </r>
      </set>
      <set comment="kpoint 29">
       <r>  -15.4079    1.0000 </r>
       <r>  -15.4042    1.0000 </r>
       <r>  -15.3958    1.0000 </r>
       <r>  -15.3950    1.0000 </r>
       <r>  -15.3915    1.0000 </r>
       <r>  -15.3904    1.0000 </r>
       <r>  -15.3896    1.0000 </r>
       <r>  -15.3880    1.0000 </r>
       <r>  -15.3804    1.0000 </r>
       <r>  -15.3795    1.0000 </r>
       <r>  -15.3698    1.0000 </r>
       <r>  -15.3664    1.0000 </r>
       <r>  -15.3624    1.0000 </r>
       <r>  -15.3605    1.0000 </r>
       <r>  -15.3421    1.0000 </r>
       <r>  -15.3399    1.0000 </r>
       <r>  -15.3316    1.0000 </r>
       <r>  -15.3304    1.0000 </r>
       <r>  -15.3106    1.0000 </r>
       <r>  -15.3088    1.0000 </r>
       <r>   -7.5377    1.0000 </r>
       <r>   -7.3877    1.0000 </r>
       <r>   -6.9248    1.0000 </r>
       <r>   -6.7562    1.0000 </r>
       <r>   -2.4433    1.0000 </r>
       <r>   -2.1141    1.0000 </r>
       <r>   -1.0313    1.0000 </r>
       <r>   -0.7672    1.0000 </r>
       <r>    1.8765    1.0000 </r>
       <r>    2.8095    1.0000 </r>
       <r>    3.2842    1.0000 </r>
       <r>    3.3002    1.0000 </r>
       <r>    3.4974    1.0000 </r>
       <r>    3.9511    1.0000 </r>
       <r>    4.0756    1.0000 </r>
       <r>    4.2822    1.0000 </r>
       <r>    4.8152    1.0000 </r>
       <r>    4.9840    1.0000 </r>
       <r>    5.6235    1.0000 </r>
       <r>    5.8271    1.0000 </r>
       <r>    6.8890    0.0000 </r>
       <r>    7.3008    0.0000 </r>
       <r>    7.3921    0.0000 </r>
       <r>    7.7231    0.0000 </r>
       <r>    7.7642    0.0000 </r>
       <r>    8.1468    0.0000 </r>
       <r>    8.6029    0.0000 </r>
       <r>    9.0630    0.0000 </r>
       <r>    9.4130    0.0000 </r>
       <r>    9.4475    0.0000 </r>
       <r>   10.9306    0.0000 </r>
       <r>   11.1918    0.0000 </r>
       <r>   12.5591    0.0000 </r>
       <r>   12.8018    0.0000 </r>
       <r>   13.1953    0.0000 </r>
       <r>   13.5627    0.0000 </r>
       <r>   13.8600    0.0000 </r>
       <r>   14.3160    0.0000 </r>
       <r>   14.5763    0.0000 </r>
       <r>   14.5920    0.0000 </r>
       <r>   15.3816    0.0000 </r>
       <r>   15.5710    0.0000 </r>
       <r>   15.5854    0.0000 </r>
       <r>   16.3882    0.0000 </r>
      </set>
      <set comment="kpoint 30">
       <r>  -15.4052    1.0000 </r>
       <r>  -15.4052    1.0000 </r>
       <r>  -15.3964    1.0000 </r>
       <r>  -15.3964    1.0000 </r>
       <r>  -15.3906    1.0000 </r>
       <r>  -15.3906    1.0000 </r>
       <r>  -15.3894    1.0000 </r>
       <r>  -15.3894    1.0000 </r>
       <r>  -15.3800    1.0000 </r>
       <r>  -15.3800    1.0000 </r>
       <r>  -15.3667    1.0000 </r>
       <r>  -15.3667    1.0000 </r>
       <r>  -15.3610    1.0000 </r>
       <r>  -15.3610    1.0000 </r>
       <r>  -15.3408    1.0000 </r>
       <r>  -15.3408    1.0000 </r>
       <r>  -15.3311    1.0000 </r>
       <r>  -15.3311    1.0000 </r>
       <r>  -15.3097    1.0000 </r>
       <r>  -15.3097    1.0000 </r>
       <r>   -7.2861    1.0000 </r>
       <r>   -7.2861    1.0000 </r>
       <r>   -6.9342    1.0000 </r>
       <r>   -6.9342    1.0000 </r>
       <r>   -2.4393    1.0000 </r>
       <r>   -2.4393    1.0000 </r>
       <r>   -1.1180    1.0000 </r>
       <r>   -1.1180    1.0000 </r>
       <r>    2.4443    1.0000 </r>
       <r>    2.4443    1.0000 </r>
       <r>    3.5862    1.0000 </r>
       <r>    3.5862    1.0000 </r>
       <r>    3.7026    1.0000 </r>
       <r>    3.7026    1.0000 </r>
       <r>    4.1015    1.0000 </r>
       <r>    4.1015    1.0000 </r>
       <r>    5.3448    1.0000 </r>
       <r>    5.3448    1.0000 </r>
       <r>    5.7134    1.0000 </r>
       <r>    5.7134    1.0000 </r>
       <r>    6.9196    0.0000 </r>
       <r>    6.9196    0.0000 </r>
       <r>    7.2920    0.0000 </r>
       <r>    7.2920    0.0000 </r>
       <r>    7.5973    0.0000 </r>
       <r>    7.5973    0.0000 </r>
       <r>    8.8586    0.0000 </r>
       <r>    8.8586    0.0000 </r>
       <r>    8.8859    0.0000 </r>
       <r>    8.8859    0.0000 </r>
       <r>   11.2089    0.0000 </r>
       <r>   11.2089    0.0000 </r>
       <r>   13.4969    0.0000 </r>
       <r>   13.4969    0.0000 </r>
       <r>   14.1196    0.0000 </r>
       <r>   14.1196    0.0000 </r>
       <r>   14.2087    0.0000 </r>
       <r>   14.2087    0.0000 </r>
       <r>   14.5179    0.0000 </r>
       <r>   14.5179    0.0000 </r>
       <r>   15.7728    0.0000 </r>
       <r>   15.7728    0.0000 </r>
       <r>   15.7985    0.0000 </r>
       <r>   15.7985    0.0000 </r>
      </set>
      <set comment="kpoint 31">
       <r>  -15.4116    1.0000 </r>
       <r>  -15.4034    1.0000 </r>
       <r>  -15.3955    1.0000 </r>
       <r>  -15.3927    1.0000 </r>
       <r>  -15.3916    1.0000 </r>
       <r>  -15.3901    1.0000 </r>
       <r>  -15.3896    1.0000 </r>
       <r>  -15.3860    1.0000 </r>
       <r>  -15.3816    1.0000 </r>
       <r>  -15.3797    1.0000 </r>
       <r>  -15.3760    1.0000 </r>
       <r>  -15.3734    1.0000 </r>
       <r>  -15.3630    1.0000 </r>
       <r>  -15.3617    1.0000 </r>
       <r>  -15.3417    1.0000 </r>
       <r>  -15.3383    1.0000 </r>
       <r>  -15.3318    1.0000 </r>
       <r>  -15.3294    1.0000 </r>
       <r>  -15.3127    1.0000 </r>
       <r>  -15.3086    1.0000 </r>
       <r>   -8.0338    1.0000 </r>
       <r>   -7.8472    1.0000 </r>
       <r>   -6.8806    1.0000 </r>
       <r>   -6.6106    1.0000 </r>
       <r>   -1.4270    1.0000 </r>
       <r>   -0.9995    1.0000 </r>
       <r>    0.4415    1.0000 </r>
       <r>    0.4452    1.0000 </r>
       <r>    1.2323    1.0000 </r>
       <r>    2.1130    1.0000 </r>
       <r>    2.3364    1.0000 </r>
       <r>    2.6598    1.0000 </r>
       <r>    2.8609    1.0000 </r>
       <r>    3.1444    1.0000 </r>
       <r>    3.6630    1.0000 </r>
       <r>    3.7631    1.0000 </r>
       <r>    4.0691    1.0000 </r>
       <r>    4.1058    1.0000 </r>
       <r>    5.2625    1.0000 </r>
       <r>    5.2968    1.0000 </r>
       <r>    7.7318    0.0000 </r>
       <r>    8.4579    0.0000 </r>
       <r>    8.6667    0.0000 </r>
       <r>    8.9416    0.0000 </r>
       <r>    9.0682    0.0000 </r>
       <r>    9.4323    0.0000 </r>
       <r>    9.4326    0.0000 </r>
       <r>    9.9519    0.0000 </r>
       <r>   10.5575    0.0000 </r>
       <r>   11.0273    0.0000 </r>
       <r>   11.0343    0.0000 </r>
       <r>   11.2986    0.0000 </r>
       <r>   11.4882    0.0000 </r>
       <r>   11.6191    0.0000 </r>
       <r>   11.8355    0.0000 </r>
       <r>   12.2236    0.0000 </r>
       <r>   12.5736    0.0000 </r>
       <r>   13.5803    0.0000 </r>
       <r>   13.8570    0.0000 </r>
       <r>   14.3840    0.0000 </r>
       <r>   15.2788    0.0000 </r>
       <r>   15.3007    0.0000 </r>
       <r>   15.3345    0.0000 </r>
       <r>   15.4521    0.0000 </r>
      </set>
      <set comment="kpoint 32">
       <r>  -15.4115    1.0000 </r>
       <r>  -15.4035    1.0000 </r>
       <r>  -15.3953    1.0000 </r>
       <r>  -15.3933    1.0000 </r>
       <r>  -15.3912    1.0000 </r>
       <r>  -15.3901    1.0000 </r>
       <r>  -15.3893    1.0000 </r>
       <r>  -15.3863    1.0000 </r>
       <r>  -15.3815    1.0000 </r>
       <r>  -15.3798    1.0000 </r>
       <r>  -15.3758    1.0000 </r>
       <r>  -15.3735    1.0000 </r>
       <r>  -15.3630    1.0000 </r>
       <r>  -15.3617    1.0000 </r>
       <r>  -15.3417    1.0000 </r>
       <r>  -15.3383    1.0000 </r>
       <r>  -15.3318    1.0000 </r>
       <r>  -15.3294    1.0000 </r>
       <r>  -15.3127    1.0000 </r>
       <r>  -15.3086    1.0000 </r>
       <r>   -8.0339    1.0000 </r>
       <r>   -7.8472    1.0000 </r>
       <r>   -6.8806    1.0000 </r>
       <r>   -6.6106    1.0000 </r>
       <r>   -1.4286    1.0000 </r>
       <r>   -0.9968    1.0000 </r>
       <r>    0.4347    1.0000 </r>
       <r>    0.4492    1.0000 </r>
       <r>    1.2341    1.0000 </r>
       <r>    2.1111    1.0000 </r>
       <r>    2.3369    1.0000 </r>
       <r>    2.6586    1.0000 </r>
       <r>    2.8592    1.0000 </r>
       <r>    3.1508    1.0000 </r>
       <r>    3.6648    1.0000 </r>
       <r>    3.7641    1.0000 </r>
       <r>    4.0591    1.0000 </r>
       <r>    4.1089    1.0000 </r>
       <r>    5.2614    1.0000 </r>
       <r>    5.3014    1.0000 </r>
       <r>    7.7330    0.0000 </r>
       <r>    8.4288    0.0000 </r>
       <r>    8.6768    0.0000 </r>
       <r>    8.9303    0.0000 </r>
       <r>    9.1182    0.0000 </r>
       <r>    9.4132    0.0000 </r>
       <r>    9.4242    0.0000 </r>
       <r>    9.9673    0.0000 </r>
       <r>   10.5400    0.0000 </r>
       <r>   11.0203    0.0000 </r>
       <r>   11.0362    0.0000 </r>
       <r>   11.3122    0.0000 </r>
       <r>   11.5038    0.0000 </r>
       <r>   11.6172    0.0000 </r>
       <r>   11.8138    0.0000 </r>
       <r>   12.2302    0.0000 </r>
       <r>   12.5752    0.0000 </r>
       <r>   13.5783    0.0000 </r>
       <r>   13.8675    0.0000 </r>
       <r>   14.3730    0.0000 </r>
       <r>   15.2785    0.0000 </r>
       <r>   15.2951    0.0000 </r>
       <r>   15.3436    0.0000 </r>
       <r>   15.4495    0.0000 </r>
      </set>
      <set comment="kpoint 33">
       <r>  -15.4108    1.0000 </r>
       <r>  -15.4031    1.0000 </r>
       <r>  -15.3944    1.0000 </r>
       <r>  -15.3928    1.0000 </r>
       <r>  -15.3917    1.0000 </r>
       <r>  -15.3910    1.0000 </r>
       <r>  -15.3899    1.0000 </r>
       <r>  -15.3864    1.0000 </r>
       <r>  -15.3820    1.0000 </r>
       <r>  -15.3803    1.0000 </r>
       <r>  -15.3747    1.0000 </r>
       <r>  -15.3719    1.0000 </r>
       <r>  -15.3626    1.0000 </r>
       <r>  -15.3615    1.0000 </r>
       <r>  -15.3418    1.0000 </r>
       <r>  -15.3382    1.0000 </r>
       <r>  -15.3321    1.0000 </r>
       <r>  -15.3298    1.0000 </r>
       <r>  -15.3125    1.0000 </r>
       <r>  -15.3087    1.0000 </r>
       <r>   -7.9620    1.0000 </r>
       <r>   -7.7792    1.0000 </r>
       <r>   -6.8651    1.0000 </r>
       <r>   -6.6100    1.0000 </r>
       <r>   -1.6273    1.0000 </r>
       <r>   -1.1550    1.0000 </r>
       <r>    0.0991    1.0000 </r>
       <r>    0.2634    1.0000 </r>
       <r>    1.2994    1.0000 </r>
       <r>    2.0351    1.0000 </r>
       <r>    2.2503    1.0000 </r>
       <r>    2.5841    1.0000 </r>
       <r>    3.0805    1.0000 </r>
       <r>    3.4268    1.0000 </r>
       <r>    3.5933    1.0000 </r>
       <r>    3.7434    1.0000 </r>
       <r>    4.4872    1.0000 </r>
       <r>    4.7404    1.0000 </r>
       <r>    5.1623    1.0000 </r>
       <r>    5.3195    1.0000 </r>
       <r>    7.6547    0.0000 </r>
       <r>    7.9294    0.0000 </r>
       <r>    8.3045    0.0000 </r>
       <r>    8.7434    0.0000 </r>
       <r>    8.9209    0.0000 </r>
       <r>    9.2071    0.0000 </r>
       <r>    9.6379    0.0000 </r>
       <r>    9.9766    0.0000 </r>
       <r>   10.3023    0.0000 </r>
       <r>   10.4982    0.0000 </r>
       <r>   10.8749    0.0000 </r>
       <r>   10.9922    0.0000 </r>
       <r>   11.7653    0.0000 </r>
       <r>   12.0130    0.0000 </r>
       <r>   12.1233    0.0000 </r>
       <r>   12.5191    0.0000 </r>
       <r>   12.9680    0.0000 </r>
       <r>   13.7351    0.0000 </r>
       <r>   14.0752    0.0000 </r>
       <r>   14.6238    0.0000 </r>
       <r>   14.8172    0.0000 </r>
       <r>   15.2155    0.0000 </r>
       <r>   15.5492    0.0000 </r>
       <r>   15.7661    0.0000 </r>
      </set>
      <set comment="kpoint 34">
       <r>  -15.4107    1.0000 </r>
       <r>  -15.4032    1.0000 </r>
       <r>  -15.3942    1.0000 </r>
       <r>  -15.3926    1.0000 </r>
       <r>  -15.3923    1.0000 </r>
       <r>  -15.3911    1.0000 </r>
       <r>  -15.3893    1.0000 </r>
       <r>  -15.3867    1.0000 </r>
       <r>  -15.3818    1.0000 </r>
       <r>  -15.3804    1.0000 </r>
       <r>  -15.3747    1.0000 </r>
       <r>  -15.3720    1.0000 </r>
       <r>  -15.3627    1.0000 </r>
       <r>  -15.3614    1.0000 </r>
       <r>  -15.3418    1.0000 </r>
       <r>  -15.3382    1.0000 </r>
       <r>  -15.3321    1.0000 </r>
       <r>  -15.3298    1.0000 </r>
       <r>  -15.3125    1.0000 </r>
       <r>  -15.3087    1.0000 </r>
       <r>   -7.9620    1.0000 </r>
       <r>   -7.7791    1.0000 </r>
       <r>   -6.8651    1.0000 </r>
       <r>   -6.6100    1.0000 </r>
       <r>   -1.6286    1.0000 </r>
       <r>   -1.1525    1.0000 </r>
       <r>    0.0950    1.0000 </r>
       <r>    0.2659    1.0000 </r>
       <r>    1.2992    1.0000 </r>
       <r>    2.0362    1.0000 </r>
       <r>    2.2523    1.0000 </r>
       <r>    2.5806    1.0000 </r>
       <r>    3.0804    1.0000 </r>
       <r>    3.4271    1.0000 </r>
       <r>    3.5875    1.0000 </r>
       <r>    3.7504    1.0000 </r>
       <r>    4.4910    1.0000 </r>
       <r>    4.7345    1.0000 </r>
       <r>    5.1633    1.0000 </r>
       <r>    5.3217    1.0000 </r>
       <r>    7.6611    0.0000 </r>
       <r>    7.9146    0.0000 </r>
       <r>    8.3107    0.0000 </r>
       <r>    8.7535    0.0000 </r>
       <r>    8.9041    0.0000 </r>
       <r>    9.1962    0.0000 </r>
       <r>    9.6615    0.0000 </r>
       <r>    9.9708    0.0000 </r>
       <r>   10.3203    0.0000 </r>
       <r>   10.4791    0.0000 </r>
       <r>   10.8832    0.0000 </r>
       <r>   10.9869    0.0000 </r>
       <r>   11.7514    0.0000 </r>
       <r>   12.0178    0.0000 </r>
       <r>   12.1404    0.0000 </r>
       <r>   12.5131    0.0000 </r>
       <r>   12.9661    0.0000 </r>
       <r>   13.7348    0.0000 </r>
       <r>   14.0787    0.0000 </r>
       <r>   14.6168    0.0000 </r>
       <r>   14.8212    0.0000 </r>
       <r>   15.2120    0.0000 </r>
       <r>   15.5446    0.0000 </r>
       <r>   15.7706    0.0000 </r>
      </set>
      <set comment="kpoint 35">
       <r>  -15.4087    1.0000 </r>
       <r>  -15.4024    1.0000 </r>
       <r>  -15.3958    1.0000 </r>
       <r>  -15.3946    1.0000 </r>
       <r>  -15.3912    1.0000 </r>
       <r>  -15.3903    1.0000 </r>
       <r>  -15.3898    1.0000 </r>
       <r>  -15.3872    1.0000 </r>
       <r>  -15.3827    1.0000 </r>
       <r>  -15.3813    1.0000 </r>
       <r>  -15.3720    1.0000 </r>
       <r>  -15.3683    1.0000 </r>
       <r>  -15.3620    1.0000 </r>
       <r>  -15.3602    1.0000 </r>
       <r>  -15.3416    1.0000 </r>
       <r>  -15.3382    1.0000 </r>
       <r>  -15.3326    1.0000 </r>
       <r>  -15.3306    1.0000 </r>
       <r>  -15.3120    1.0000 </r>
       <r>  -15.3091    1.0000 </r>
       <r>   -7.7605    1.0000 </r>
       <r>   -7.5895    1.0000 </r>
       <r>   -6.8471    1.0000 </r>
       <r>   -6.6323    1.0000 </r>
       <r>   -2.0495    1.0000 </r>
       <r>   -1.5693    1.0000 </r>
       <r>   -0.5128    1.0000 </r>
       <r>   -0.2113    1.0000 </r>
       <r>    1.5039    1.0000 </r>
       <r>    2.0508    1.0000 </r>
       <r>    2.2710    1.0000 </r>
       <r>    2.9146    1.0000 </r>
       <r>    3.0863    1.0000 </r>
       <r>    3.4446    1.0000 </r>
       <r>    4.0452    1.0000 </r>
       <r>    4.2181    1.0000 </r>
       <r>    4.9330    1.0000 </r>
       <r>    5.0718    1.0000 </r>
       <r>    5.1709    1.0000 </r>
       <r>    5.3841    1.0000 </r>
       <r>    7.2698    0.0000 </r>
       <r>    7.4251    0.0000 </r>
       <r>    7.8578    0.0000 </r>
       <r>    8.0347    0.0000 </r>
       <r>    8.6654    0.0000 </r>
       <r>    9.0126    0.0000 </r>
       <r>    9.3472    0.0000 </r>
       <r>    9.5172    0.0000 </r>
       <r>   10.1588    0.0000 </r>
       <r>   10.3081    0.0000 </r>
       <r>   10.8492    0.0000 </r>
       <r>   10.9333    0.0000 </r>
       <r>   12.0098    0.0000 </r>
       <r>   12.0974    0.0000 </r>
       <r>   12.8969    0.0000 </r>
       <r>   12.9860    0.0000 </r>
       <r>   13.4058    0.0000 </r>
       <r>   13.8815    0.0000 </r>
       <r>   14.1722    0.0000 </r>
       <r>   14.7426    0.0000 </r>
       <r>   14.9070    0.0000 </r>
       <r>   15.5243    0.0000 </r>
       <r>   15.8933    0.0000 </r>
       <r>   16.2331    0.0000 </r>
      </set>
      <set comment="kpoint 36">
       <r>  -15.4086    1.0000 </r>
       <r>  -15.4025    1.0000 </r>
       <r>  -15.3956    1.0000 </r>
       <r>  -15.3947    1.0000 </r>
       <r>  -15.3913    1.0000 </r>
       <r>  -15.3904    1.0000 </r>
       <r>  -15.3896    1.0000 </r>
       <r>  -15.3873    1.0000 </r>
       <r>  -15.3825    1.0000 </r>
       <r>  -15.3813    1.0000 </r>
       <r>  -15.3720    1.0000 </r>
       <r>  -15.3684    1.0000 </r>
       <r>  -15.3620    1.0000 </r>
       <r>  -15.3601    1.0000 </r>
       <r>  -15.3416    1.0000 </r>
       <r>  -15.3382    1.0000 </r>
       <r>  -15.3326    1.0000 </r>
       <r>  -15.3306    1.0000 </r>
       <r>  -15.3120    1.0000 </r>
       <r>  -15.3091    1.0000 </r>
       <r>   -7.7605    1.0000 </r>
       <r>   -7.5894    1.0000 </r>
       <r>   -6.8472    1.0000 </r>
       <r>   -6.6323    1.0000 </r>
       <r>   -2.0502    1.0000 </r>
       <r>   -1.5678    1.0000 </r>
       <r>   -0.5153    1.0000 </r>
       <r>   -0.2093    1.0000 </r>
       <r>    1.5027    1.0000 </r>
       <r>    2.0507    1.0000 </r>
       <r>    2.2737    1.0000 </r>
       <r>    2.9132    1.0000 </r>
       <r>    3.0805    1.0000 </r>
       <r>    3.4479    1.0000 </r>
       <r>    4.0556    1.0000 </r>
       <r>    4.2076    1.0000 </r>
       <r>    4.9397    1.0000 </r>
       <r>    5.0659    1.0000 </r>
       <r>    5.1817    1.0000 </r>
       <r>    5.3758    1.0000 </r>
       <r>    7.2660    0.0000 </r>
       <r>    7.4338    0.0000 </r>
       <r>    7.8553    0.0000 </r>
       <r>    8.0290    0.0000 </r>
       <r>    8.6660    0.0000 </r>
       <r>    9.0155    0.0000 </r>
       <r>    9.3426    0.0000 </r>
       <r>    9.5133    0.0000 </r>
       <r>   10.1607    0.0000 </r>
       <r>   10.3100    0.0000 </r>
       <r>   10.8428    0.0000 </r>
       <r>   10.9444    0.0000 </r>
       <r>   12.0091    0.0000 </r>
       <r>   12.0997    0.0000 </r>
       <r>   12.8990    0.0000 </r>
       <r>   12.9873    0.0000 </r>
       <r>   13.4052    0.0000 </r>
       <r>   13.8787    0.0000 </r>
       <r>   14.1730    0.0000 </r>
       <r>   14.7458    0.0000 </r>
       <r>   14.9071    0.0000 </r>
       <r>   15.5189    0.0000 </r>
       <r>   15.8913    0.0000 </r>
       <r>   16.2272    0.0000 </r>
      </set>
      <set comment="kpoint 37">
       <r>  -15.4061    1.0000 </r>
       <r>  -15.4020    1.0000 </r>
       <r>  -15.3988    1.0000 </r>
       <r>  -15.3974    1.0000 </r>
       <r>  -15.3911    1.0000 </r>
       <r>  -15.3909    1.0000 </r>
       <r>  -15.3883    1.0000 </r>
       <r>  -15.3870    1.0000 </r>
       <r>  -15.3830    1.0000 </r>
       <r>  -15.3821    1.0000 </r>
       <r>  -15.3687    1.0000 </r>
       <r>  -15.3658    1.0000 </r>
       <r>  -15.3607    1.0000 </r>
       <r>  -15.3589    1.0000 </r>
       <r>  -15.3406    1.0000 </r>
       <r>  -15.3385    1.0000 </r>
       <r>  -15.3326    1.0000 </r>
       <r>  -15.3315    1.0000 </r>
       <r>  -15.3112    1.0000 </r>
       <r>  -15.3097    1.0000 </r>
       <r>   -7.4779    1.0000 </r>
       <r>   -7.3331    1.0000 </r>
       <r>   -6.8895    1.0000 </r>
       <r>   -6.7299    1.0000 </r>
       <r>   -2.3585    1.0000 </r>
       <r>   -2.0355    1.0000 </r>
       <r>   -0.9730    1.0000 </r>
       <r>   -0.7341    1.0000 </r>
       <r>    1.8747    1.0000 </r>
       <r>    2.3430    1.0000 </r>
       <r>    2.6198    1.0000 </r>
       <r>    3.0268    1.0000 </r>
       <r>    3.3326    1.0000 </r>
       <r>    3.4503    1.0000 </r>
       <r>    3.8539    1.0000 </r>
       <r>    4.3360    1.0000 </r>
       <r>    4.9504    1.0000 </r>
       <r>    5.1359    1.0000 </r>
       <r>    5.2939    1.0000 </r>
       <r>    5.3910    1.0000 </r>
       <r>    7.0773    0.0000 </r>
       <r>    7.3533    0.0000 </r>
       <r>    7.5802    0.0000 </r>
       <r>    7.9278    0.0000 </r>
       <r>    8.2242    0.0000 </r>
       <r>    8.6573    0.0000 </r>
       <r>    8.7343    0.0000 </r>
       <r>    9.0404    0.0000 </r>
       <r>   10.0422    0.0000 </r>
       <r>   10.1861    0.0000 </r>
       <r>   10.8188    0.0000 </r>
       <r>   11.0779    0.0000 </r>
       <r>   12.5982    0.0000 </r>
       <r>   12.8832    0.0000 </r>
       <r>   13.1286    0.0000 </r>
       <r>   13.3908    0.0000 </r>
       <r>   13.9328    0.0000 </r>
       <r>   14.2772    0.0000 </r>
       <r>   14.4538    0.0000 </r>
       <r>   14.6422    0.0000 </r>
       <r>   15.3043    0.0000 </r>
       <r>   15.6897    0.0000 </r>
       <r>   15.9485    0.0000 </r>
       <r>   16.6514    0.0000 </r>
      </set>
      <set comment="kpoint 38">
       <r>  -15.4060    1.0000 </r>
       <r>  -15.4021    1.0000 </r>
       <r>  -15.3988    1.0000 </r>
       <r>  -15.3976    1.0000 </r>
       <r>  -15.3912    1.0000 </r>
       <r>  -15.3908    1.0000 </r>
       <r>  -15.3885    1.0000 </r>
       <r>  -15.3870    1.0000 </r>
       <r>  -15.3827    1.0000 </r>
       <r>  -15.3821    1.0000 </r>
       <r>  -15.3687    1.0000 </r>
       <r>  -15.3659    1.0000 </r>
       <r>  -15.3607    1.0000 </r>
       <r>  -15.3589    1.0000 </r>
       <r>  -15.3406    1.0000 </r>
       <r>  -15.3385    1.0000 </r>
       <r>  -15.3326    1.0000 </r>
       <r>  -15.3315    1.0000 </r>
       <r>  -15.3112    1.0000 </r>
       <r>  -15.3097    1.0000 </r>
       <r>   -7.4779    1.0000 </r>
       <r>   -7.3330    1.0000 </r>
       <r>   -6.8896    1.0000 </r>
       <r>   -6.7299    1.0000 </r>
       <r>   -2.3589    1.0000 </r>
       <r>   -2.0350    1.0000 </r>
       <r>   -0.9738    1.0000 </r>
       <r>   -0.7330    1.0000 </r>
       <r>    1.8734    1.0000 </r>
       <r>    2.3424    1.0000 </r>
       <r>    2.6230    1.0000 </r>
       <r>    3.0206    1.0000 </r>
       <r>    3.3355    1.0000 </r>
       <r>    3.4495    1.0000 </r>
       <r>    3.8605    1.0000 </r>
       <r>    4.3283    1.0000 </r>
       <r>    4.9531    1.0000 </r>
       <r>    5.1447    1.0000 </r>
       <r>    5.2920    1.0000 </r>
       <r>    5.3846    1.0000 </r>
       <r>    7.0964    0.0000 </r>
       <r>    7.3322    0.0000 </r>
       <r>    7.5804    0.0000 </r>
       <r>    7.9358    0.0000 </r>
       <r>    8.2275    0.0000 </r>
       <r>    8.6449    0.0000 </r>
       <r>    8.7343    0.0000 </r>
       <r>    9.0327    0.0000 </r>
       <r>   10.0349    0.0000 </r>
       <r>   10.1994    0.0000 </r>
       <r>   10.8176    0.0000 </r>
       <r>   11.0874    0.0000 </r>
       <r>   12.6014    0.0000 </r>
       <r>   12.8871    0.0000 </r>
       <r>   13.1268    0.0000 </r>
       <r>   13.3935    0.0000 </r>
       <r>   13.9266    0.0000 </r>
       <r>   14.2739    0.0000 </r>
       <r>   14.4497    0.0000 </r>
       <r>   14.6424    0.0000 </r>
       <r>   15.3135    0.0000 </r>
       <r>   15.6849    0.0000 </r>
       <r>   15.9453    0.0000 </r>
       <r>   16.6446    0.0000 </r>
      </set>
      <set comment="kpoint 39">
       <r>  -15.4036    1.0000 </r>
       <r>  -15.4036    1.0000 </r>
       <r>  -15.3992    1.0000 </r>
       <r>  -15.3992    1.0000 </r>
       <r>  -15.3915    1.0000 </r>
       <r>  -15.3915    1.0000 </r>
       <r>  -15.3872    1.0000 </r>
       <r>  -15.3872    1.0000 </r>
       <r>  -15.3827    1.0000 </r>
       <r>  -15.3827    1.0000 </r>
       <r>  -15.3662    1.0000 </r>
       <r>  -15.3662    1.0000 </r>
       <r>  -15.3592    1.0000 </r>
       <r>  -15.3592    1.0000 </r>
       <r>  -15.3393    1.0000 </r>
       <r>  -15.3393    1.0000 </r>
       <r>  -15.3321    1.0000 </r>
       <r>  -15.3321    1.0000 </r>
       <r>  -15.3104    1.0000 </r>
       <r>  -15.3104    1.0000 </r>
       <r>   -7.2341    1.0000 </r>
       <r>   -7.2341    1.0000 </r>
       <r>   -6.8975    1.0000 </r>
       <r>   -6.8975    1.0000 </r>
       <r>   -2.3484    1.0000 </r>
       <r>   -2.3484    1.0000 </r>
       <r>   -1.0468    1.0000 </r>
       <r>   -1.0468    1.0000 </r>
       <r>    2.3445    1.0000 </r>
       <r>    2.3445    1.0000 </r>
       <r>    2.9746    1.0000 </r>
       <r>    2.9746    1.0000 </r>
       <r>    3.3223    1.0000 </r>
       <r>    3.3223    1.0000 </r>
       <r>    3.9647    1.0000 </r>
       <r>    3.9647    1.0000 </r>
       <r>    5.0224    1.0000 </r>
       <r>    5.0224    1.0000 </r>
       <r>    5.3777    1.0000 </r>
       <r>    5.3777    1.0000 </r>
       <r>    7.2351    0.0000 </r>
       <r>    7.2351    0.0000 </r>
       <r>    7.6548    0.0000 </r>
       <r>    7.6548    0.0000 </r>
       <r>    8.2392    0.0000 </r>
       <r>    8.2392    0.0000 </r>
       <r>    8.9087    0.0000 </r>
       <r>    8.9087    0.0000 </r>
       <r>    9.7792    0.0000 </r>
       <r>    9.7792    0.0000 </r>
       <r>   11.0575    0.0000 </r>
       <r>   11.0575    0.0000 </r>
       <r>   12.8140    0.0000 </r>
       <r>   12.8140    0.0000 </r>
       <r>   13.9297    0.0000 </r>
       <r>   13.9297    0.0000 </r>
       <r>   14.3145    0.0000 </r>
       <r>   14.3145    0.0000 </r>
       <r>   15.2144    0.0000 </r>
       <r>   15.2144    0.0000 </r>
       <r>   15.7519    0.0000 </r>
       <r>   15.7519    0.0000 </r>
       <r>   15.9351    0.0000 </r>
       <r>   15.9351    0.0000 </r>
      </set>
      <set comment="kpoint 40">
       <r>  -15.4034    1.0000 </r>
       <r>  -15.4034    1.0000 </r>
       <r>  -15.3994    1.0000 </r>
       <r>  -15.3994    1.0000 </r>
       <r>  -15.3914    1.0000 </r>
       <r>  -15.3914    1.0000 </r>
       <r>  -15.3873    1.0000 </r>
       <r>  -15.3873    1.0000 </r>
       <r>  -15.3825    1.0000 </r>
       <r>  -15.3825    1.0000 </r>
       <r>  -15.3663    1.0000 </r>
       <r>  -15.3663    1.0000 </r>
       <r>  -15.3591    1.0000 </r>
       <r>  -15.3591    1.0000 </r>
       <r>  -15.3393    1.0000 </r>
       <r>  -15.3393    1.0000 </r>
       <r>  -15.3322    1.0000 </r>
       <r>  -15.3322    1.0000 </r>
       <r>  -15.3104    1.0000 </r>
       <r>  -15.3104    1.0000 </r>
       <r>   -7.2341    1.0000 </r>
       <r>   -7.2341    1.0000 </r>
       <r>   -6.8975    1.0000 </r>
       <r>   -6.8975    1.0000 </r>
       <r>   -2.3485    1.0000 </r>
       <r>   -2.3485    1.0000 </r>
       <r>   -1.0465    1.0000 </r>
       <r>   -1.0465    1.0000 </r>
       <r>    2.3427    1.0000 </r>
       <r>    2.3427    1.0000 </r>
       <r>    2.9747    1.0000 </r>
       <r>    2.9747    1.0000 </r>
       <r>    3.3262    1.0000 </r>
       <r>    3.3262    1.0000 </r>
       <r>    3.9611    1.0000 </r>
       <r>    3.9611    1.0000 </r>
       <r>    5.0222    1.0000 </r>
       <r>    5.0222    1.0000 </r>
       <r>    5.3796    1.0000 </r>
       <r>    5.3796    1.0000 </r>
       <r>    7.2432    0.0000 </r>
       <r>    7.2432    0.0000 </r>
       <r>    7.6470    0.0000 </r>
       <r>    7.6470    0.0000 </r>
       <r>    8.2398    0.0000 </r>
       <r>    8.2398    0.0000 </r>
       <r>    8.8987    0.0000 </r>
       <r>    8.8987    0.0000 </r>
       <r>    9.7844    0.0000 </r>
       <r>    9.7844    0.0000 </r>
       <r>   11.0628    0.0000 </r>
       <r>   11.0628    0.0000 </r>
       <r>   12.8194    0.0000 </r>
       <r>   12.8194    0.0000 </r>
       <r>   13.9260    0.0000 </r>
       <r>   13.9260    0.0000 </r>
       <r>   14.3102    0.0000 </r>
       <r>   14.3102    0.0000 </r>
       <r>   15.2146    0.0000 </r>
       <r>   15.2146    0.0000 </r>
       <r>   15.7428    0.0000 </r>
       <r>   15.7428    0.0000 </r>
       <r>   15.9355    0.0000 </r>
       <r>   15.9355    0.0000 </r>
      </set>
      <set comment="kpoint 41">
       <r>  -15.4035    1.0000 </r>
       <r>  -15.3997    1.0000 </r>
       <r>  -15.3937    1.0000 </r>
       <r>  -15.3932    1.0000 </r>
       <r>  -15.3915    1.0000 </r>
       <r>  -15.3904    1.0000 </r>
       <r>  -15.3895    1.0000 </r>
       <r>  -15.3893    1.0000 </r>
       <r>  -15.3856    1.0000 </r>
       <r>  -15.3846    1.0000 </r>
       <r>  -15.3727    1.0000 </r>
       <r>  -15.3695    1.0000 </r>
       <r>  -15.3609    1.0000 </r>
       <r>  -15.3597    1.0000 </r>
       <r>  -15.3384    1.0000 </r>
       <r>  -15.3378    1.0000 </r>
       <r>  -15.3329    1.0000 </r>
       <r>  -15.3316    1.0000 </r>
       <r>  -15.3144    1.0000 </r>
       <r>  -15.3118    1.0000 </r>
       <r>   -7.8318    1.0000 </r>
       <r>   -7.6616    1.0000 </r>
       <r>   -6.8182    1.0000 </r>
       <r>   -6.6032    1.0000 </r>
       <r>   -1.7210    1.0000 </r>
       <r>   -1.3365    1.0000 </r>
       <r>   -0.3495    1.0000 </r>
       <r>   -0.1730    1.0000 </r>
       <r>    1.3738    1.0000 </r>
       <r>    2.3110    1.0000 </r>
       <r>    2.5040    1.0000 </r>
       <r>    2.7808    1.0000 </r>
       <r>    3.2005    1.0000 </r>
       <r>    3.3828    1.0000 </r>
       <r>    3.8036    1.0000 </r>
       <r>    3.9041    1.0000 </r>
       <r>    4.1977    1.0000 </r>
       <r>    4.5074    1.0000 </r>
       <r>    5.2529    1.0000 </r>
       <r>    5.3990    1.0000 </r>
       <r>    7.3179    0.0000 </r>
       <r>    8.0089    0.0000 </r>
       <r>    8.0507    0.0000 </r>
       <r>    8.4890    0.0000 </r>
       <r>    8.6508    0.0000 </r>
       <r>    9.1756    0.0000 </r>
       <r>    9.2900    0.0000 </r>
       <r>    9.8793    0.0000 </r>
       <r>   10.0615    0.0000 </r>
       <r>   10.4584    0.0000 </r>
       <r>   10.5971    0.0000 </r>
       <r>   10.6463    0.0000 </r>
       <r>   11.2833    0.0000 </r>
       <r>   11.4544    0.0000 </r>
       <r>   12.3645    0.0000 </r>
       <r>   12.3811    0.0000 </r>
       <r>   12.8998    0.0000 </r>
       <r>   13.4723    0.0000 </r>
       <r>   14.5408    0.0000 </r>
       <r>   14.7418    0.0000 </r>
       <r>   15.8062    0.0000 </r>
       <r>   15.9451    0.0000 </r>
       <r>   16.0240    0.0000 </r>
       <r>   16.4077    0.0000 </r>
      </set>
      <set comment="kpoint 42">
       <r>  -15.4033    1.0000 </r>
       <r>  -15.4000    1.0000 </r>
       <r>  -15.3939    1.0000 </r>
       <r>  -15.3924    1.0000 </r>
       <r>  -15.3923    1.0000 </r>
       <r>  -15.3905    1.0000 </r>
       <r>  -15.3900    1.0000 </r>
       <r>  -15.3885    1.0000 </r>
       <r>  -15.3856    1.0000 </r>
       <r>  -15.3848    1.0000 </r>
       <r>  -15.3725    1.0000 </r>
       <r>  -15.3696    1.0000 </r>
       <r>  -15.3609    1.0000 </r>
       <r>  -15.3597    1.0000 </r>
       <r>  -15.3384    1.0000 </r>
       <r>  -15.3378    1.0000 </r>
       <r>  -15.3328    1.0000 </r>
       <r>  -15.3317    1.0000 </r>
       <r>  -15.3144    1.0000 </r>
       <r>  -15.3118    1.0000 </r>
       <r>   -7.8318    1.0000 </r>
       <r>   -7.6616    1.0000 </r>
       <r>   -6.8182    1.0000 </r>
       <r>   -6.6032    1.0000 </r>
       <r>   -1.7238    1.0000 </r>
       <r>   -1.3321    1.0000 </r>
       <r>   -0.3444    1.0000 </r>
       <r>   -0.1811    1.0000 </r>
       <r>    1.3754    1.0000 </r>
       <r>    2.3082    1.0000 </r>
       <r>    2.5041    1.0000 </r>
       <r>    2.7812    1.0000 </r>
       <r>    3.1983    1.0000 </r>
       <r>    3.3887    1.0000 </r>
       <r>    3.8037    1.0000 </r>
       <r>    3.9045    1.0000 </r>
       <r>    4.2020    1.0000 </r>
       <r>    4.4998    1.0000 </r>
       <r>    5.2595    1.0000 </r>
       <r>    5.3940    1.0000 </r>
       <r>    7.3213    0.0000 </r>
       <r>    8.0068    0.0000 </r>
       <r>    8.0409    0.0000 </r>
       <r>    8.4913    0.0000 </r>
       <r>    8.6466    0.0000 </r>
       <r>    9.1951    0.0000 </r>
       <r>    9.2733    0.0000 </r>
       <r>    9.8924    0.0000 </r>
       <r>   10.0570    0.0000 </r>
       <r>   10.4694    0.0000 </r>
       <r>   10.6045    0.0000 </r>
       <r>   10.6319    0.0000 </r>
       <r>   11.2835    0.0000 </r>
       <r>   11.4462    0.0000 </r>
       <r>   12.3706    0.0000 </r>
       <r>   12.3770    0.0000 </r>
       <r>   12.9070    0.0000 </r>
       <r>   13.4663    0.0000 </r>
       <r>   14.5280    0.0000 </r>
       <r>   14.7543    0.0000 </r>
       <r>   15.8065    0.0000 </r>
       <r>   15.9469    0.0000 </r>
       <r>   16.0183    0.0000 </r>
       <r>   16.4125    0.0000 </r>
      </set>
      <set comment="kpoint 43">
       <r>  -15.4043    1.0000 </r>
       <r>  -15.4002    1.0000 </r>
       <r>  -15.3954    1.0000 </r>
       <r>  -15.3927    1.0000 </r>
       <r>  -15.3922    1.0000 </r>
       <r>  -15.3901    1.0000 </r>
       <r>  -15.3896    1.0000 </r>
       <r>  -15.3880    1.0000 </r>
       <r>  -15.3862    1.0000 </r>
       <r>  -15.3843    1.0000 </r>
       <r>  -15.3719    1.0000 </r>
       <r>  -15.3684    1.0000 </r>
       <r>  -15.3609    1.0000 </r>
       <r>  -15.3588    1.0000 </r>
       <r>  -15.3385    1.0000 </r>
       <r>  -15.3374    1.0000 </r>
       <r>  -15.3331    1.0000 </r>
       <r>  -15.3322    1.0000 </r>
       <r>  -15.3142    1.0000 </r>
       <r>  -15.3118    1.0000 </r>
       <r>   -7.7632    1.0000 </r>
       <r>   -7.5971    1.0000 </r>
       <r>   -6.8012    1.0000 </r>
       <r>   -6.5976    1.0000 </r>
       <r>   -1.7778    1.0000 </r>
       <r>   -1.3509    1.0000 </r>
       <r>   -0.4118    1.0000 </r>
       <r>   -0.2832    1.0000 </r>
       <r>    1.4334    1.0000 </r>
       <r>    1.8192    1.0000 </r>
       <r>    2.1419    1.0000 </r>
       <r>    2.6493    1.0000 </r>
       <r>    3.0002    1.0000 </r>
       <r>    3.3784    1.0000 </r>
       <r>    3.9283    1.0000 </r>
       <r>    4.0133    1.0000 </r>
       <r>    4.7225    1.0000 </r>
       <r>    4.8846    1.0000 </r>
       <r>    5.2691    1.0000 </r>
       <r>    5.3767    1.0000 </r>
       <r>    7.1233    0.0000 </r>
       <r>    7.3802    0.0000 </r>
       <r>    8.0505    0.0000 </r>
       <r>    8.2650    0.0000 </r>
       <r>    8.7425    0.0000 </r>
       <r>    9.0529    0.0000 </r>
       <r>    9.4529    0.0000 </r>
       <r>    9.6342    0.0000 </r>
       <r>   10.0718    0.0000 </r>
       <r>   10.4161    0.0000 </r>
       <r>   10.7067    0.0000 </r>
       <r>   10.9814    0.0000 </r>
       <r>   11.8398    0.0000 </r>
       <r>   12.2734    0.0000 </r>
       <r>   12.7061    0.0000 </r>
       <r>   12.7103    0.0000 </r>
       <r>   13.1194    0.0000 </r>
       <r>   13.7712    0.0000 </r>
       <r>   14.3596    0.0000 </r>
       <r>   14.6420    0.0000 </r>
       <r>   15.1773    0.0000 </r>
       <r>   15.5762    0.0000 </r>
       <r>   15.7777    0.0000 </r>
       <r>   16.0066    0.0000 </r>
      </set>
      <set comment="kpoint 44">
       <r>  -15.4041    1.0000 </r>
       <r>  -15.4005    1.0000 </r>
       <r>  -15.3954    1.0000 </r>
       <r>  -15.3932    1.0000 </r>
       <r>  -15.3916    1.0000 </r>
       <r>  -15.3903    1.0000 </r>
       <r>  -15.3899    1.0000 </r>
       <r>  -15.3877    1.0000 </r>
       <r>  -15.3857    1.0000 </r>
       <r>  -15.3847    1.0000 </r>
       <r>  -15.3717    1.0000 </r>
       <r>  -15.3685    1.0000 </r>
       <r>  -15.3609    1.0000 </r>
       <r>  -15.3588    1.0000 </r>
       <r>  -15.3385    1.0000 </r>
       <r>  -15.3374    1.0000 </r>
       <r>  -15.3331    1.0000 </r>
       <r>  -15.3322    1.0000 </r>
       <r>  -15.3142    1.0000 </r>
       <r>  -15.3117    1.0000 </r>
       <r>   -7.7633    1.0000 </r>
       <r>   -7.5970    1.0000 </r>
       <r>   -6.8012    1.0000 </r>
       <r>   -6.5976    1.0000 </r>
       <r>   -1.7804    1.0000 </r>
       <r>   -1.3463    1.0000 </r>
       <r>   -0.4104    1.0000 </r>
       <r>   -0.2874    1.0000 </r>
       <r>    1.4340    1.0000 </r>
       <r>    1.8187    1.0000 </r>
       <r>    2.1426    1.0000 </r>
       <r>    2.6482    1.0000 </r>
       <r>    3.0018    1.0000 </r>
       <r>    3.3763    1.0000 </r>
       <r>    3.9233    1.0000 </r>
       <r>    4.0222    1.0000 </r>
       <r>    4.7217    1.0000 </r>
       <r>    4.8838    1.0000 </r>
       <r>    5.2736    1.0000 </r>
       <r>    5.3723    1.0000 </r>
       <r>    7.1269    0.0000 </r>
       <r>    7.3798    0.0000 </r>
       <r>    8.0486    0.0000 </r>
       <r>    8.2553    0.0000 </r>
       <r>    8.7463    0.0000 </r>
       <r>    9.0415    0.0000 </r>
       <r>    9.4667    0.0000 </r>
       <r>    9.6339    0.0000 </r>
       <r>   10.0721    0.0000 </r>
       <r>   10.4348    0.0000 </r>
       <r>   10.6846    0.0000 </r>
       <r>   10.9850    0.0000 </r>
       <r>   11.8456    0.0000 </r>
       <r>   12.2719    0.0000 </r>
       <r>   12.6936    0.0000 </r>
       <r>   12.7279    0.0000 </r>
       <r>   13.1155    0.0000 </r>
       <r>   13.7676    0.0000 </r>
       <r>   14.3563    0.0000 </r>
       <r>   14.6460    0.0000 </r>
       <r>   15.1772    0.0000 </r>
       <r>   15.5772    0.0000 </r>
       <r>   15.7775    0.0000 </r>
       <r>   16.0036    0.0000 </r>
      </set>
      <set comment="kpoint 45">
       <r>  -15.4061    1.0000 </r>
       <r>  -15.4019    1.0000 </r>
       <r>  -15.3991    1.0000 </r>
       <r>  -15.3960    1.0000 </r>
       <r>  -15.3909    1.0000 </r>
       <r>  -15.3899    1.0000 </r>
       <r>  -15.3886    1.0000 </r>
       <r>  -15.3865    1.0000 </r>
       <r>  -15.3854    1.0000 </r>
       <r>  -15.3839    1.0000 </r>
       <r>  -15.3700    1.0000 </r>
       <r>  -15.3663    1.0000 </r>
       <r>  -15.3594    1.0000 </r>
       <r>  -15.3569    1.0000 </r>
       <r>  -15.3381    1.0000 </r>
       <r>  -15.3366    1.0000 </r>
       <r>  -15.3337    1.0000 </r>
       <r>  -15.3333    1.0000 </r>
       <r>  -15.3136    1.0000 </r>
       <r>  -15.3118    1.0000 </r>
       <r>   -7.5727    1.0000 </r>
       <r>   -7.4189    1.0000 </r>
       <r>   -6.7763    1.0000 </r>
       <r>   -6.6031    1.0000 </r>
       <r>   -1.9486    1.0000 </r>
       <r>   -1.4917    1.0000 </r>
       <r>   -0.6405    1.0000 </r>
       <r>   -0.4673    1.0000 </r>
       <r>    1.3802    1.0000 </r>
       <r>    1.5029    1.0000 </r>
       <r>    1.9154    1.0000 </r>
       <r>    2.5309    1.0000 </r>
       <r>    2.5736    1.0000 </r>
       <r>    3.2051    1.0000 </r>
       <r>    4.1303    1.0000 </r>
       <r>    4.3893    1.0000 </r>
       <r>    4.4654    1.0000 </r>
       <r>    4.6221    1.0000 </r>
       <r>    5.2660    1.0000 </r>
       <r>    5.4137    1.0000 </r>
       <r>    7.2584    0.0000 </r>
       <r>    7.6608    0.0000 </r>
       <r>    7.7599    0.0000 </r>
       <r>    8.1877    0.0000 </r>
       <r>    8.4655    0.0000 </r>
       <r>    8.8988    0.0000 </r>
       <r>    9.3368    0.0000 </r>
       <r>    9.9093    0.0000 </r>
       <r>   10.4289    0.0000 </r>
       <r>   10.7777    0.0000 </r>
       <r>   11.0507    0.0000 </r>
       <r>   11.1657    0.0000 </r>
       <r>   12.2111    0.0000 </r>
       <r>   13.0031    0.0000 </r>
       <r>   13.3288    0.0000 </r>
       <r>   13.3971    0.0000 </r>
       <r>   13.6600    0.0000 </r>
       <r>   13.9343    0.0000 </r>
       <r>   14.2091    0.0000 </r>
       <r>   14.6593    0.0000 </r>
       <r>   14.8656    0.0000 </r>
       <r>   15.2722    0.0000 </r>
       <r>   15.9810    0.0000 </r>
       <r>   16.1164    0.0000 </r>
      </set>
      <set comment="kpoint 46">
       <r>  -15.4059    1.0000 </r>
       <r>  -15.4020    1.0000 </r>
       <r>  -15.3991    1.0000 </r>
       <r>  -15.3962    1.0000 </r>
       <r>  -15.3906    1.0000 </r>
       <r>  -15.3899    1.0000 </r>
       <r>  -15.3889    1.0000 </r>
       <r>  -15.3863    1.0000 </r>
       <r>  -15.3848    1.0000 </r>
       <r>  -15.3844    1.0000 </r>
       <r>  -15.3700    1.0000 </r>
       <r>  -15.3664    1.0000 </r>
       <r>  -15.3594    1.0000 </r>
       <r>  -15.3569    1.0000 </r>
       <r>  -15.3381    1.0000 </r>
       <r>  -15.3366    1.0000 </r>
       <r>  -15.3336    1.0000 </r>
       <r>  -15.3334    1.0000 </r>
       <r>  -15.3136    1.0000 </r>
       <r>  -15.3118    1.0000 </r>
       <r>   -7.5728    1.0000 </r>
       <r>   -7.4188    1.0000 </r>
       <r>   -6.7764    1.0000 </r>
       <r>   -6.6030    1.0000 </r>
       <r>   -1.9505    1.0000 </r>
       <r>   -1.4880    1.0000 </r>
       <r>   -0.6456    1.0000 </r>
       <r>   -0.4639    1.0000 </r>
       <r>    1.3800    1.0000 </r>
       <r>    1.5027    1.0000 </r>
       <r>    1.9154    1.0000 </r>
       <r>    2.5305    1.0000 </r>
       <r>    2.5728    1.0000 </r>
       <r>    3.2044    1.0000 </r>
       <r>    4.1332    1.0000 </r>
       <r>    4.3904    1.0000 </r>
       <r>    4.4689    1.0000 </r>
       <r>    4.6182    1.0000 </r>
       <r>    5.2663    1.0000 </r>
       <r>    5.4123    1.0000 </r>
       <r>    7.2780    0.0000 </r>
       <r>    7.6488    0.0000 </r>
       <r>    7.7472    0.0000 </r>
       <r>    8.1877    0.0000 </r>
       <r>    8.4640    0.0000 </r>
       <r>    8.8984    0.0000 </r>
       <r>    9.3345    0.0000 </r>
       <r>    9.9123    0.0000 </r>
       <r>   10.4314    0.0000 </r>
       <r>   10.7924    0.0000 </r>
       <r>   11.0310    0.0000 </r>
       <r>   11.1749    0.0000 </r>
       <r>   12.2158    0.0000 </r>
       <r>   13.0041    0.0000 </r>
       <r>   13.3251    0.0000 </r>
       <r>   13.4108    0.0000 </r>
       <r>   13.6521    0.0000 </r>
       <r>   13.9302    0.0000 </r>
       <r>   14.2058    0.0000 </r>
       <r>   14.6617    0.0000 </r>
       <r>   14.8639    0.0000 </r>
       <r>   15.2732    0.0000 </r>
       <r>   15.9801    0.0000 </r>
       <r>   16.1108    0.0000 </r>
      </set>
      <set comment="kpoint 47">
       <r>  -15.4078    1.0000 </r>
       <r>  -15.4051    1.0000 </r>
       <r>  -15.4015    1.0000 </r>
       <r>  -15.3996    1.0000 </r>
       <r>  -15.3903    1.0000 </r>
       <r>  -15.3892    1.0000 </r>
       <r>  -15.3886    1.0000 </r>
       <r>  -15.3862    1.0000 </r>
       <r>  -15.3835    1.0000 </r>
       <r>  -15.3829    1.0000 </r>
       <r>  -15.3679    1.0000 </r>
       <r>  -15.3655    1.0000 </r>
       <r>  -15.3566    1.0000 </r>
       <r>  -15.3551    1.0000 </r>
       <r>  -15.3371    1.0000 </r>
       <r>  -15.3355    1.0000 </r>
       <r>  -15.3346    1.0000 </r>
       <r>  -15.3341    1.0000 </r>
       <r>  -15.3129    1.0000 </r>
       <r>  -15.3119    1.0000 </r>
       <r>   -7.3111    1.0000 </r>
       <r>   -7.1831    1.0000 </r>
       <r>   -6.8019    1.0000 </r>
       <r>   -6.6703    1.0000 </r>
       <r>   -2.1166    1.0000 </r>
       <r>   -1.8152    1.0000 </r>
       <r>   -0.8402    1.0000 </r>
       <r>   -0.6866    1.0000 </r>
       <r>    1.4154    1.0000 </r>
       <r>    1.5598    1.0000 </r>
       <r>    2.1610    1.0000 </r>
       <r>    2.3121    1.0000 </r>
       <r>    2.5549    1.0000 </r>
       <r>    3.2757    1.0000 </r>
       <r>    3.6993    1.0000 </r>
       <r>    3.8791    1.0000 </r>
       <r>    4.1377    1.0000 </r>
       <r>    4.2157    1.0000 </r>
       <r>    4.9657    1.0000 </r>
       <r>    5.2040    1.0000 </r>
       <r>    7.4373    0.0000 </r>
       <r>    8.0040    0.0000 </r>
       <r>    8.2085    0.0000 </r>
       <r>    8.3778    0.0000 </r>
       <r>    8.9774    0.0000 </r>
       <r>    9.2188    0.0000 </r>
       <r>    9.4232    0.0000 </r>
       <r>    9.9345    0.0000 </r>
       <r>   10.4569    0.0000 </r>
       <r>   10.7824    0.0000 </r>
       <r>   11.1479    0.0000 </r>
       <r>   11.2818    0.0000 </r>
       <r>   12.1933    0.0000 </r>
       <r>   12.6524    0.0000 </r>
       <r>   13.2307    0.0000 </r>
       <r>   13.8130    0.0000 </r>
       <r>   14.0044    0.0000 </r>
       <r>   14.3837    0.0000 </r>
       <r>   14.9336    0.0000 </r>
       <r>   15.1301    0.0000 </r>
       <r>   15.4589    0.0000 </r>
       <r>   15.6126    0.0000 </r>
       <r>   16.5870    0.0000 </r>
       <r>   17.0041    0.0000 </r>
      </set>
      <set comment="kpoint 48">
       <r>  -15.4076    1.0000 </r>
       <r>  -15.4052    1.0000 </r>
       <r>  -15.4016    1.0000 </r>
       <r>  -15.3998    1.0000 </r>
       <r>  -15.3902    1.0000 </r>
       <r>  -15.3893    1.0000 </r>
       <r>  -15.3884    1.0000 </r>
       <r>  -15.3859    1.0000 </r>
       <r>  -15.3837    1.0000 </r>
       <r>  -15.3829    1.0000 </r>
       <r>  -15.3679    1.0000 </r>
       <r>  -15.3656    1.0000 </r>
       <r>  -15.3566    1.0000 </r>
       <r>  -15.3550    1.0000 </r>
       <r>  -15.3371    1.0000 </r>
       <r>  -15.3356    1.0000 </r>
       <r>  -15.3345    1.0000 </r>
       <r>  -15.3342    1.0000 </r>
       <r>  -15.3129    1.0000 </r>
       <r>  -15.3119    1.0000 </r>
       <r>   -7.3111    1.0000 </r>
       <r>   -7.1830    1.0000 </r>
       <r>   -6.8020    1.0000 </r>
       <r>   -6.6702    1.0000 </r>
       <r>   -2.1176    1.0000 </r>
       <r>   -1.8140    1.0000 </r>
       <r>   -0.8422    1.0000 </r>
       <r>   -0.6841    1.0000 </r>
       <r>    1.4168    1.0000 </r>
       <r>    1.5572    1.0000 </r>
       <r>    2.1607    1.0000 </r>
       <r>    2.3092    1.0000 </r>
       <r>    2.5567    1.0000 </r>
       <r>    3.2744    1.0000 </r>
       <r>    3.7005    1.0000 </r>
       <r>    3.8847    1.0000 </r>
       <r>    4.1382    1.0000 </r>
       <r>    4.2105    1.0000 </r>
       <r>    4.9686    1.0000 </r>
       <r>    5.2048    1.0000 </r>
       <r>    7.4409    0.0000 </r>
       <r>    8.0045    0.0000 </r>
       <r>    8.2009    0.0000 </r>
       <r>    8.3722    0.0000 </r>
       <r>    8.9796    0.0000 </r>
       <r>    9.2085    0.0000 </r>
       <r>    9.4297    0.0000 </r>
       <r>    9.9294    0.0000 </r>
       <r>   10.4627    0.0000 </r>
       <r>   10.7896    0.0000 </r>
       <r>   11.1441    0.0000 </r>
       <r>   11.2922    0.0000 </r>
       <r>   12.1973    0.0000 </r>
       <r>   12.6541    0.0000 </r>
       <r>   13.2254    0.0000 </r>
       <r>   13.8126    0.0000 </r>
       <r>   14.0041    0.0000 </r>
       <r>   14.3738    0.0000 </r>
       <r>   14.9466    0.0000 </r>
       <r>   15.1227    0.0000 </r>
       <r>   15.4631    0.0000 </r>
       <r>   15.6060    0.0000 </r>
       <r>   16.5803    0.0000 </r>
       <r>   17.0036    0.0000 </r>
      </set>
      <set comment="kpoint 49">
       <r>  -15.4077    1.0000 </r>
       <r>  -15.4077    1.0000 </r>
       <r>  -15.4017    1.0000 </r>
       <r>  -15.4017    1.0000 </r>
       <r>  -15.3898    1.0000 </r>
       <r>  -15.3898    1.0000 </r>
       <r>  -15.3872    1.0000 </r>
       <r>  -15.3872    1.0000 </r>
       <r>  -15.3826    1.0000 </r>
       <r>  -15.3826    1.0000 </r>
       <r>  -15.3661    1.0000 </r>
       <r>  -15.3661    1.0000 </r>
       <r>  -15.3548    1.0000 </r>
       <r>  -15.3548    1.0000 </r>
       <r>  -15.3357    1.0000 </r>
       <r>  -15.3357    1.0000 </r>
       <r>  -15.3347    1.0000 </r>
       <r>  -15.3347    1.0000 </r>
       <r>  -15.3123    1.0000 </r>
       <r>  -15.3123    1.0000 </r>
       <r>   -7.0926    1.0000 </r>
       <r>   -7.0926    1.0000 </r>
       <r>   -6.8046    1.0000 </r>
       <r>   -6.8046    1.0000 </r>
       <r>   -2.0836    1.0000 </r>
       <r>   -2.0836    1.0000 </r>
       <r>   -0.8610    1.0000 </r>
       <r>   -0.8610    1.0000 </r>
       <r>    1.7778    1.0000 </r>
       <r>    1.7778    1.0000 </r>
       <r>    2.0069    1.0000 </r>
       <r>    2.0069    1.0000 </r>
       <r>    2.9430    1.0000 </r>
       <r>    2.9430    1.0000 </r>
       <r>    3.6552    1.0000 </r>
       <r>    3.6552    1.0000 </r>
       <r>    4.0273    1.0000 </r>
       <r>    4.0273    1.0000 </r>
       <r>    4.8172    1.0000 </r>
       <r>    4.8172    1.0000 </r>
       <r>    7.7748    0.0000 </r>
       <r>    7.7748    0.0000 </r>
       <r>    8.7681    0.0000 </r>
       <r>    8.7681    0.0000 </r>
       <r>    9.0325    0.0000 </r>
       <r>    9.0325    0.0000 </r>
       <r>    9.9048    0.0000 </r>
       <r>    9.9048    0.0000 </r>
       <r>   10.6396    0.0000 </r>
       <r>   10.6396    0.0000 </r>
       <r>   10.9668    0.0000 </r>
       <r>   10.9668    0.0000 </r>
       <r>   12.2859    0.0000 </r>
       <r>   12.2859    0.0000 </r>
       <r>   13.4995    0.0000 </r>
       <r>   13.4995    0.0000 </r>
       <r>   14.6920    0.0000 </r>
       <r>   14.6920    0.0000 </r>
       <r>   15.8807    0.0000 </r>
       <r>   15.8807    0.0000 </r>
       <r>   16.0264    0.0000 </r>
       <r>   16.0264    0.0000 </r>
       <r>   16.6303    0.0000 </r>
       <r>   16.6303    0.0000 </r>
      </set>
      <set comment="kpoint 50">
       <r>  -15.4076    1.0000 </r>
       <r>  -15.4076    1.0000 </r>
       <r>  -15.4018    1.0000 </r>
       <r>  -15.4018    1.0000 </r>
       <r>  -15.3898    1.0000 </r>
       <r>  -15.3898    1.0000 </r>
       <r>  -15.3871    1.0000 </r>
       <r>  -15.3871    1.0000 </r>
       <r>  -15.3826    1.0000 </r>
       <r>  -15.3826    1.0000 </r>
       <r>  -15.3662    1.0000 </r>
       <r>  -15.3662    1.0000 </r>
       <r>  -15.3548    1.0000 </r>
       <r>  -15.3548    1.0000 </r>
       <r>  -15.3357    1.0000 </r>
       <r>  -15.3357    1.0000 </r>
       <r>  -15.3347    1.0000 </r>
       <r>  -15.3347    1.0000 </r>
       <r>  -15.3123    1.0000 </r>
       <r>  -15.3123    1.0000 </r>
       <r>   -7.0926    1.0000 </r>
       <r>   -7.0926    1.0000 </r>
       <r>   -6.8046    1.0000 </r>
       <r>   -6.8046    1.0000 </r>
       <r>   -2.0838    1.0000 </r>
       <r>   -2.0838    1.0000 </r>
       <r>   -0.8604    1.0000 </r>
       <r>   -0.8604    1.0000 </r>
       <r>    1.7778    1.0000 </r>
       <r>    1.7778    1.0000 </r>
       <r>    2.0051    1.0000 </r>
       <r>    2.0051    1.0000 </r>
       <r>    2.9436    1.0000 </r>
       <r>    2.9436    1.0000 </r>
       <r>    3.6553    1.0000 </r>
       <r>    3.6553    1.0000 </r>
       <r>    4.0276    1.0000 </r>
       <r>    4.0276    1.0000 </r>
       <r>    4.8191    1.0000 </r>
       <r>    4.8191    1.0000 </r>
       <r>    7.7740    0.0000 </r>
       <r>    7.7740    0.0000 </r>
       <r>    8.7694    0.0000 </r>
       <r>    8.7694    0.0000 </r>
       <r>    9.0243    0.0000 </r>
       <r>    9.0243    0.0000 </r>
       <r>    9.9022    0.0000 </r>
       <r>    9.9022    0.0000 </r>
       <r>   10.6443    0.0000 </r>
       <r>   10.6443    0.0000 </r>
       <r>   10.9745    0.0000 </r>
       <r>   10.9745    0.0000 </r>
       <r>   12.2908    0.0000 </r>
       <r>   12.2908    0.0000 </r>
       <r>   13.4917    0.0000 </r>
       <r>   13.4917    0.0000 </r>
       <r>   14.6884    0.0000 </r>
       <r>   14.6884    0.0000 </r>
       <r>   15.8866    0.0000 </r>
       <r>   15.8866    0.0000 </r>
       <r>   16.0248    0.0000 </r>
       <r>   16.0248    0.0000 </r>
       <r>   16.6256    0.0000 </r>
       <r>   16.6256    0.0000 </r>
      </set>
      <set comment="kpoint 51">
       <r>  -15.4019    1.0000 </r>
       <r>  -15.4005    1.0000 </r>
       <r>  -15.3971    1.0000 </r>
       <r>  -15.3947    1.0000 </r>
       <r>  -15.3894    1.0000 </r>
       <r>  -15.3889    1.0000 </r>
       <r>  -15.3884    1.0000 </r>
       <r>  -15.3877    1.0000 </r>
       <r>  -15.3859    1.0000 </r>
       <r>  -15.3820    1.0000 </r>
       <r>  -15.3704    1.0000 </r>
       <r>  -15.3673    1.0000 </r>
       <r>  -15.3587    1.0000 </r>
       <r>  -15.3558    1.0000 </r>
       <r>  -15.3415    1.0000 </r>
       <r>  -15.3409    1.0000 </r>
       <r>  -15.3314    1.0000 </r>
       <r>  -15.3280    1.0000 </r>
       <r>  -15.3163    1.0000 </r>
       <r>  -15.3155    1.0000 </r>
       <r>   -7.5264    1.0000 </r>
       <r>   -7.3894    1.0000 </r>
       <r>   -6.7879    1.0000 </r>
       <r>   -6.6650    1.0000 </r>
       <r>   -2.0073    1.0000 </r>
       <r>   -1.6502    1.0000 </r>
       <r>   -1.1527    1.0000 </r>
       <r>   -0.8497    1.0000 </r>
       <r>    1.7223    1.0000 </r>
       <r>    2.6711    1.0000 </r>
       <r>    2.8498    1.0000 </r>
       <r>    3.0850    1.0000 </r>
       <r>    3.2942    1.0000 </r>
       <r>    3.7165    1.0000 </r>
       <r>    3.9671    1.0000 </r>
       <r>    4.0271    1.0000 </r>
       <r>    4.3107    1.0000 </r>
       <r>    4.5111    1.0000 </r>
       <r>    5.3024    1.0000 </r>
       <r>    5.6098    1.0000 </r>
       <r>    6.5982    0.0000 </r>
       <r>    7.1276    0.0000 </r>
       <r>    7.8383    0.0000 </r>
       <r>    7.8661    0.0000 </r>
       <r>    8.3371    0.0000 </r>
       <r>    8.5465    0.0000 </r>
       <r>    8.5644    0.0000 </r>
       <r>    9.1022    0.0000 </r>
       <r>    9.3330    0.0000 </r>
       <r>    9.9370    0.0000 </r>
       <r>   10.0533    0.0000 </r>
       <r>   10.4964    0.0000 </r>
       <r>   12.4145    0.0000 </r>
       <r>   12.7520    0.0000 </r>
       <r>   12.7548    0.0000 </r>
       <r>   13.4035    0.0000 </r>
       <r>   13.8011    0.0000 </r>
       <r>   14.1155    0.0000 </r>
       <r>   14.5028    0.0000 </r>
       <r>   15.1017    0.0000 </r>
       <r>   15.1833    0.0000 </r>
       <r>   15.4051    0.0000 </r>
       <r>   16.3673    0.0000 </r>
       <r>   16.4791    0.0000 </r>
      </set>
      <set comment="kpoint 52">
       <r>  -15.4021    1.0000 </r>
       <r>  -15.4002    1.0000 </r>
       <r>  -15.3967    1.0000 </r>
       <r>  -15.3950    1.0000 </r>
       <r>  -15.3892    1.0000 </r>
       <r>  -15.3891    1.0000 </r>
       <r>  -15.3883    1.0000 </r>
       <r>  -15.3879    1.0000 </r>
       <r>  -15.3859    1.0000 </r>
       <r>  -15.3818    1.0000 </r>
       <r>  -15.3703    1.0000 </r>
       <r>  -15.3674    1.0000 </r>
       <r>  -15.3587    1.0000 </r>
       <r>  -15.3558    1.0000 </r>
       <r>  -15.3416    1.0000 </r>
       <r>  -15.3409    1.0000 </r>
       <r>  -15.3314    1.0000 </r>
       <r>  -15.3281    1.0000 </r>
       <r>  -15.3163    1.0000 </r>
       <r>  -15.3155    1.0000 </r>
       <r>   -7.5264    1.0000 </r>
       <r>   -7.3894    1.0000 </r>
       <r>   -6.7879    1.0000 </r>
       <r>   -6.6650    1.0000 </r>
       <r>   -2.0108    1.0000 </r>
       <r>   -1.6453    1.0000 </r>
       <r>   -1.1478    1.0000 </r>
       <r>   -0.8566    1.0000 </r>
       <r>    1.7230    1.0000 </r>
       <r>    2.6684    1.0000 </r>
       <r>    2.8495    1.0000 </r>
       <r>    3.0861    1.0000 </r>
       <r>    3.2943    1.0000 </r>
       <r>    3.7231    1.0000 </r>
       <r>    3.9679    1.0000 </r>
       <r>    4.0243    1.0000 </r>
       <r>    4.3152    1.0000 </r>
       <r>    4.5028    1.0000 </r>
       <r>    5.3088    1.0000 </r>
       <r>    5.6029    1.0000 </r>
       <r>    6.6043    0.0000 </r>
       <r>    7.1216    0.0000 </r>
       <r>    7.8337    0.0000 </r>
       <r>    7.8722    0.0000 </r>
       <r>    8.3309    0.0000 </r>
       <r>    8.5508    0.0000 </r>
       <r>    8.5578    0.0000 </r>
       <r>    9.0995    0.0000 </r>
       <r>    9.3381    0.0000 </r>
       <r>    9.9493    0.0000 </r>
       <r>   10.0696    0.0000 </r>
       <r>   10.4733    0.0000 </r>
       <r>   12.4101    0.0000 </r>
       <r>   12.7550    0.0000 </r>
       <r>   12.7616    0.0000 </r>
       <r>   13.4065    0.0000 </r>
       <r>   13.7966    0.0000 </r>
       <r>   14.1175    0.0000 </r>
       <r>   14.4808    0.0000 </r>
       <r>   15.0992    0.0000 </r>
       <r>   15.1922    0.0000 </r>
       <r>   15.4198    0.0000 </r>
       <r>   16.3744    0.0000 </r>
       <r>   16.4896    0.0000 </r>
      </set>
      <set comment="kpoint 53">
       <r>  -15.4044    1.0000 </r>
       <r>  -15.4018    1.0000 </r>
       <r>  -15.3993    1.0000 </r>
       <r>  -15.3964    1.0000 </r>
       <r>  -15.3900    1.0000 </r>
       <r>  -15.3887    1.0000 </r>
       <r>  -15.3869    1.0000 </r>
       <r>  -15.3863    1.0000 </r>
       <r>  -15.3849    1.0000 </r>
       <r>  -15.3813    1.0000 </r>
       <r>  -15.3701    1.0000 </r>
       <r>  -15.3670    1.0000 </r>
       <r>  -15.3578    1.0000 </r>
       <r>  -15.3550    1.0000 </r>
       <r>  -15.3412    1.0000 </r>
       <r>  -15.3405    1.0000 </r>
       <r>  -15.3315    1.0000 </r>
       <r>  -15.3284    1.0000 </r>
       <r>  -15.3161    1.0000 </r>
       <r>  -15.3154    1.0000 </r>
       <r>   -7.4647    1.0000 </r>
       <r>   -7.3319    1.0000 </r>
       <r>   -6.7660    1.0000 </r>
       <r>   -6.6487    1.0000 </r>
       <r>   -1.9545    1.0000 </r>
       <r>   -1.5792    1.0000 </r>
       <r>   -1.1048    1.0000 </r>
       <r>   -0.8536    1.0000 </r>
       <r>    1.7115    1.0000 </r>
       <r>    1.9096    1.0000 </r>
       <r>    2.3663    1.0000 </r>
       <r>    2.8217    1.0000 </r>
       <r>    3.1519    1.0000 </r>
       <r>    3.4087    1.0000 </r>
       <r>    3.8731    1.0000 </r>
       <r>    4.2267    1.0000 </r>
       <r>    4.6067    1.0000 </r>
       <r>    4.6545    1.0000 </r>
       <r>    5.0617    1.0000 </r>
       <r>    5.1932    1.0000 </r>
       <r>    7.1304    0.0000 </r>
       <r>    7.2105    0.0000 </r>
       <r>    7.5655    0.0000 </r>
       <r>    7.7742    0.0000 </r>
       <r>    8.5202    0.0000 </r>
       <r>    8.8090    0.0000 </r>
       <r>    8.9380    0.0000 </r>
       <r>    9.3661    0.0000 </r>
       <r>    9.7507    0.0000 </r>
       <r>   10.2048    0.0000 </r>
       <r>   10.5400    0.0000 </r>
       <r>   10.7517    0.0000 </r>
       <r>   12.2622    0.0000 </r>
       <r>   12.8891    0.0000 </r>
       <r>   13.1858    0.0000 </r>
       <r>   13.5463    0.0000 </r>
       <r>   13.8605    0.0000 </r>
       <r>   13.8997    0.0000 </r>
       <r>   14.2865    0.0000 </r>
       <r>   14.9424    0.0000 </r>
       <r>   15.2994    0.0000 </r>
       <r>   15.4535    0.0000 </r>
       <r>   16.5136    0.0000 </r>
       <r>   16.6887    0.0000 </r>
      </set>
      <set comment="kpoint 54">
       <r>  -15.4045    1.0000 </r>
       <r>  -15.4017    1.0000 </r>
       <r>  -15.3991    1.0000 </r>
       <r>  -15.3967    1.0000 </r>
       <r>  -15.3900    1.0000 </r>
       <r>  -15.3887    1.0000 </r>
       <r>  -15.3869    1.0000 </r>
       <r>  -15.3863    1.0000 </r>
       <r>  -15.3851    1.0000 </r>
       <r>  -15.3812    1.0000 </r>
       <r>  -15.3699    1.0000 </r>
       <r>  -15.3671    1.0000 </r>
       <r>  -15.3578    1.0000 </r>
       <r>  -15.3550    1.0000 </r>
       <r>  -15.3412    1.0000 </r>
       <r>  -15.3405    1.0000 </r>
       <r>  -15.3315    1.0000 </r>
       <r>  -15.3284    1.0000 </r>
       <r>  -15.3161    1.0000 </r>
       <r>  -15.3154    1.0000 </r>
       <r>   -7.4648    1.0000 </r>
       <r>   -7.3319    1.0000 </r>
       <r>   -6.7661    1.0000 </r>
       <r>   -6.6486    1.0000 </r>
       <r>   -1.9580    1.0000 </r>
       <r>   -1.5737    1.0000 </r>
       <r>   -1.1003    1.0000 </r>
       <r>   -0.8606    1.0000 </r>
       <r>    1.7127    1.0000 </r>
       <r>    1.9083    1.0000 </r>
       <r>    2.3655    1.0000 </r>
       <r>    2.8235    1.0000 </r>
       <r>    3.1516    1.0000 </r>
       <r>    3.4081    1.0000 </r>
       <r>    3.8726    1.0000 </r>
       <r>    4.2315    1.0000 </r>
       <r>    4.6002    1.0000 </r>
       <r>    4.6595    1.0000 </r>
       <r>    5.0686    1.0000 </r>
       <r>    5.1829    1.0000 </r>
       <r>    7.1450    0.0000 </r>
       <r>    7.2080    0.0000 </r>
       <r>    7.5531    0.0000 </r>
       <r>    7.7725    0.0000 </r>
       <r>    8.5164    0.0000 </r>
       <r>    8.8051    0.0000 </r>
       <r>    8.9399    0.0000 </r>
       <r>    9.3724    0.0000 </r>
       <r>    9.7550    0.0000 </r>
       <r>   10.2090    0.0000 </r>
       <r>   10.5326    0.0000 </r>
       <r>   10.7540    0.0000 </r>
       <r>   12.2631    0.0000 </r>
       <r>   12.8862    0.0000 </r>
       <r>   13.1922    0.0000 </r>
       <r>   13.5439    0.0000 </r>
       <r>   13.8590    0.0000 </r>
       <r>   13.8979    0.0000 </r>
       <r>   14.2893    0.0000 </r>
       <r>   14.9439    0.0000 </r>
       <r>   15.3057    0.0000 </r>
       <r>   15.4463    0.0000 </r>
       <r>   16.4977    0.0000 </r>
       <r>   16.6850    0.0000 </r>
      </set>
      <set comment="kpoint 55">
       <r>  -15.4094    1.0000 </r>
       <r>  -15.4063    1.0000 </r>
       <r>  -15.4035    1.0000 </r>
       <r>  -15.4008    1.0000 </r>
       <r>  -15.3904    1.0000 </r>
       <r>  -15.3891    1.0000 </r>
       <r>  -15.3843    1.0000 </r>
       <r>  -15.3838    1.0000 </r>
       <r>  -15.3824    1.0000 </r>
       <r>  -15.3801    1.0000 </r>
       <r>  -15.3693    1.0000 </r>
       <r>  -15.3665    1.0000 </r>
       <r>  -15.3550    1.0000 </r>
       <r>  -15.3529    1.0000 </r>
       <r>  -15.3402    1.0000 </r>
       <r>  -15.3395    1.0000 </r>
       <r>  -15.3315    1.0000 </r>
       <r>  -15.3291    1.0000 </r>
       <r>  -15.3157    1.0000 </r>
       <r>  -15.3151    1.0000 </r>
       <r>   -7.2969    1.0000 </r>
       <r>   -7.1766    1.0000 </r>
       <r>   -6.7234    1.0000 </r>
       <r>   -6.6204    1.0000 </r>
       <r>   -1.8418    1.0000 </r>
       <r>   -1.4481    1.0000 </r>
       <r>   -0.9791    1.0000 </r>
       <r>   -0.8584    1.0000 </r>
       <r>    1.1576    1.0000 </r>
       <r>    1.3668    1.0000 </r>
       <r>    2.1118    1.0000 </r>
       <r>    2.2374    1.0000 </r>
       <r>    2.4263    1.0000 </r>
       <r>    3.1050    1.0000 </r>
       <r>    3.6061    1.0000 </r>
       <r>    3.8495    1.0000 </r>
       <r>    3.9747    1.0000 </r>
       <r>    4.2964    1.0000 </r>
       <r>    4.7939    1.0000 </r>
       <r>    5.2171    1.0000 </r>
       <r>    7.3063    0.0000 </r>
       <r>    7.8829    0.0000 </r>
       <r>    8.2303    0.0000 </r>
       <r>    8.4268    0.0000 </r>
       <r>    8.7646    0.0000 </r>
       <r>    8.9524    0.0000 </r>
       <r>    9.7444    0.0000 </r>
       <r>   10.0043    0.0000 </r>
       <r>   10.1990    0.0000 </r>
       <r>   10.4768    0.0000 </r>
       <r>   11.4434    0.0000 </r>
       <r>   11.6603    0.0000 </r>
       <r>   12.1600    0.0000 </r>
       <r>   12.6595    0.0000 </r>
       <r>   13.3291    0.0000 </r>
       <r>   13.9467    0.0000 </r>
       <r>   14.1911    0.0000 </r>
       <r>   14.3022    0.0000 </r>
       <r>   14.6390    0.0000 </r>
       <r>   14.8880    0.0000 </r>
       <r>   15.4127    0.0000 </r>
       <r>   16.0087    0.0000 </r>
       <r>   16.1517    0.0000 </r>
       <r>   16.5234    0.0000 </r>
      </set>
      <set comment="kpoint 56">
       <r>  -15.4094    1.0000 </r>
       <r>  -15.4063    1.0000 </r>
       <r>  -15.4034    1.0000 </r>
       <r>  -15.4009    1.0000 </r>
       <r>  -15.3904    1.0000 </r>
       <r>  -15.3889    1.0000 </r>
       <r>  -15.3840    1.0000 </r>
       <r>  -15.3837    1.0000 </r>
       <r>  -15.3830    1.0000 </r>
       <r>  -15.3800    1.0000 </r>
       <r>  -15.3692    1.0000 </r>
       <r>  -15.3666    1.0000 </r>
       <r>  -15.3550    1.0000 </r>
       <r>  -15.3528    1.0000 </r>
       <r>  -15.3402    1.0000 </r>
       <r>  -15.3395    1.0000 </r>
       <r>  -15.3315    1.0000 </r>
       <r>  -15.3291    1.0000 </r>
       <r>  -15.3157    1.0000 </r>
       <r>  -15.3151    1.0000 </r>
       <r>   -7.2970    1.0000 </r>
       <r>   -7.1765    1.0000 </r>
       <r>   -6.7236    1.0000 </r>
       <r>   -6.6203    1.0000 </r>
       <r>   -1.8451    1.0000 </r>
       <r>   -1.4416    1.0000 </r>
       <r>   -0.9786    1.0000 </r>
       <r>   -0.8623    1.0000 </r>
       <r>    1.1566    1.0000 </r>
       <r>    1.3682    1.0000 </r>
       <r>    2.1114    1.0000 </r>
       <r>    2.2388    1.0000 </r>
       <r>    2.4236    1.0000 </r>
       <r>    3.1043    1.0000 </r>
       <r>    3.6070    1.0000 </r>
       <r>    3.8520    1.0000 </r>
       <r>    3.9729    1.0000 </r>
       <r>    4.2979    1.0000 </r>
       <r>    4.7971    1.0000 </r>
       <r>    5.2142    1.0000 </r>
       <r>    7.3058    0.0000 </r>
       <r>    7.8860    0.0000 </r>
       <r>    8.2282    0.0000 </r>
       <r>    8.4211    0.0000 </r>
       <r>    8.7643    0.0000 </r>
       <r>    8.9491    0.0000 </r>
       <r>    9.7396    0.0000 </r>
       <r>   10.0108    0.0000 </r>
       <r>   10.2021    0.0000 </r>
       <r>   10.4856    0.0000 </r>
       <r>   11.4288    0.0000 </r>
       <r>   11.6698    0.0000 </r>
       <r>   12.1641    0.0000 </r>
       <r>   12.6581    0.0000 </r>
       <r>   13.3272    0.0000 </r>
       <r>   13.9496    0.0000 </r>
       <r>   14.1927    0.0000 </r>
       <r>   14.2964    0.0000 </r>
       <r>   14.6462    0.0000 </r>
       <r>   14.8921    0.0000 </r>
       <r>   15.4050    0.0000 </r>
       <r>   16.0032    0.0000 </r>
       <r>   16.1386    0.0000 </r>
       <r>   16.5313    0.0000 </r>
      </set>
      <set comment="kpoint 57">
       <r>  -15.4135    1.0000 </r>
       <r>  -15.4116    1.0000 </r>
       <r>  -15.4069    1.0000 </r>
       <r>  -15.4055    1.0000 </r>
       <r>  -15.3905    1.0000 </r>
       <r>  -15.3896    1.0000 </r>
       <r>  -15.3825    1.0000 </r>
       <r>  -15.3819    1.0000 </r>
       <r>  -15.3803    1.0000 </r>
       <r>  -15.3794    1.0000 </r>
       <r>  -15.3682    1.0000 </r>
       <r>  -15.3664    1.0000 </r>
       <r>  -15.3517    1.0000 </r>
       <r>  -15.3506    1.0000 </r>
       <r>  -15.3389    1.0000 </r>
       <r>  -15.3385    1.0000 </r>
       <r>  -15.3311    1.0000 </r>
       <r>  -15.3297    1.0000 </r>
       <r>  -15.3152    1.0000 </r>
       <r>  -15.3149    1.0000 </r>
       <r>   -7.0764    1.0000 </r>
       <r>   -6.9802    1.0000 </r>
       <r>   -6.7140    1.0000 </r>
       <r>   -6.6309    1.0000 </r>
       <r>   -1.7622    1.0000 </r>
       <r>   -1.5102    1.0000 </r>
       <r>   -0.7906    1.0000 </r>
       <r>   -0.7668    1.0000 </r>
       <r>    0.8599    1.0000 </r>
       <r>    1.0933    1.0000 </r>
       <r>    1.6594    1.0000 </r>
       <r>    1.8937    1.0000 </r>
       <r>    2.1971    1.0000 </r>
       <r>    2.6240    1.0000 </r>
       <r>    2.8432    1.0000 </r>
       <r>    3.4504    1.0000 </r>
       <r>    3.7099    1.0000 </r>
       <r>    4.0700    1.0000 </r>
       <r>    4.4438    1.0000 </r>
       <r>    4.7816    1.0000 </r>
       <r>    7.6071    0.0000 </r>
       <r>    8.2467    0.0000 </r>
       <r>    8.8583    0.0000 </r>
       <r>    9.0664    0.0000 </r>
       <r>    9.1578    0.0000 </r>
       <r>    9.5614    0.0000 </r>
       <r>   10.5458    0.0000 </r>
       <r>   10.6290    0.0000 </r>
       <r>   10.7510    0.0000 </r>
       <r>   10.9121    0.0000 </r>
       <r>   11.9212    0.0000 </r>
       <r>   11.9892    0.0000 </r>
       <r>   12.1305    0.0000 </r>
       <r>   12.3566    0.0000 </r>
       <r>   13.1499    0.0000 </r>
       <r>   13.4835    0.0000 </r>
       <r>   14.9849    0.0000 </r>
       <r>   15.3586    0.0000 </r>
       <r>   15.5222    0.0000 </r>
       <r>   15.5377    0.0000 </r>
       <r>   16.0142    0.0000 </r>
       <r>   16.1859    0.0000 </r>
       <r>   16.4182    0.0000 </r>
       <r>   16.7518    0.0000 </r>
      </set>
      <set comment="kpoint 58">
       <r>  -15.4135    1.0000 </r>
       <r>  -15.4116    1.0000 </r>
       <r>  -15.4069    1.0000 </r>
       <r>  -15.4055    1.0000 </r>
       <r>  -15.3905    1.0000 </r>
       <r>  -15.3895    1.0000 </r>
       <r>  -15.3821    1.0000 </r>
       <r>  -15.3818    1.0000 </r>
       <r>  -15.3808    1.0000 </r>
       <r>  -15.3794    1.0000 </r>
       <r>  -15.3682    1.0000 </r>
       <r>  -15.3665    1.0000 </r>
       <r>  -15.3516    1.0000 </r>
       <r>  -15.3505    1.0000 </r>
       <r>  -15.3389    1.0000 </r>
       <r>  -15.3385    1.0000 </r>
       <r>  -15.3311    1.0000 </r>
       <r>  -15.3297    1.0000 </r>
       <r>  -15.3152    1.0000 </r>
       <r>  -15.3149    1.0000 </r>
       <r>   -7.0765    1.0000 </r>
       <r>   -6.9800    1.0000 </r>
       <r>   -6.7142    1.0000 </r>
       <r>   -6.6308    1.0000 </r>
       <r>   -1.7642    1.0000 </r>
       <r>   -1.5078    1.0000 </r>
       <r>   -0.7935    1.0000 </r>
       <r>   -0.7636    1.0000 </r>
       <r>    0.8615    1.0000 </r>
       <r>    1.0912    1.0000 </r>
       <r>    1.6601    1.0000 </r>
       <r>    1.8912    1.0000 </r>
       <r>    2.1971    1.0000 </r>
       <r>    2.6238    1.0000 </r>
       <r>    2.8403    1.0000 </r>
       <r>    3.4567    1.0000 </r>
       <r>    3.7090    1.0000 </r>
       <r>    4.0693    1.0000 </r>
       <r>    4.4459    1.0000 </r>
       <r>    4.7821    1.0000 </r>
       <r>    7.6036    0.0000 </r>
       <r>    8.2424    0.0000 </r>
       <r>    8.8574    0.0000 </r>
       <r>    9.0697    0.0000 </r>
       <r>    9.1550    0.0000 </r>
       <r>    9.5599    0.0000 </r>
       <r>   10.5490    0.0000 </r>
       <r>   10.6363    0.0000 </r>
       <r>   10.7457    0.0000 </r>
       <r>   10.9178    0.0000 </r>
       <r>   11.9189    0.0000 </r>
       <r>   11.9953    0.0000 </r>
       <r>   12.1314    0.0000 </r>
       <r>   12.3566    0.0000 </r>
       <r>   13.1439    0.0000 </r>
       <r>   13.4823    0.0000 </r>
       <r>   14.9811    0.0000 </r>
       <r>   15.3700    0.0000 </r>
       <r>   15.5120    0.0000 </r>
       <r>   15.5389    0.0000 </r>
       <r>   16.0157    0.0000 </r>
       <r>   16.1772    0.0000 </r>
       <r>   16.4158    0.0000 </r>
       <r>   16.7600    0.0000 </r>
      </set>
      <set comment="kpoint 59">
       <r>  -15.4144    1.0000 </r>
       <r>  -15.4144    1.0000 </r>
       <r>  -15.4078    1.0000 </r>
       <r>  -15.4078    1.0000 </r>
       <r>  -15.3902    1.0000 </r>
       <r>  -15.3902    1.0000 </r>
       <r>  -15.3816    1.0000 </r>
       <r>  -15.3816    1.0000 </r>
       <r>  -15.3793    1.0000 </r>
       <r>  -15.3793    1.0000 </r>
       <r>  -15.3671    1.0000 </r>
       <r>  -15.3671    1.0000 </r>
       <r>  -15.3499    1.0000 </r>
       <r>  -15.3499    1.0000 </r>
       <r>  -15.3382    1.0000 </r>
       <r>  -15.3382    1.0000 </r>
       <r>  -15.3304    1.0000 </r>
       <r>  -15.3304    1.0000 </r>
       <r>  -15.3149    1.0000 </r>
       <r>  -15.3149    1.0000 </r>
       <r>   -6.9056    1.0000 </r>
       <r>   -6.9056    1.0000 </r>
       <r>   -6.7056    1.0000 </r>
       <r>   -6.7056    1.0000 </r>
       <r>   -1.6762    1.0000 </r>
       <r>   -1.6762    1.0000 </r>
       <r>   -0.6896    1.0000 </r>
       <r>   -0.6896    1.0000 </r>
       <r>    1.0742    1.0000 </r>
       <r>    1.0742    1.0000 </r>
       <r>    1.3553    1.0000 </r>
       <r>    1.3553    1.0000 </r>
       <r>    2.3275    1.0000 </r>
       <r>    2.3275    1.0000 </r>
       <r>    2.9342    1.0000 </r>
       <r>    2.9342    1.0000 </r>
       <r>    3.7745    1.0000 </r>
       <r>    3.7745    1.0000 </r>
       <r>    4.5076    1.0000 </r>
       <r>    4.5076    1.0000 </r>
       <r>    7.8620    0.0000 </r>
       <r>    7.8620    0.0000 </r>
       <r>    9.1515    0.0000 </r>
       <r>    9.1515    0.0000 </r>
       <r>   10.1050    0.0000 </r>
       <r>   10.1050    0.0000 </r>
       <r>   10.3257    0.0000 </r>
       <r>   10.3257    0.0000 </r>
       <r>   11.4579    0.0000 </r>
       <r>   11.4579    0.0000 </r>
       <r>   11.8566    0.0000 </r>
       <r>   11.8566    0.0000 </r>
       <r>   12.2770    0.0000 </r>
       <r>   12.2770    0.0000 </r>
       <r>   13.2070    0.0000 </r>
       <r>   13.2070    0.0000 </r>
       <r>   15.1170    0.0000 </r>
       <r>   15.1170    0.0000 </r>
       <r>   16.3759    0.0000 </r>
       <r>   16.3759    0.0000 </r>
       <r>   16.6339    0.0000 </r>
       <r>   16.6339    0.0000 </r>
       <r>   17.1917    0.0000 </r>
       <r>   17.1917    0.0000 </r>
      </set>
      <set comment="kpoint 60">
       <r>  -15.4144    1.0000 </r>
       <r>  -15.4144    1.0000 </r>
       <r>  -15.4079    1.0000 </r>
       <r>  -15.4079    1.0000 </r>
       <r>  -15.3901    1.0000 </r>
       <r>  -15.3901    1.0000 </r>
       <r>  -15.3813    1.0000 </r>
       <r>  -15.3813    1.0000 </r>
       <r>  -15.3796    1.0000 </r>
       <r>  -15.3796    1.0000 </r>
       <r>  -15.3671    1.0000 </r>
       <r>  -15.3671    1.0000 </r>
       <r>  -15.3499    1.0000 </r>
       <r>  -15.3499    1.0000 </r>
       <r>  -15.3382    1.0000 </r>
       <r>  -15.3382    1.0000 </r>
       <r>  -15.3304    1.0000 </r>
       <r>  -15.3304    1.0000 </r>
       <r>  -15.3149    1.0000 </r>
       <r>  -15.3149    1.0000 </r>
       <r>   -6.9056    1.0000 </r>
       <r>   -6.9056    1.0000 </r>
       <r>   -6.7056    1.0000 </r>
       <r>   -6.7056    1.0000 </r>
       <r>   -1.6766    1.0000 </r>
       <r>   -1.6766    1.0000 </r>
       <r>   -0.6887    1.0000 </r>
       <r>   -0.6887    1.0000 </r>
       <r>    1.0755    1.0000 </r>
       <r>    1.0755    1.0000 </r>
       <r>    1.3528    1.0000 </r>
       <r>    1.3528    1.0000 </r>
       <r>    2.3252    1.0000 </r>
       <r>    2.3252    1.0000 </r>
       <r>    2.9372    1.0000 </r>
       <r>    2.9372    1.0000 </r>
       <r>    3.7741    1.0000 </r>
       <r>    3.7741    1.0000 </r>
       <r>    4.5094    1.0000 </r>
       <r>    4.5094    1.0000 </r>
       <r>    7.8570    0.0000 </r>
       <r>    7.8570    0.0000 </r>
       <r>    9.1534    0.0000 </r>
       <r>    9.1534    0.0000 </r>
       <r>   10.1077    0.0000 </r>
       <r>   10.1077    0.0000 </r>
       <r>   10.3207    0.0000 </r>
       <r>   10.3207    0.0000 </r>
       <r>   11.4683    0.0000 </r>
       <r>   11.4683    0.0000 </r>
       <r>   11.8570    0.0000 </r>
       <r>   11.8570    0.0000 </r>
       <r>   12.2754    0.0000 </r>
       <r>   12.2754    0.0000 </r>
       <r>   13.2015    0.0000 </r>
       <r>   13.2015    0.0000 </r>
       <r>   15.1159    0.0000 </r>
       <r>   15.1159    0.0000 </r>
       <r>   16.3767    0.0000 </r>
       <r>   16.3767    0.0000 </r>
       <r>   16.6398    0.0000 </r>
       <r>   16.6398    0.0000 </r>
       <r>   17.1846    0.0000 </r>
       <r>   17.1846    0.0000 </r>
      </set>
      <set comment="kpoint 61">
       <r>  -15.4032    1.0000 </r>
       <r>  -15.4017    1.0000 </r>
       <r>  -15.4008    1.0000 </r>
       <r>  -15.3986    1.0000 </r>
       <r>  -15.3892    1.0000 </r>
       <r>  -15.3884    1.0000 </r>
       <r>  -15.3877    1.0000 </r>
       <r>  -15.3868    1.0000 </r>
       <r>  -15.3774    1.0000 </r>
       <r>  -15.3744    1.0000 </r>
       <r>  -15.3706    1.0000 </r>
       <r>  -15.3702    1.0000 </r>
       <r>  -15.3537    1.0000 </r>
       <r>  -15.3515    1.0000 </r>
       <r>  -15.3477    1.0000 </r>
       <r>  -15.3466    1.0000 </r>
       <r>  -15.3256    1.0000 </r>
       <r>  -15.3232    1.0000 </r>
       <r>  -15.3200    1.0000 </r>
       <r>  -15.3190    1.0000 </r>
       <r>   -7.1737    1.0000 </r>
       <r>   -7.0959    1.0000 </r>
       <r>   -6.8725    1.0000 </r>
       <r>   -6.8587    1.0000 </r>
       <r>   -2.0600    1.0000 </r>
       <r>   -1.7652    1.0000 </r>
       <r>   -1.7005    1.0000 </r>
       <r>   -1.4046    1.0000 </r>
       <r>    2.2394    1.0000 </r>
       <r>    2.7981    1.0000 </r>
       <r>    3.1727    1.0000 </r>
       <r>    3.4205    1.0000 </r>
       <r>    3.4218    1.0000 </r>
       <r>    3.8388    1.0000 </r>
       <r>    3.8502    1.0000 </r>
       <r>    3.8889    1.0000 </r>
       <r>    4.5619    1.0000 </r>
       <r>    4.7366    1.0000 </r>
       <r>    5.1118    1.0000 </r>
       <r>    5.2335    1.0000 </r>
       <r>    6.8331    0.0000 </r>
       <r>    7.0379    0.0000 </r>
       <r>    7.3314    0.0000 </r>
       <r>    7.5355    0.0000 </r>
       <r>    7.8300    0.0000 </r>
       <r>    8.0229    0.0000 </r>
       <r>    8.0265    0.0000 </r>
       <r>    8.3557    0.0000 </r>
       <r>    8.9676    0.0000 </r>
       <r>    9.3741    0.0000 </r>
       <r>   10.1964    0.0000 </r>
       <r>   10.3830    0.0000 </r>
       <r>   13.2146    0.0000 </r>
       <r>   13.5558    0.0000 </r>
       <r>   13.9530    0.0000 </r>
       <r>   14.0019    0.0000 </r>
       <r>   14.4532    0.0000 </r>
       <r>   14.5241    0.0000 </r>
       <r>   14.7402    0.0000 </r>
       <r>   15.1536    0.0000 </r>
       <r>   15.7808    0.0000 </r>
       <r>   15.7957    0.0000 </r>
       <r>   16.0409    0.0000 </r>
       <r>   16.3291    0.0000 </r>
      </set>
      <set comment="kpoint 62">
       <r>  -15.4035    1.0000 </r>
       <r>  -15.4014    1.0000 </r>
       <r>  -15.4006    1.0000 </r>
       <r>  -15.3988    1.0000 </r>
       <r>  -15.3891    1.0000 </r>
       <r>  -15.3885    1.0000 </r>
       <r>  -15.3880    1.0000 </r>
       <r>  -15.3866    1.0000 </r>
       <r>  -15.3776    1.0000 </r>
       <r>  -15.3744    1.0000 </r>
       <r>  -15.3705    1.0000 </r>
       <r>  -15.3702    1.0000 </r>
       <r>  -15.3538    1.0000 </r>
       <r>  -15.3515    1.0000 </r>
       <r>  -15.3476    1.0000 </r>
       <r>  -15.3467    1.0000 </r>
       <r>  -15.3256    1.0000 </r>
       <r>  -15.3233    1.0000 </r>
       <r>  -15.3200    1.0000 </r>
       <r>  -15.3190    1.0000 </r>
       <r>   -7.1737    1.0000 </r>
       <r>   -7.0958    1.0000 </r>
       <r>   -6.8725    1.0000 </r>
       <r>   -6.8587    1.0000 </r>
       <r>   -2.0640    1.0000 </r>
       <r>   -1.7608    1.0000 </r>
       <r>   -1.6954    1.0000 </r>
       <r>   -1.4103    1.0000 </r>
       <r>    2.2391    1.0000 </r>
       <r>    2.7985    1.0000 </r>
       <r>    3.1696    1.0000 </r>
       <r>    3.4225    1.0000 </r>
       <r>    3.4233    1.0000 </r>
       <r>    3.8379    1.0000 </r>
       <r>    3.8536    1.0000 </r>
       <r>    3.8899    1.0000 </r>
       <r>    4.5546    1.0000 </r>
       <r>    4.7365    1.0000 </r>
       <r>    5.1132    1.0000 </r>
       <r>    5.2373    1.0000 </r>
       <r>    6.8284    0.0000 </r>
       <r>    7.0380    0.0000 </r>
       <r>    7.3353    0.0000 </r>
       <r>    7.5333    0.0000 </r>
       <r>    7.8332    0.0000 </r>
       <r>    8.0218    0.0000 </r>
       <r>    8.0264    0.0000 </r>
       <r>    8.3529    0.0000 </r>
       <r>    8.9597    0.0000 </r>
       <r>    9.3863    0.0000 </r>
       <r>   10.2118    0.0000 </r>
       <r>   10.3653    0.0000 </r>
       <r>   13.2156    0.0000 </r>
       <r>   13.5546    0.0000 </r>
       <r>   13.9519    0.0000 </r>
       <r>   14.0058    0.0000 </r>
       <r>   14.4484    0.0000 </r>
       <r>   14.5406    0.0000 </r>
       <r>   14.7185    0.0000 </r>
       <r>   15.1497    0.0000 </r>
       <r>   15.7919    0.0000 </r>
       <r>   15.8099    0.0000 </r>
       <r>   16.0402    0.0000 </r>
       <r>   16.3237    0.0000 </r>
      </set>
      <set comment="kpoint 63">
       <r>  -15.4058    1.0000 </r>
       <r>  -15.4043    1.0000 </r>
       <r>  -15.4025    1.0000 </r>
       <r>  -15.4007    1.0000 </r>
       <r>  -15.3888    1.0000 </r>
       <r>  -15.3887    1.0000 </r>
       <r>  -15.3865    1.0000 </r>
       <r>  -15.3860    1.0000 </r>
       <r>  -15.3766    1.0000 </r>
       <r>  -15.3740    1.0000 </r>
       <r>  -15.3704    1.0000 </r>
       <r>  -15.3699    1.0000 </r>
       <r>  -15.3528    1.0000 </r>
       <r>  -15.3509    1.0000 </r>
       <r>  -15.3467    1.0000 </r>
       <r>  -15.3458    1.0000 </r>
       <r>  -15.3257    1.0000 </r>
       <r>  -15.3235    1.0000 </r>
       <r>  -15.3197    1.0000 </r>
       <r>  -15.3190    1.0000 </r>
       <r>   -7.1242    1.0000 </r>
       <r>   -7.0498    1.0000 </r>
       <r>   -6.8402    1.0000 </r>
       <r>   -6.8259    1.0000 </r>
       <r>   -1.9649    1.0000 </r>
       <r>   -1.6817    1.0000 </r>
       <r>   -1.6064    1.0000 </r>
       <r>   -1.3426    1.0000 </r>
       <r>    2.1534    1.0000 </r>
       <r>    2.2975    1.0000 </r>
       <r>    2.6126    1.0000 </r>
       <r>    2.8717    1.0000 </r>
       <r>    3.0459    1.0000 </r>
       <r>    3.4564    1.0000 </r>
       <r>    3.6390    1.0000 </r>
       <r>    4.0215    1.0000 </r>
       <r>    4.4402    1.0000 </r>
       <r>    4.7262    1.0000 </r>
       <r>    4.7618    1.0000 </r>
       <r>    5.0346    1.0000 </r>
       <r>    7.1099    0.0000 </r>
       <r>    7.1715    0.0000 </r>
       <r>    7.3419    0.0000 </r>
       <r>    7.6068    0.0000 </r>
       <r>    8.4293    0.0000 </r>
       <r>    8.6939    0.0000 </r>
       <r>    8.8603    0.0000 </r>
       <r>    9.2396    0.0000 </r>
       <r>    9.3237    0.0000 </r>
       <r>    9.9252    0.0000 </r>
       <r>   10.1969    0.0000 </r>
       <r>   10.3039    0.0000 </r>
       <r>   12.4555    0.0000 </r>
       <r>   12.8372    0.0000 </r>
       <r>   13.8585    0.0000 </r>
       <r>   14.2621    0.0000 </r>
       <r>   14.6503    0.0000 </r>
       <r>   14.8510    0.0000 </r>
       <r>   14.9548    0.0000 </r>
       <r>   15.5083    0.0000 </r>
       <r>   15.9070    0.0000 </r>
       <r>   16.0057    0.0000 </r>
       <r>   16.4984    0.0000 </r>
       <r>   16.8148    0.0000 </r>
      </set>
      <set comment="kpoint 64">
       <r>  -15.4060    1.0000 </r>
       <r>  -15.4041    1.0000 </r>
       <r>  -15.4024    1.0000 </r>
       <r>  -15.4008    1.0000 </r>
       <r>  -15.3890    1.0000 </r>
       <r>  -15.3884    1.0000 </r>
       <r>  -15.3866    1.0000 </r>
       <r>  -15.3860    1.0000 </r>
       <r>  -15.3767    1.0000 </r>
       <r>  -15.3740    1.0000 </r>
       <r>  -15.3703    1.0000 </r>
       <r>  -15.3699    1.0000 </r>
       <r>  -15.3528    1.0000 </r>
       <r>  -15.3508    1.0000 </r>
       <r>  -15.3467    1.0000 </r>
       <r>  -15.3459    1.0000 </r>
       <r>  -15.3256    1.0000 </r>
       <r>  -15.3236    1.0000 </r>
       <r>  -15.3198    1.0000 </r>
       <r>  -15.3189    1.0000 </r>
       <r>   -7.1242    1.0000 </r>
       <r>   -7.0497    1.0000 </r>
       <r>   -6.8402    1.0000 </r>
       <r>   -6.8258    1.0000 </r>
       <r>   -1.9690    1.0000 </r>
       <r>   -1.6768    1.0000 </r>
       <r>   -1.6011    1.0000 </r>
       <r>   -1.3489    1.0000 </r>
       <r>    2.1544    1.0000 </r>
       <r>    2.2965    1.0000 </r>
       <r>    2.6110    1.0000 </r>
       <r>    2.8727    1.0000 </r>
       <r>    3.0470    1.0000 </r>
       <r>    3.4549    1.0000 </r>
       <r>    3.6412    1.0000 </r>
       <r>    4.0219    1.0000 </r>
       <r>    4.4346    1.0000 </r>
       <r>    4.7346    1.0000 </r>
       <r>    4.7654    1.0000 </r>
       <r>    5.0260    1.0000 </r>
       <r>    7.1136    0.0000 </r>
       <r>    7.1763    0.0000 </r>
       <r>    7.3394    0.0000 </r>
       <r>    7.6006    0.0000 </r>
       <r>    8.4252    0.0000 </r>
       <r>    8.6928    0.0000 </r>
       <r>    8.8667    0.0000 </r>
       <r>    9.2428    0.0000 </r>
       <r>    9.3175    0.0000 </r>
       <r>    9.9286    0.0000 </r>
       <r>   10.2156    0.0000 </r>
       <r>   10.2853    0.0000 </r>
       <r>   12.4551    0.0000 </r>
       <r>   12.8375    0.0000 </r>
       <r>   13.8568    0.0000 </r>
       <r>   14.2610    0.0000 </r>
       <r>   14.6482    0.0000 </r>
       <r>   14.8530    0.0000 </r>
       <r>   14.9637    0.0000 </r>
       <r>   15.5111    0.0000 </r>
       <r>   15.8921    0.0000 </r>
       <r>   16.0174    0.0000 </r>
       <r>   16.4964    0.0000 </r>
       <r>   16.8017    0.0000 </r>
      </set>
      <set comment="kpoint 65">
       <r>  -15.4115    1.0000 </r>
       <r>  -15.4101    1.0000 </r>
       <r>  -15.4069    1.0000 </r>
       <r>  -15.4056    1.0000 </r>
       <r>  -15.3888    1.0000 </r>
       <r>  -15.3882    1.0000 </r>
       <r>  -15.3850    1.0000 </r>
       <r>  -15.3845    1.0000 </r>
       <r>  -15.3748    1.0000 </r>
       <r>  -15.3732    1.0000 </r>
       <r>  -15.3698    1.0000 </r>
       <r>  -15.3691    1.0000 </r>
       <r>  -15.3503    1.0000 </r>
       <r>  -15.3491    1.0000 </r>
       <r>  -15.3445    1.0000 </r>
       <r>  -15.3439    1.0000 </r>
       <r>  -15.3257    1.0000 </r>
       <r>  -15.3241    1.0000 </r>
       <r>  -15.3193    1.0000 </r>
       <r>  -15.3187    1.0000 </r>
       <r>   -6.9946    1.0000 </r>
       <r>   -6.9305    1.0000 </r>
       <r>   -6.7638    1.0000 </r>
       <r>   -6.7476    1.0000 </r>
       <r>   -1.7036    1.0000 </r>
       <r>   -1.4573    1.0000 </r>
       <r>   -1.3464    1.0000 </r>
       <r>   -1.1812    1.0000 </r>
       <r>    1.3646    1.0000 </r>
       <r>    1.6189    1.0000 </r>
       <r>    1.9202    1.0000 </r>
       <r>    2.1110    1.0000 </r>
       <r>    2.4654    1.0000 </r>
       <r>    2.9422    1.0000 </r>
       <r>    3.1292    1.0000 </r>
       <r>    3.5683    1.0000 </r>
       <r>    3.7575    1.0000 </r>
       <r>    4.1334    1.0000 </r>
       <r>    4.3910    1.0000 </r>
       <r>    4.7889    1.0000 </r>
       <r>    7.5378    0.0000 </r>
       <r>    7.9060    0.0000 </r>
       <r>    8.4580    0.0000 </r>
       <r>    8.7496    0.0000 </r>
       <r>    9.0891    0.0000 </r>
       <r>    9.1912    0.0000 </r>
       <r>    9.6446    0.0000 </r>
       <r>    9.7769    0.0000 </r>
       <r>   10.3957    0.0000 </r>
       <r>   10.6488    0.0000 </r>
       <r>   11.0416    0.0000 </r>
       <r>   11.3929    0.0000 </r>
       <r>   12.0835    0.0000 </r>
       <r>   12.2549    0.0000 </r>
       <r>   13.5146    0.0000 </r>
       <r>   13.6130    0.0000 </r>
       <r>   14.9346    0.0000 </r>
       <r>   15.2642    0.0000 </r>
       <r>   15.4210    0.0000 </r>
       <r>   16.0024    0.0000 </r>
       <r>   16.3628    0.0000 </r>
       <r>   16.5233    0.0000 </r>
       <r>   16.9327    0.0000 </r>
       <r>   17.2077    0.0000 </r>
      </set>
      <set comment="kpoint 66">
       <r>  -15.4116    1.0000 </r>
       <r>  -15.4101    1.0000 </r>
       <r>  -15.4069    1.0000 </r>
       <r>  -15.4057    1.0000 </r>
       <r>  -15.3889    1.0000 </r>
       <r>  -15.3880    1.0000 </r>
       <r>  -15.3849    1.0000 </r>
       <r>  -15.3846    1.0000 </r>
       <r>  -15.3749    1.0000 </r>
       <r>  -15.3732    1.0000 </r>
       <r>  -15.3697    1.0000 </r>
       <r>  -15.3691    1.0000 </r>
       <r>  -15.3503    1.0000 </r>
       <r>  -15.3490    1.0000 </r>
       <r>  -15.3444    1.0000 </r>
       <r>  -15.3439    1.0000 </r>
       <r>  -15.3256    1.0000 </r>
       <r>  -15.3241    1.0000 </r>
       <r>  -15.3193    1.0000 </r>
       <r>  -15.3187    1.0000 </r>
       <r>   -6.9947    1.0000 </r>
       <r>   -6.9304    1.0000 </r>
       <r>   -6.7640    1.0000 </r>
       <r>   -6.7475    1.0000 </r>
       <r>   -1.7080    1.0000 </r>
       <r>   -1.4512    1.0000 </r>
       <r>   -1.3400    1.0000 </r>
       <r>   -1.1893    1.0000 </r>
       <r>    1.3636    1.0000 </r>
       <r>    1.6201    1.0000 </r>
       <r>    1.9208    1.0000 </r>
       <r>    2.1107    1.0000 </r>
       <r>    2.4654    1.0000 </r>
       <r>    2.9409    1.0000 </r>
       <r>    3.1263    1.0000 </r>
       <r>    3.5735    1.0000 </r>
       <r>    3.7553    1.0000 </r>
       <r>    4.1352    1.0000 </r>
       <r>    4.3932    1.0000 </r>
       <r>    4.7861    1.0000 </r>
       <r>    7.5328    0.0000 </r>
       <r>    7.9119    0.0000 </r>
       <r>    8.4641    0.0000 </r>
       <r>    8.7426    0.0000 </r>
       <r>    9.0832    0.0000 </r>
       <r>    9.1864    0.0000 </r>
       <r>    9.6522    0.0000 </r>
       <r>    9.7771    0.0000 </r>
       <r>   10.4077    0.0000 </r>
       <r>   10.6451    0.0000 </r>
       <r>   11.0308    0.0000 </r>
       <r>   11.3984    0.0000 </r>
       <r>   12.0869    0.0000 </r>
       <r>   12.2521    0.0000 </r>
       <r>   13.5091    0.0000 </r>
       <r>   13.6165    0.0000 </r>
       <r>   14.9325    0.0000 </r>
       <r>   15.2778    0.0000 </r>
       <r>   15.4237    0.0000 </r>
       <r>   15.9946    0.0000 </r>
       <r>   16.3450    0.0000 </r>
       <r>   16.5288    0.0000 </r>
       <r>   16.9283    0.0000 </r>
       <r>   17.2123    0.0000 </r>
      </set>
      <set comment="kpoint 67">
       <r>  -15.4167    1.0000 </r>
       <r>  -15.4159    1.0000 </r>
       <r>  -15.4114    1.0000 </r>
       <r>  -15.4107    1.0000 </r>
       <r>  -15.3888    1.0000 </r>
       <r>  -15.3882    1.0000 </r>
       <r>  -15.3839    1.0000 </r>
       <r>  -15.3834    1.0000 </r>
       <r>  -15.3732    1.0000 </r>
       <r>  -15.3724    1.0000 </r>
       <r>  -15.3690    1.0000 </r>
       <r>  -15.3684    1.0000 </r>
       <r>  -15.3474    1.0000 </r>
       <r>  -15.3469    1.0000 </r>
       <r>  -15.3421    1.0000 </r>
       <r>  -15.3418    1.0000 </r>
       <r>  -15.3254    1.0000 </r>
       <r>  -15.3245    1.0000 </r>
       <r>  -15.3188    1.0000 </r>
       <r>  -15.3185    1.0000 </r>
       <r>   -6.8402    1.0000 </r>
       <r>   -6.7939    1.0000 </r>
       <r>   -6.6968    1.0000 </r>
       <r>   -6.6777    1.0000 </r>
       <r>   -1.3848    1.0000 </r>
       <r>   -1.2280    1.0000 </r>
       <r>   -1.0168    1.0000 </r>
       <r>   -0.9426    1.0000 </r>
       <r>    0.7868    1.0000 </r>
       <r>    1.1370    1.0000 </r>
       <r>    1.1958    1.0000 </r>
       <r>    1.6206    1.0000 </r>
       <r>    1.8366    1.0000 </r>
       <r>    2.2163    1.0000 </r>
       <r>    2.3648    1.0000 </r>
       <r>    2.8467    1.0000 </r>
       <r>    3.6687    1.0000 </r>
       <r>    3.9808    1.0000 </r>
       <r>    4.3641    1.0000 </r>
       <r>    4.5331    1.0000 </r>
       <r>    7.8529    0.0000 </r>
       <r>    8.1745    0.0000 </r>
       <r>    8.5968    0.0000 </r>
       <r>    8.8902    0.0000 </r>
       <r>    9.9759    0.0000 </r>
       <r>   10.0348    0.0000 </r>
       <r>   10.4467    0.0000 </r>
       <r>   10.5842    0.0000 </r>
       <r>   11.5501    0.0000 </r>
       <r>   11.8219    0.0000 </r>
       <r>   12.1318    0.0000 </r>
       <r>   12.1611    0.0000 </r>
       <r>   12.2434    0.0000 </r>
       <r>   12.4927    0.0000 </r>
       <r>   13.1563    0.0000 </r>
       <r>   13.2888    0.0000 </r>
       <r>   15.1621    0.0000 </r>
       <r>   15.3706    0.0000 </r>
       <r>   16.1663    0.0000 </r>
       <r>   16.3634    0.0000 </r>
       <r>   16.8174    0.0000 </r>
       <r>   16.9308    0.0000 </r>
       <r>   17.1037    0.0000 </r>
       <r>   17.1538    0.0000 </r>
      </set>
      <set comment="kpoint 68">
       <r>  -15.4167    1.0000 </r>
       <r>  -15.4159    1.0000 </r>
       <r>  -15.4113    1.0000 </r>
       <r>  -15.4107    1.0000 </r>
       <r>  -15.3888    1.0000 </r>
       <r>  -15.3881    1.0000 </r>
       <r>  -15.3838    1.0000 </r>
       <r>  -15.3835    1.0000 </r>
       <r>  -15.3733    1.0000 </r>
       <r>  -15.3725    1.0000 </r>
       <r>  -15.3689    1.0000 </r>
       <r>  -15.3684    1.0000 </r>
       <r>  -15.3474    1.0000 </r>
       <r>  -15.3468    1.0000 </r>
       <r>  -15.3421    1.0000 </r>
       <r>  -15.3418    1.0000 </r>
       <r>  -15.3254    1.0000 </r>
       <r>  -15.3245    1.0000 </r>
       <r>  -15.3188    1.0000 </r>
       <r>  -15.3185    1.0000 </r>
       <r>   -6.8403    1.0000 </r>
       <r>   -6.7937    1.0000 </r>
       <r>   -6.6970    1.0000 </r>
       <r>   -6.6775    1.0000 </r>
       <r>   -1.3886    1.0000 </r>
       <r>   -1.2238    1.0000 </r>
       <r>   -1.0117    1.0000 </r>
       <r>   -0.9479    1.0000 </r>
       <r>    0.7867    1.0000 </r>
       <r>    1.1368    1.0000 </r>
       <r>    1.1963    1.0000 </r>
       <r>    1.6205    1.0000 </r>
       <r>    1.8377    1.0000 </r>
       <r>    2.2129    1.0000 </r>
       <r>    2.3633    1.0000 </r>
       <r>    2.8501    1.0000 </r>
       <r>    3.6687    1.0000 </r>
       <r>    3.9813    1.0000 </r>
       <r>    4.3654    1.0000 </r>
       <r>    4.5325    1.0000 </r>
       <r>    7.8473    0.0000 </r>
       <r>    8.1783    0.0000 </r>
       <r>    8.5916    0.0000 </r>
       <r>    8.8950    0.0000 </r>
       <r>    9.9813    0.0000 </r>
       <r>   10.0281    0.0000 </r>
       <r>   10.4583    0.0000 </r>
       <r>   10.5734    0.0000 </r>
       <r>   11.5637    0.0000 </r>
       <r>   11.8126    0.0000 </r>
       <r>   12.1344    0.0000 </r>
       <r>   12.1498    0.0000 </r>
       <r>   12.2463    0.0000 </r>
       <r>   12.4994    0.0000 </r>
       <r>   13.1589    0.0000 </r>
       <r>   13.2829    0.0000 </r>
       <r>   15.1633    0.0000 </r>
       <r>   15.3676    0.0000 </r>
       <r>   16.1622    0.0000 </r>
       <r>   16.3687    0.0000 </r>
       <r>   16.8109    0.0000 </r>
       <r>   16.9273    0.0000 </r>
       <r>   17.1134    0.0000 </r>
       <r>   17.1620    0.0000 </r>
      </set>
      <set comment="kpoint 69">
       <r>  -15.4185    1.0000 </r>
       <r>  -15.4185    1.0000 </r>
       <r>  -15.4130    1.0000 </r>
       <r>  -15.4130    1.0000 </r>
       <r>  -15.3886    1.0000 </r>
       <r>  -15.3886    1.0000 </r>
       <r>  -15.3833    1.0000 </r>
       <r>  -15.3833    1.0000 </r>
       <r>  -15.3723    1.0000 </r>
       <r>  -15.3723    1.0000 </r>
       <r>  -15.3684    1.0000 </r>
       <r>  -15.3684    1.0000 </r>
       <r>  -15.3460    1.0000 </r>
       <r>  -15.3460    1.0000 </r>
       <r>  -15.3410    1.0000 </r>
       <r>  -15.3410    1.0000 </r>
       <r>  -15.3249    1.0000 </r>
       <r>  -15.3249    1.0000 </r>
       <r>  -15.3185    1.0000 </r>
       <r>  -15.3185    1.0000 </r>
       <r>   -6.7423    1.0000 </r>
       <r>   -6.7423    1.0000 </r>
       <r>   -6.6693    1.0000 </r>
       <r>   -6.6693    1.0000 </r>
       <r>   -1.2036    1.0000 </r>
       <r>   -1.2036    1.0000 </r>
       <r>   -0.7969    1.0000 </r>
       <r>   -0.7969    1.0000 </r>
       <r>    0.7419    1.0000 </r>
       <r>    0.7419    1.0000 </r>
       <r>    1.1659    1.0000 </r>
       <r>    1.1659    1.0000 </r>
       <r>    1.7345    1.0000 </r>
       <r>    1.7345    1.0000 </r>
       <r>    2.2719    1.0000 </r>
       <r>    2.2719    1.0000 </r>
       <r>    3.8722    1.0000 </r>
       <r>    3.8722    1.0000 </r>
       <r>    4.4088    1.0000 </r>
       <r>    4.4088    1.0000 </r>
       <r>    8.0400    0.0000 </r>
       <r>    8.0400    0.0000 </r>
       <r>    8.5839    0.0000 </r>
       <r>    8.5839    0.0000 </r>
       <r>   10.6283    0.0000 </r>
       <r>   10.6283    0.0000 </r>
       <r>   10.8088    0.0000 </r>
       <r>   10.8088    0.0000 </r>
       <r>   12.2050    0.0000 </r>
       <r>   12.2050    0.0000 </r>
       <r>   12.4880    0.0000 </r>
       <r>   12.4880    0.0000 </r>
       <r>   12.6058    0.0000 </r>
       <r>   12.6058    0.0000 </r>
       <r>   13.1788    0.0000 </r>
       <r>   13.1788    0.0000 </r>
       <r>   15.4318    0.0000 </r>
       <r>   15.4318    0.0000 </r>
       <r>   16.3667    0.0000 </r>
       <r>   16.3667    0.0000 </r>
       <r>   16.9510    0.0000 </r>
       <r>   16.9510    0.0000 </r>
       <r>   17.1576    0.0000 </r>
       <r>   17.1576    0.0000 </r>
      </set>
      <set comment="kpoint 70">
       <r>  -15.4185    1.0000 </r>
       <r>  -15.4185    1.0000 </r>
       <r>  -15.4130    1.0000 </r>
       <r>  -15.4130    1.0000 </r>
       <r>  -15.3886    1.0000 </r>
       <r>  -15.3886    1.0000 </r>
       <r>  -15.3833    1.0000 </r>
       <r>  -15.3833    1.0000 </r>
       <r>  -15.3724    1.0000 </r>
       <r>  -15.3724    1.0000 </r>
       <r>  -15.3683    1.0000 </r>
       <r>  -15.3683    1.0000 </r>
       <r>  -15.3460    1.0000 </r>
       <r>  -15.3460    1.0000 </r>
       <r>  -15.3410    1.0000 </r>
       <r>  -15.3410    1.0000 </r>
       <r>  -15.3249    1.0000 </r>
       <r>  -15.3249    1.0000 </r>
       <r>  -15.3185    1.0000 </r>
       <r>  -15.3185    1.0000 </r>
       <r>   -6.7423    1.0000 </r>
       <r>   -6.7423    1.0000 </r>
       <r>   -6.6692    1.0000 </r>
       <r>   -6.6692    1.0000 </r>
       <r>   -1.2042    1.0000 </r>
       <r>   -1.2042    1.0000 </r>
       <r>   -0.7959    1.0000 </r>
       <r>   -0.7959    1.0000 </r>
       <r>    0.7429    1.0000 </r>
       <r>    0.7429    1.0000 </r>
       <r>    1.1644    1.0000 </r>
       <r>    1.1644    1.0000 </r>
       <r>    1.7331    1.0000 </r>
       <r>    1.7331    1.0000 </r>
       <r>    2.2735    1.0000 </r>
       <r>    2.2735    1.0000 </r>
       <r>    3.8719    1.0000 </r>
       <r>    3.8719    1.0000 </r>
       <r>    4.4099    1.0000 </r>
       <r>    4.4099    1.0000 </r>
       <r>    8.0347    0.0000 </r>
       <r>    8.0347    0.0000 </r>
       <r>    8.5884    0.0000 </r>
       <r>    8.5884    0.0000 </r>
       <r>   10.6270    0.0000 </r>
       <r>   10.6270    0.0000 </r>
       <r>   10.8107    0.0000 </r>
       <r>   10.8107    0.0000 </r>
       <r>   12.2079    0.0000 </r>
       <r>   12.2079    0.0000 </r>
       <r>   12.4918    0.0000 </r>
       <r>   12.4918    0.0000 </r>
       <r>   12.5993    0.0000 </r>
       <r>   12.5993    0.0000 </r>
       <r>   13.1780    0.0000 </r>
       <r>   13.1780    0.0000 </r>
       <r>   15.4331    0.0000 </r>
       <r>   15.4331    0.0000 </r>
       <r>   16.3653    0.0000 </r>
       <r>   16.3653    0.0000 </r>
       <r>   16.9437    0.0000 </r>
       <r>   16.9437    0.0000 </r>
       <r>   17.1657    0.0000 </r>
       <r>   17.1657    0.0000 </r>
      </set>
     </set>
    </set>
   </array>
  </eigenvalues>
  <separator name="orbital magnetization" >
   <v name="MAGDIPOLOUT">      0.00000000      0.00000000      0.00000000</v>
  </separator>
  <dos>
   <i name="efermi">      5.96872383 </i>
   <total>
    <array>
     <dimension dim="1">gridpoints</dimension>
     <dimension dim="2">spin</dimension>
     <field>energy</field>
     <field>total</field>
     <field>integrated</field>
     <set>
      <set comment="spin 1">
       <r>   -17.0819     0.0000     0.0000 </r>
       <r>   -16.9601     0.0000     0.0000 </r>
       <r>   -16.8383     0.0000     0.0000 </r>
       <r>   -16.7165     0.0000     0.0000 </r>
       <r>   -16.5947     0.0000     0.0000 </r>
       <r>   -16.4729     0.0000     0.0000 </r>
       <r>   -16.3511     0.0000     0.0000 </r>
       <r>   -16.2293     0.0000     0.0000 </r>
       <r>   -16.1075     0.0000     0.0000 </r>
       <r>   -15.9857     0.0000     0.0000 </r>
       <r>   -15.8639     0.0000     0.0000 </r>
       <r>   -15.7421     0.0000     0.0000 </r>
       <r>   -15.6203     0.0000     0.0000 </r>
       <r>   -15.4985     0.0000     0.0000 </r>
       <r>   -15.3767   155.3568    18.9224 </r>
       <r>   -15.2549    65.4536    40.0000 </r>
       <r>   -15.1331     0.0000    40.0000 </r>
       <r>   -15.0113     0.0000    40.0000 </r>
       <r>   -14.8895     0.0000    40.0000 </r>
       <r>   -14.7677     0.0000    40.0000 </r>
       <r>   -14.6459     0.0000    40.0000 </r>
       <r>   -14.5241     0.0000    40.0000 </r>
       <r>   -14.4023     0.0000    40.0000 </r>
       <r>   -14.2805     0.0000    40.0000 </r>
       <r>   -14.1587     0.0000    40.0000 </r>
       <r>   -14.0369     0.0000    40.0000 </r>
       <r>   -13.9151     0.0000    40.0000 </r>
       <r>   -13.7933     0.0000    40.0000 </r>
       <r>   -13.6715     0.0000    40.0000 </r>
       <r>   -13.5497     0.0000    40.0000 </r>
       <r>   -13.4279     0.0000    40.0000 </r>
       <r>   -13.3061     0.0000    40.0000 </r>
       <r>   -13.1843     0.0000    40.0000 </r>
       <r>   -13.0625     0.0000    40.0000 </r>
       <r>   -12.9407     0.0000    40.0000 </r>
       <r>   -12.8189     0.0000    40.0000 </r>
       <r>   -12.6971     0.0000    40.0000 </r>
       <r>   -12.5753     0.0000    40.0000 </r>
       <r>   -12.4535     0.0000    40.0000 </r>
       <r>   -12.3317     0.0000    40.0000 </r>
       <r>   -12.2099     0.0000    40.0000 </r>
       <r>   -12.0881     0.0000    40.0000 </r>
       <r>   -11.9663     0.0000    40.0000 </r>
       <r>   -11.8445     0.0000    40.0000 </r>
       <r>   -11.7227     0.0000    40.0000 </r>
       <r>   -11.6009     0.0000    40.0000 </r>
       <r>   -11.4791     0.0000    40.0000 </r>
       <r>   -11.3573     0.0000    40.0000 </r>
       <r>   -11.2355     0.0000    40.0000 </r>
       <r>   -11.1137     0.0000    40.0000 </r>
       <r>   -10.9919     0.0000    40.0000 </r>
       <r>   -10.8701     0.0000    40.0000 </r>
       <r>   -10.7483     0.0000    40.0000 </r>
       <r>   -10.6265     0.0000    40.0000 </r>
       <r>   -10.5047     0.0000    40.0000 </r>
       <r>   -10.3829     0.0000    40.0000 </r>
       <r>   -10.2611     0.0000    40.0000 </r>
       <r>   -10.1393     0.0000    40.0000 </r>
       <r>   -10.0175     0.0000    40.0000 </r>
       <r>    -9.8957     0.0000    40.0000 </r>
       <r>    -9.7739     0.0000    40.0000 </r>
       <r>    -9.6521     0.0000    40.0000 </r>
       <r>    -9.5303     0.0000    40.0000 </r>
       <r>    -9.4085     0.0000    40.0000 </r>
       <r>    -9.2867     0.0000    40.0000 </r>
       <r>    -9.1649     0.0000    40.0000 </r>
       <r>    -9.0431     0.0000    40.0000 </r>
       <r>    -8.9213     0.0000    40.0000 </r>
       <r>    -8.7995     0.0000    40.0000 </r>
       <r>    -8.6777     0.0000    40.0000 </r>
       <r>    -8.5559     0.0000    40.0000 </r>
       <r>    -8.4341     0.0000    40.0000 </r>
       <r>    -8.3123     0.0000    40.0000 </r>
       <r>    -8.1905     0.0019    40.0002 </r>
       <r>    -8.0687     0.4561    40.0648 </r>
       <r>    -7.9469     0.5984    40.2488 </r>
       <r>    -7.8251     1.6715    40.4721 </r>
       <r>    -7.7033     1.9700    40.7677 </r>
       <r>    -7.5815     2.3131    41.1151 </r>
       <r>    -7.4597     2.8693    41.5532 </r>
       <r>    -7.3379     1.4255    41.8588 </r>
       <r>    -7.2161     2.2782    42.4071 </r>
       <r>    -7.0943     2.2739    42.8881 </r>
       <r>    -6.9725     3.9491    43.6014 </r>
       <r>    -6.8507     8.1488    44.7240 </r>
       <r>    -6.7289     8.4379    46.1481 </r>
       <r>    -6.6071     7.7540    47.4907 </r>
       <r>    -6.4853     1.8919    47.9990 </r>
       <r>    -6.3635     0.0000    48.0000 </r>
       <r>    -6.2417     0.0000    48.0000 </r>
       <r>    -6.1199     0.0000    48.0000 </r>
       <r>    -5.9981     0.0000    48.0000 </r>
       <r>    -5.8763     0.0000    48.0000 </r>
       <r>    -5.7545     0.0000    48.0000 </r>
       <r>    -5.6327     0.0000    48.0000 </r>
       <r>    -5.5109     0.0000    48.0000 </r>
       <r>    -5.3891     0.0000    48.0000 </r>
       <r>    -5.2673     0.0000    48.0000 </r>
       <r>    -5.1455     0.0000    48.0000 </r>
       <r>    -5.0237     0.0000    48.0000 </r>
       <r>    -4.9019     0.0000    48.0000 </r>
       <r>    -4.7801     0.0000    48.0000 </r>
       <r>    -4.6583     0.0000    48.0000 </r>
       <r>    -4.5365     0.0000    48.0000 </r>
       <r>    -4.4147     0.0000    48.0000 </r>
       <r>    -4.2929     0.0000    48.0000 </r>
       <r>    -4.1711     0.0000    48.0000 </r>
       <r>    -4.0493     0.0000    48.0000 </r>
       <r>    -3.9275     0.0000    48.0000 </r>
       <r>    -3.8057     0.0000    48.0000 </r>
       <r>    -3.6839     0.0000    48.0000 </r>
       <r>    -3.5621     0.0000    48.0000 </r>
       <r>    -3.4403     0.0000    48.0000 </r>
       <r>    -3.3185     0.0000    48.0000 </r>
       <r>    -3.1967     0.0000    48.0000 </r>
       <r>    -3.0749     0.0000    48.0000 </r>
       <r>    -2.9531     0.0000    48.0000 </r>
       <r>    -2.8313     0.0000    48.0000 </r>
       <r>    -2.7095     0.0000    48.0000 </r>
       <r>    -2.5877     0.1248    48.0152 </r>
       <r>    -2.4659     0.4564    48.0741 </r>
       <r>    -2.3441     1.3438    48.3118 </r>
       <r>    -2.2223     0.6380    48.4110 </r>
       <r>    -2.1005     2.1387    48.7049 </r>
       <r>    -1.9787     1.8590    49.0968 </r>
       <r>    -1.8569     1.1493    49.4733 </r>
       <r>    -1.7351     2.2452    49.9401 </r>
       <r>    -1.6133     2.5349    50.4384 </r>
       <r>    -1.4915     1.9343    50.8838 </r>
       <r>    -1.3697     2.4981    51.3691 </r>
       <r>    -1.2479     0.6101    51.7132 </r>
       <r>    -1.1261     3.2425    52.2931 </r>
       <r>    -1.0043     2.5911    52.8063 </r>
       <r>    -0.8825     1.5240    53.2504 </r>
       <r>    -0.7607     3.5022    54.0655 </r>
       <r>    -0.6389     2.1918    54.5540 </r>
       <r>    -0.5171     1.5722    54.7933 </r>
       <r>    -0.3953     1.6287    55.0780 </r>
       <r>    -0.2735     1.3419    55.2838 </r>
       <r>    -0.1517     1.1862    55.4686 </r>
       <r>    -0.0299     0.3041    55.5370 </r>
       <r>     0.0919     0.5272    55.6012 </r>
       <r>     0.2137     0.0000    55.6574 </r>
       <r>     0.3355     1.2163    55.8056 </r>
       <r>     0.4573     0.7354    55.8951 </r>
       <r>     0.5791     0.3041    55.9907 </r>
       <r>     0.7009     0.0024    56.0281 </r>
       <r>     0.8227     1.2327    56.2705 </r>
       <r>     0.9445     0.5273    56.4531 </r>
       <r>     1.0663     0.9815    56.6473 </r>
       <r>     1.1881     2.6647    57.1116 </r>
       <r>     1.3099     2.1107    57.4886 </r>
       <r>     1.4317     4.4378    58.0868 </r>
       <r>     1.5535     2.0827    58.4666 </r>
       <r>     1.6753     1.8161    58.8786 </r>
       <r>     1.7971     2.5896    59.3061 </r>
       <r>     1.9189     3.3129    59.9313 </r>
       <r>     2.0407     2.4705    60.3657 </r>
       <r>     2.1625     3.5159    60.9560 </r>
       <r>     2.2843     5.0052    61.7670 </r>
       <r>     2.4061     3.8068    62.5007 </r>
       <r>     2.5279     2.3123    62.9853 </r>
       <r>     2.6497     4.4545    63.7092 </r>
       <r>     2.7715     1.3644    64.0551 </r>
       <r>     2.8933     4.1853    64.7135 </r>
       <r>     3.0151     4.5833    65.5397 </r>
       <r>     3.1369     3.0237    66.0720 </r>
       <r>     3.2587     3.1301    66.6590 </r>
       <r>     3.3805     3.7354    67.3994 </r>
       <r>     3.5023     6.0146    68.4455 </r>
       <r>     3.6241     3.9660    68.9738 </r>
       <r>     3.7459     4.1244    69.8079 </r>
       <r>     3.8677     2.9629    70.4442 </r>
       <r>     3.9895     4.3491    71.2982 </r>
       <r>     4.1113     5.2407    72.2494 </r>
       <r>     4.2331     2.5064    72.8979 </r>
       <r>     4.3549     3.9893    73.5322 </r>
       <r>     4.4767     2.8583    74.2092 </r>
       <r>     4.5985     1.8989    74.8146 </r>
       <r>     4.7203     1.9995    75.2435 </r>
       <r>     4.8421     4.9055    76.1901 </r>
       <r>     4.9639     2.5375    76.5498 </r>
       <r>     5.0857     4.3929    77.2758 </r>
       <r>     5.2075     4.5142    77.9943 </r>
       <r>     5.3293     5.5161    79.0144 </r>
       <r>     5.4511     4.4093    79.6482 </r>
       <r>     5.5729     0.6198    79.7607 </r>
       <r>     5.6947     0.6094    79.8890 </r>
       <r>     5.8165     0.1722    79.9469 </r>
       <r>     5.9383     0.1520    80.0000 </r>
       <r>     6.0601     0.0000    80.0000 </r>
       <r>     6.1819     0.0000    80.0000 </r>
       <r>     6.3037     0.0114    80.0014 </r>
       <r>     6.4255     0.3042    80.0833 </r>
       <r>     6.5473     0.6078    80.1759 </r>
       <r>     6.6691     1.1190    80.3122 </r>
       <r>     6.7909     1.3455    80.4880 </r>
       <r>     6.9127     1.5648    80.7184 </r>
       <r>     7.0345     0.5507    80.8541 </r>
       <r>     7.1563     3.4879    81.4341 </r>
       <r>     7.2781     2.6835    81.9287 </r>
       <r>     7.3999     2.6941    82.5596 </r>
       <r>     7.5217     1.4431    82.9443 </r>
       <r>     7.6435     3.8995    83.6138 </r>
       <r>     7.7653     1.4556    84.0754 </r>
       <r>     7.8871     4.4939    84.8529 </r>
       <r>     8.0089     1.5784    85.2571 </r>
       <r>     8.1307     0.6116    85.6949 </r>
       <r>     8.2525     5.1792    86.3623 </r>
       <r>     8.3743     2.8620    86.8578 </r>
       <r>     8.4961     4.4933    87.5010 </r>
       <r>     8.6179     2.8905    88.1391 </r>
       <r>     8.7397     2.7999    88.6651 </r>
       <r>     8.8615     3.3252    89.4976 </r>
       <r>     8.9833     5.2865    90.5235 </r>
       <r>     9.1051     5.0879    91.4345 </r>
       <r>     9.2269     4.1546    92.0245 </r>
       <r>     9.3487     5.1017    92.7232 </r>
       <r>     9.4705     3.4118    93.3230 </r>
       <r>     9.5923     1.8895    93.6561 </r>
       <r>     9.7141     2.4327    94.1111 </r>
       <r>     9.8359     1.9986    94.5027 </r>
       <r>     9.9577     5.0579    95.2086 </r>
       <r>    10.0795     3.5544    95.8588 </r>
       <r>    10.2013     2.6589    96.2961 </r>
       <r>    10.3231     4.0968    97.0083 </r>
       <r>    10.4449     3.8136    97.6775 </r>
       <r>    10.5667     2.8370    98.4011 </r>
       <r>    10.6885     4.3172    99.2203 </r>
       <r>    10.8103     5.1513    99.9330 </r>
       <r>    10.9321     2.9018   100.6683 </r>
       <r>    11.0539     4.8741   101.5011 </r>
       <r>    11.1757     1.8175   101.8880 </r>
       <r>    11.2975     1.9584   102.2200 </r>
       <r>    11.4193     2.8433   102.6982 </r>
       <r>    11.5411     2.5235   103.2611 </r>
       <r>    11.6629     1.9181   103.6688 </r>
       <r>    11.7847     2.2911   104.1402 </r>
       <r>    11.9065     2.5201   104.6218 </r>
       <r>    12.0283     2.8742   105.0908 </r>
       <r>    12.1501     4.3488   105.6686 </r>
       <r>    12.2719     5.2380   106.4806 </r>
       <r>    12.3937     1.9719   106.9161 </r>
       <r>    12.5155     2.5594   107.3580 </r>
       <r>    12.6373     2.5170   107.7047 </r>
       <r>    12.7591     3.4508   108.3925 </r>
       <r>    12.8809     2.3490   108.8139 </r>
       <r>    13.0027     3.2616   109.4991 </r>
       <r>    13.1245     2.0745   109.8360 </r>
       <r>    13.2463     4.2117   110.5963 </r>
       <r>    13.3680     2.4648   110.9761 </r>
       <r>    13.4898     2.0141   111.4953 </r>
       <r>    13.6116     2.5464   111.9861 </r>
       <r>    13.7334     0.7288   112.2184 </r>
       <r>    13.8552     2.2023   112.6757 </r>
       <r>    13.9770     4.8753   113.5753 </r>
       <r>    14.0988     1.8297   114.0747 </r>
       <r>    14.2206     4.4124   114.7411 </r>
       <r>    14.3424     3.3705   115.2439 </r>
       <r>    14.4642     1.9468   115.7371 </r>
       <r>    14.5860     2.6882   116.1422 </r>
       <r>    14.7078     4.5398   116.8029 </r>
       <r>    14.8296     1.8963   117.2495 </r>
       <r>    14.9514     3.9074   117.9574 </r>
       <r>    15.0732     1.0643   118.2407 </r>
       <r>    15.1950     4.3315   118.8239 </r>
       <r>    15.3168     4.9082   119.6349 </r>
       <r>    15.4386     5.1489   120.4790 </r>
       <r>    15.5604     4.3518   121.2152 </r>
       <r>    15.6822     1.9187   121.6781 </r>
       <r>    15.8040     4.5651   122.4449 </r>
       <r>    15.9258     3.0020   122.9027 </r>
       <r>    16.0476     5.5861   123.8470 </r>
       <r>    16.1694     2.7763   124.2641 </r>
       <r>    16.2912     1.8851   124.6185 </r>
       <r>    16.4130     4.0781   125.1819 </r>
       <r>    16.5348     3.0833   125.7274 </r>
       <r>    16.6566     2.7740   126.2638 </r>
       <r>    16.7784     1.7359   126.6374 </r>
       <r>    16.9002     0.9011   126.9246 </r>
       <r>    17.0220     2.1258   127.3330 </r>
       <r>    17.1438     0.8624   127.4754 </r>
       <r>    17.2656     0.9122   127.8519 </r>
       <r>    17.3874     0.0000   127.8889 </r>
       <r>    17.5092     0.0000   127.8889 </r>
       <r>    17.6310     0.3734   127.9344 </r>
       <r>    17.7528     0.0000   127.9630 </r>
       <r>    17.8746     0.3041   128.0000 </r>
       <r>    17.9964     0.0000   128.0000 </r>
       <r>    18.1182     0.0000   128.0000 </r>
       <r>    18.2400     0.0000   128.0000 </r>
       <r>    18.3618     0.0000   128.0000 </r>
       <r>    18.4836     0.0000   128.0000 </r>
       <r>    18.6054     0.0000   128.0000 </r>
       <r>    18.7272     0.0000   128.0000 </r>
       <r>    18.8490     0.0000   128.0000 </r>
       <r>    18.9708     0.0000   128.0000 </r>
       <r>    19.0926     0.0000   128.0000 </r>
       <r>    19.2144     0.0000   128.0000 </r>
       <r>    19.3362     0.0000   128.0000 </r>
       <r>    19.4580     0.0000   128.0000 </r>
      </set>
     </set>
    </array>
   </total>
  </dos>
 </calculation>
 <structure name="finalpos" >
  <crystal>
   <varray name="basis" >
    <v>       4.34539863       0.00000000       0.00000000 </v>
    <v>       0.00000000       4.11936655       0.00000000 </v>
    <v>       0.00000000       0.00000000      11.35478920 </v>
   </varray>
   <i name="volume">    203.25401695 </i>
   <varray name="rec_basis" >
    <v>       0.23012848       0.00000000       0.00000000 </v>
    <v>       0.00000000       0.24275577       0.00000000 </v>
    <v>       0.00000000       0.00000000       0.08806857 </v>
   </varray>
  </crystal>
  <varray name="positions" >
   <v>       0.09903631       0.25047891       0.11539711 </v>
   <v>       0.40096369       0.25047891       0.61539711 </v>
   <v>       0.59903631       0.74952109       0.38460289 </v>
   <v>       0.90096369       0.74952109       0.88460289 </v>
   <v>       0.02605052       0.25123329       0.35675466 </v>
   <v>       0.47394948       0.25123329       0.85675466 </v>
   <v>       0.52605052       0.74876671       0.14324534 </v>
   <v>       0.97394948       0.74876671       0.64324534 </v>
  </varray>
 </structure>
</modeling>
