<?xml version="1.0" encoding="ISO-8859-1"?>
<modeling>
 <generator>
  <i name="program" type="string">vasp </i>
  <i name="version" type="string">6.2.0  </i>
  <i name="subversion" type="string">18Jan21 (build Mar  1 2021 20:13:55) complex                          parallel </i>
  <i name="platform" type="string">HPECrayEX_GCC </i>
  <i name="date" type="string">2026 03 07 </i>
  <i name="time" type="string">08:01:49 </i>
 </generator>
 <incar>
  <i type="string" name="SYSTEM">Pnma SnSe</i>
  <i type="string" name="PREC">Accurate</i>
  <i type="string" name="ALGO">Normal</i>
  <i type="logical" name="ADDGRID"> T  </i>
  <i type="int" name="NELM">   250</i>
  <i type="int" name="NELMIN">     5</i>
  <i name="EDIFF">      0.00000001</i>
  <i type="int" name="NSW">     0</i>
  <i type="int" name="ISIF">     2</i>
  <i name="ENCUT">    700.00000000</i>
  <i type="logical" name="LREAL"> F  </i>
  <i type="int" name="ISMEAR">     0</i>
  <i name="SIGMA">      0.01000000</i>
  <i type="logical" name="LWAVE"> F  </i>
  <i type="logical" name="LCHARG"> F  </i>
  <i type="logical" name="LASPH"> T  </i>
  <i type="string" name="GGA">PS</i>
  <i type="logical" name="LEPSILON"> T  </i>
  <i type="int" name="IVDW">    11</i>
 </incar>
 <primitive_cell>
  <structure name="primitive_cell" >
   <crystal>
    <varray name="basis" >
     <v>       4.34539863       0.00000000       0.00000000 </v>
     <v>       0.00000000       4.11936655       0.00000000 </v>
     <v>       0.00000000       0.00000000      11.35478920 </v>
    </varray>
    <i name="volume">    203.25401695 </i>
    <varray name="rec_basis" >
     <v>       0.23012848       0.00000000       0.00000000 </v>
     <v>       0.00000000       0.24275577       0.00000000 </v>
     <v>       0.00000000       0.00000000       0.08806857 </v>
    </varray>
   </crystal>
   <varray name="positions" >
    <v>       0.09814158       0.25000000       0.11548645 </v>
    <v>       0.40185842       0.25000000       0.61548645 </v>
    <v>       0.59814158       0.75000000       0.38451355 </v>
    <v>       0.90185842       0.75000000       0.88451355 </v>
    <v>       0.02542773       0.25000000       0.35677710 </v>
    <v>       0.47457227       0.25000000       0.85677710 </v>
    <v>       0.52542773       0.75000000       0.14322290 </v>
    <v>       0.97457227       0.75000000       0.64322290 </v>
   </varray>
  </structure>
  <varray name="primitive_index" >
   <v type="int" >        1 </v>
   <v type="int" >        2 </v>
   <v type="int" >        3 </v>
   <v type="int" >        4 </v>
   <v type="int" >        5 </v>
   <v type="int" >        6 </v>
   <v type="int" >        7 </v>
   <v type="int" >        8 </v>
  </varray>
 </primitive_cell>
 <kpoints>
  <generation param="Gamma">
   <v type="int" name="divisions">       8        9        3 </v>
   <v name="usershift">      0.00000000       0.00000000       0.00000000 </v>
   <v name="genvec1">      0.12500000       0.00000000       0.00000000 </v>
   <v name="genvec2">      0.00000000       0.11111111       0.00000000 </v>
   <v name="genvec3">      0.00000000       0.00000000       0.33333333 </v>
   <v name="shift">      0.00000000       0.00000000       0.00000000 </v>
  </generation>
  <varray name="kpointlist" >
   <v>       0.00000000       0.00000000       0.00000000 </v>
   <v>       0.12500000       0.00000000       0.00000000 </v>
   <v>       0.25000000       0.00000000       0.00000000 </v>
   <v>       0.37500000       0.00000000       0.00000000 </v>
   <v>       0.50000000       0.00000000       0.00000000 </v>
   <v>       0.00000000       0.11111111       0.00000000 </v>
   <v>       0.12500000       0.11111111       0.00000000 </v>
   <v>       0.25000000       0.11111111       0.00000000 </v>
   <v>       0.37500000       0.11111111       0.00000000 </v>
   <v>       0.50000000       0.11111111       0.00000000 </v>
   <v>       0.00000000       0.22222222       0.00000000 </v>
   <v>       0.12500000       0.22222222       0.00000000 </v>
   <v>       0.25000000       0.22222222       0.00000000 </v>
   <v>       0.37500000       0.22222222       0.00000000 </v>
   <v>       0.50000000       0.22222222       0.00000000 </v>
   <v>       0.00000000       0.33333333       0.00000000 </v>
   <v>       0.12500000       0.33333333       0.00000000 </v>
   <v>       0.25000000       0.33333333       0.00000000 </v>
   <v>       0.37500000       0.33333333       0.00000000 </v>
   <v>       0.50000000       0.33333333       0.00000000 </v>
   <v>       0.00000000       0.44444444       0.00000000 </v>
   <v>       0.12500000       0.44444444       0.00000000 </v>
   <v>       0.25000000       0.44444444       0.00000000 </v>
   <v>       0.37500000       0.44444444       0.00000000 </v>
   <v>       0.50000000       0.44444444       0.00000000 </v>
   <v>       0.00000000       0.00000000       0.33333333 </v>
   <v>       0.12500000       0.00000000       0.33333333 </v>
   <v>       0.25000000       0.00000000       0.33333333 </v>
   <v>       0.37500000       0.00000000       0.33333333 </v>
   <v>       0.50000000       0.00000000       0.33333333 </v>
   <v>       0.00000000       0.11111111       0.33333333 </v>
   <v>       0.12500000       0.11111111       0.33333333 </v>
   <v>       0.25000000       0.11111111       0.33333333 </v>
   <v>       0.37500000       0.11111111       0.33333333 </v>
   <v>       0.50000000       0.11111111       0.33333333 </v>
   <v>       0.00000000       0.22222222       0.33333333 </v>
   <v>       0.12500000       0.22222222       0.33333333 </v>
   <v>       0.25000000       0.22222222       0.33333333 </v>
   <v>       0.37500000       0.22222222       0.33333333 </v>
   <v>       0.50000000       0.22222222       0.33333333 </v>
   <v>       0.00000000       0.33333333       0.33333333 </v>
   <v>       0.12500000       0.33333333       0.33333333 </v>
   <v>       0.25000000       0.33333333       0.33333333 </v>
   <v>       0.37500000       0.33333333       0.33333333 </v>
   <v>       0.50000000       0.33333333       0.33333333 </v>
   <v>       0.00000000       0.44444444       0.33333333 </v>
   <v>       0.12500000       0.44444444       0.33333333 </v>
   <v>       0.25000000       0.44444444       0.33333333 </v>
   <v>       0.37500000       0.44444444       0.33333333 </v>
   <v>       0.50000000       0.44444444       0.33333333 </v>
  </varray>
  <varray name="weights" >
   <v>       0.00462963 </v>
   <v>       0.00925926 </v>
   <v>       0.00925926 </v>
   <v>       0.00925926 </v>
   <v>       0.00462963 </v>
   <v>       0.00925926 </v>
   <v>       0.01851852 </v>
   <v>       0.01851852 </v>
   <v>       0.01851852 </v>
   <v>       0.00925926 </v>
   <v>       0.00925926 </v>
   <v>       0.01851852 </v>
   <v>       0.01851852 </v>
   <v>       0.01851852 </v>
   <v>       0.00925926 </v>
   <v>       0.00925926 </v>
   <v>       0.01851852 </v>
   <v>       0.01851852 </v>
   <v>       0.01851852 </v>
   <v>       0.00925926 </v>
   <v>       0.00925926 </v>
   <v>       0.01851852 </v>
   <v>       0.01851852 </v>
   <v>       0.01851852 </v>
   <v>       0.00925926 </v>
   <v>       0.00925926 </v>
   <v>       0.01851852 </v>
   <v>       0.01851852 </v>
   <v>       0.01851852 </v>
   <v>       0.00925926 </v>
   <v>       0.01851852 </v>
   <v>       0.03703704 </v>
   <v>       0.03703704 </v>
   <v>       0.03703704 </v>
   <v>       0.01851852 </v>
   <v>       0.01851852 </v>
   <v>       0.03703704 </v>
   <v>       0.03703704 </v>
   <v>       0.03703704 </v>
   <v>       0.01851852 </v>
   <v>       0.01851852 </v>
   <v>       0.03703704 </v>
   <v>       0.03703704 </v>
   <v>       0.03703704 </v>
   <v>       0.01851852 </v>
   <v>       0.01851852 </v>
   <v>       0.03703704 </v>
   <v>       0.03703704 </v>
   <v>       0.03703704 </v>
   <v>       0.01851852 </v>
  </varray>
 </kpoints>
 <parameters>
  <separator name="general" >
   <i type="string" name="SYSTEM">Pnma SnSe</i>
   <i type="logical" name="LCOMPAT"> F  </i>
  </separator>
  <separator name="electronic" >
   <i type="string" name="PREC">accura</i>
   <i name="ENMAX">    700.00000000</i>
   <i name="ENAUG">    446.84200000</i>
   <i name="EDIFF">      0.00000001</i>
   <i type="int" name="IALGO">    38</i>
   <i type="int" name="IWAVPR">    10</i>
   <i type="int" name="NBANDS">    64</i>
   <i type="int" name="NBANDSLOW">    -1</i>
   <i type="int" name="NBANDSHIGH">    -1</i>
   <i name="NELECT">     80.00000000</i>
   <i type="int" name="TURBO">     0</i>
   <i type="int" name="IRESTART">     0</i>
   <i type="int" name="NREBOOT">     0</i>
   <i type="int" name="NMIN">     0</i>
   <i name="EREF">      0.00000000</i>
   <separator name="electronic smearing" >
    <i type="int" name="ISMEAR">     0</i>
    <i name="SIGMA">      0.01000000</i>
    <i name="KSPACING">      0.50000000</i>
    <i type="logical" name="KGAMMA"> T  </i>
    <i type="logical" name="KBLOWUP"> T  </i>
   </separator>
   <separator name="electronic projectors" >
    <i type="logical" name="LREAL"> F  </i>
    <v name="ROPT">      0.00000000      0.00000000</v>
    <i type="int" name="LMAXPAW">  -100</i>
    <i type="int" name="LMAXMIX">     2</i>
    <i type="logical" name="NLSPLINE"> F  </i>
   </separator>
   <separator name="electronic startup" >
    <i type="int" name="ISTART">     0</i>
    <i type="int" name="ICHARG">     2</i>
    <i type="int" name="INIWAV">     1</i>
   </separator>
   <separator name="electronic spin" >
    <i type="int" name="ISPIN">     1</i>
    <i type="logical" name="LNONCOLLINEAR"> F  </i>
    <v name="MAGMOM">      1.00000000      1.00000000      1.00000000      1.00000000      1.00000000      1.00000000      1.00000000      1.00000000</v>
    <i name="NUPDOWN">     -1.00000000</i>
    <i type="logical" name="LSORBIT"> F  </i>
    <v name="SAXIS">      0.00000000      0.00000000      1.00000000</v>
    <i type="logical" name="LSPIRAL"> F  </i>
    <v name="QSPIRAL">      0.00000000      0.00000000      0.00000000</v>
    <i type="logical" name="LZEROZ"> F  </i>
   </separator>
   <separator name="electronic exchange-correlation" >
    <i type="logical" name="LASPH"> T  </i>
    <i type="logical" name="LMETAGGA"> F  </i>
   </separator>
   <separator name="electronic convergence" >
    <i type="int" name="NELM">   250</i>
    <i type="int" name="NELMDL">    -5</i>
    <i type="int" name="NELMIN">     5</i>
    <i name="ENINI">    700.00000000</i>
    <separator name="electronic convergence detail" >
     <i type="logical" name="LDIAG"> T  </i>
     <i type="logical" name="LSUBROT"> F  </i>
     <i name="WEIMIN">      0.00000000</i>
     <i name="EBREAK">      0.00000000</i>
     <i name="DEPER">      0.30000000</i>
     <i type="int" name="NRMM">     4</i>
     <i name="TIME">      0.40000000</i>
    </separator>
   </separator>
   <separator name="electronic mixer" >
    <i name="AMIX">      0.40000000</i>
    <i name="BMIX">      1.00000000</i>
    <i name="AMIN">      0.10000000</i>
    <i name="AMIX_MAG">      1.60000000</i>
    <i name="BMIX_MAG">      1.00000000</i>
    <separator name="electronic mixer details" >
     <i type="int" name="IMIX">     4</i>
     <i type="logical" name="MIXFIRST"> F  </i>
     <i type="int" name="MAXMIX">   -45</i>
     <i name="WC">    100.00000000</i>
     <i type="int" name="INIMIX">     1</i>
     <i type="int" name="MIXPRE">     1</i>
     <i type="int" name="MREMOVE">     5</i>
    </separator>
   </separator>
   <separator name="electronic dipolcorrection" >
    <i type="logical" name="LDIPOL"> F  </i>
    <i type="logical" name="LMONO"> F  </i>
    <i type="int" name="IDIPOL">     0</i>
    <i name="EPSILON">      1.00000000</i>
    <v name="DIPOL">   -100.00000000   -100.00000000   -100.00000000</v>
    <i name="EFIELD">      0.00000000</i>
   </separator>
  </separator>
  <separator name="grids" >
   <i type="int" name="NGX">    40</i>
   <i type="int" name="NGY">    36</i>
   <i type="int" name="NGZ">    98</i>
   <i type="int" name="NGXF">    80</i>
   <i type="int" name="NGYF">    72</i>
   <i type="int" name="NGZF">   196</i>
   <i type="logical" name="ADDGRID"> T  </i>
  </separator>
  <separator name="ionic" >
   <i type="int" name="NSW">     0</i>
   <i type="int" name="IBRION">    -1</i>
   <i type="int" name="MDALGO">     0</i>
   <i type="int" name="ISIF">     2</i>
   <i name="PSTRESS">      0.00000000</i>
   <i name="EDIFFG">      0.00000010</i>
   <i type="int" name="NFREE">     0</i>
   <i name="POTIM">      0.50000000</i>
   <i name="SMASS">     -3.00000000</i>
   <i name="SCALEE">      1.00000000</i>
  </separator>
  <separator name="ionic md" >
   <i name="TEBEG">      0.00010000</i>
   <i name="TEEND">      0.00010000</i>
   <i type="int" name="NBLOCK">     1</i>
   <i type="int" name="KBLOCK">     1</i>
   <i type="int" name="NPACO">   256</i>
   <i name="APACO">     16.00000000</i>
  </separator>
  <separator name="symmetry" >
   <i type="int" name="ISYM">     2</i>
   <i name="SYMPREC">      0.00001000</i>
  </separator>
  <separator name="dos" >
   <i type="int" name="LORBIT">     0</i>
   <v name="RWIGS">     -1.00000000     -1.00000000</v>
   <i type="int" name="NEDOS">   301</i>
   <i name="EMIN">     10.00000000</i>
   <i name="EMAX">    -10.00000000</i>
   <i name="EFERMI">      0.00000000</i>
  </separator>
  <separator name="writing" >
   <i type="int" name="NWRITE">     2</i>
   <i type="logical" name="LWAVE"> F  </i>
   <i type="logical" name="LDOWNSAMPLE"> F  </i>
   <i type="logical" name="LCHARG"> F  </i>
   <i type="logical" name="LPARD"> F  </i>
   <i type="logical" name="LVTOT"> F  </i>
   <i type="logical" name="LVHAR"> F  </i>
   <i type="logical" name="LELF"> F  </i>
   <i type="logical" name="LOPTICS"> F  </i>
   <v name="STM">      0.00000000      0.00000000      0.00000000      0.00000000      0.00000000      0.00000000      0.00000000</v>
  </separator>
  <separator name="performance" >
   <i type="int" name="NPAR">    32</i>
   <i type="int" name="NSIM">     4</i>
   <i type="int" name="NBLK">    -1</i>
   <i type="logical" name="LPLANE"> T  </i>
   <i type="logical" name="LSCALAPACK"> T  </i>
   <i type="logical" name="LSCAAWARE"> F  </i>
   <i type="logical" name="LSCALU"> F  </i>
   <i type="logical" name="LASYNC"> F  </i>
   <i type="logical" name="LORBITALREAL"> F  </i>
  </separator>
  <separator name="miscellaneous" >
   <i type="int" name="IDIOT">     3</i>
   <i type="int" name="PHON_NSTRUCT">    -1</i>
   <i type="logical" name="LMUSIC"> F  </i>
   <v name="POMASS">    118.71000000     78.96000000</v>
   <v name="DARWINR">      0.00000000      0.00000000</v>
   <v name="DARWINV">      1.00000000      1.00000000</v>
   <i type="logical" name="LCORR"> T  </i>
  </separator>
  <i type="logical" name="GGA_COMPAT"> T  </i>
  <i type="logical" name="LBERRY"> F  </i>
  <i type="int" name="ICORELEVEL">     0</i>
  <i type="logical" name="LDAU"> F  </i>
  <i type="int" name="I_CONSTRAINED_M">     0</i>
  <separator name="electronic exchange-correlation" >
   <i type="string" name="GGA">PS</i>
   <i type="int" name="VOSKOWN">     0</i>
   <i type="logical" name="LHFCALC"> F  </i>
   <i type="string" name="PRECFOCK"></i>
   <i type="logical" name="LSYMGRAD"> F  </i>
   <i type="logical" name="LHFONE"> F  </i>
   <i type="logical" name="LRHFCALC"> F  </i>
   <i type="logical" name="LTHOMAS"> F  </i>
   <i type="logical" name="LMODELHF"> F  </i>
   <i type="logical" name="LFOCKACE"> F  </i>
   <i name="ENCUT4O">     -1.00000000</i>
   <i type="int" name="EXXOEP">     0</i>
   <i type="int" name="FOURORBIT">     0</i>
   <i name="AEXX">      0.00000000</i>
   <i name="HFALPHA">      0.00000000</i>
   <i name="MCALPHA">      0.00000000</i>
   <i name="ALDAX">      1.00000000</i>
   <i name="AGGAX">      1.00000000</i>
   <i name="ALDAC">      1.00000000</i>
   <i name="AGGAC">      1.00000000</i>
   <i type="int" name="NKREDX">     1</i>
   <i type="int" name="NKREDY">     1</i>
   <i type="int" name="NKREDZ">     1</i>
   <i type="logical" name="SHIFTRED"> F  </i>
   <i type="logical" name="ODDONLY"> F  </i>
   <i type="logical" name="EVENONLY"> F  </i>
   <i type="int" name="LMAXFOCK">     0</i>
   <i type="int" name="NMAXFOCKAE">     0</i>
   <i type="logical" name="LFOCKAEDFT"> F  </i>
   <i name="HFSCREEN">      0.00000000</i>
   <i name="HFSCREENC">      0.00000000</i>
   <i type="int" name="NBANDSGWLOW">     0</i>
  </separator>
  <separator name="vdW DFT" >
   <i type="logical" name="LUSE_VDW"> F  </i>
   <i name="Zab_VDW">     -0.84910000</i>
   <i name="PARAM1">      0.12340000</i>
   <i name="PARAM2">      1.00000000</i>
   <i name="PARAM3">      0.00000000</i>
  </separator>
  <separator name="model GW" >
   <i type="int" name="MODEL_GW">     0</i>
   <i name="MODEL_EPS0">     15.24405127</i>
   <i name="MODEL_ALPHA">      1.00000000</i>
  </separator>
  <separator name="linear response parameters" >
   <i type="logical" name="LEPSILON"> T  </i>
   <i type="logical" name="LRPA"> F  </i>
   <i type="logical" name="LNABLA"> F  </i>
   <i type="logical" name="LVEL"> F  </i>
   <i type="int" name="KINTER">     0</i>
   <i name="CSHIFT">      0.10000000</i>
   <i name="OMEGAMAX">     -1.00000000</i>
   <i name="DEG_THRESHOLD">      0.00200000</i>
   <i name="RTIME">     -0.10000000</i>
   <i name="WPLASMAI">      0.00000000</i>
   <v name="DFIELD">      0.00000000      0.00000000      0.00000000</v>
   <v name="WPLASMA">      0.00000000      0.00000000      0.00000000      0.00000000      0.00000000      0.00000000      0.00000000      0.00000000      0.00000000</v>
  </separator>
  <separator name="orbital magnetization" >
   <i type="logical" name="NUCIND"> F  </i>
   <v name="MAGPOS">      0.00000000      0.00000000      0.00000000</v>
   <i type="logical" name="LNICSALL"> T  </i>
   <i type="logical" name="ORBITALMAG"> F  </i>
   <i type="logical" name="LMAGBLOCH"> F  </i>
   <i type="logical" name="LCHIMAG"> F  </i>
   <i type="logical" name="LGAUGE"> T  </i>
   <i type="int" name="MAGATOM">     0</i>
   <v name="MAGDIPOL">      0.00000000      0.00000000      0.00000000</v>
   <v name="AVECCONST">      0.00000000      0.00000000      0.00000000</v>
  </separator>
  <separator name="response functions" >
   <i type="logical" name="LFINITE_TEMPERATURE"> F  </i>
   <i type="logical" name="LADDER"> F  </i>
   <i type="logical" name="LRPAFORCE"> F  </i>
   <i type="logical" name="LFXC"> F  </i>
   <i type="logical" name="LHARTREE"> T  </i>
   <i type="int" name="IBSE">     0</i>
   <v type="int" name="KPOINT">    -1     0     0     0</v>
   <i type="logical" name="LTCTC"> F  </i>
   <i type="logical" name="LTCTE"> F  </i>
   <i type="logical" name="LTETE"> F  </i>
   <i type="logical" name="LTRIPLET"> F  </i>
   <i type="logical" name="LFXCEPS"> F  </i>
   <i type="logical" name="LFXHEG"> F  </i>
   <i type="int" name="NATURALO">     2</i>
   <i type="logical" name="LHOLEGF"> F  </i>
   <i type="logical" name="L2ORDER"> F  </i>
   <i type="logical" name="LDMP1"> F  </i>
   <i type="logical" name="LMP2LT"> F  </i>
   <i type="logical" name="LSMP2LT"> F  </i>
   <i type="logical" name="LGWLF"> F  </i>
   <i name="ENCUTGW">     -2.00000000</i>
   <i name="ENCUTGWSOFT">     -2.00000000</i>
   <i name="ENCUTLF">     -1.00000000</i>
   <i type="logical" name="LESF_SPLINES"> F  </i>
   <i type="int" name="LMAXMP2">    -1</i>
   <i name="SCISSOR">      0.00000000</i>
   <i type="int" name="NOMEGA">     0</i>
   <i type="int" name="NOMEGAR">     0</i>
   <i type="int" name="NBANDSGW">    -1</i>
   <i type="int" name="NBANDSO">    -1</i>
   <i type="int" name="NBANDSV">    -1</i>
   <i type="int" name="NELM">   250</i>
   <i type="int" name="NELMHF">     1</i>
   <i type="int" name="DIM">     3</i>
   <i type="int" name="IESPILON">     4</i>
   <i type="int" name="ANTIRES">     0</i>
   <i name="OMEGAMAX">    -30.00000000</i>
   <i name="OMEGAMIN">    -30.00000000</i>
   <i name="OMEGATL">   -200.00000000</i>
   <i type="int" name="OMEGAGRID">     0</i>
   <i name="CSHIFT">     -0.10000000</i>
   <i type="logical" name="LSELFENERGY"> F  </i>
   <i type="logical" name="LSPECTRAL"> F  </i>
   <i type="logical" name="LSPECTRALGW"> F  </i>
   <i type="logical" name="LSINGLES"> F  </i>
   <i type="logical" name="LFERMIGW"> F  </i>
   <i type="logical" name="ODDONLYGW"> F  </i>
   <i type="logical" name="EVENONLYGW"> F  </i>
   <i type="int" name="NKREDLFX">     1</i>
   <i type="int" name="NKREDLFY">     1</i>
   <i type="int" name="NKREDLFZ">     1</i>
   <i type="int" name="MAXMEM">  2800</i>
   <i type="int" name="TELESCOPE">     0</i>
   <i type="int" name="NTAUPAR">    -1</i>
   <i type="int" name="NOMEGAPAR">    -1</i>
   <i name="DAMP_NEWTON">      0.80000001</i>
   <i name="LAMBDA">      1.00000000</i>
  </separator>
  <separator name="External order field" >
   <i name="OFIELD_KAPPA">      0.00000000</i>
   <v name="OFIELD_K">      0.00000000      0.00000000      0.00000000</v>
   <i name="OFIELD_Q6_NEAR">      0.00000000</i>
   <i name="OFIELD_Q6_FAR">      0.00000000</i>
   <i name="OFIELD_A">      0.00000000</i>
  </separator>
 </parameters>
 <atominfo>
  <atoms>       8 </atoms>
  <types>       2 </types>
  <array name="atoms" >
   <dimension dim="1">ion</dimension>
   <field type="string">element</field>
   <field type="int">atomtype</field>
   <set>
    <rc><c>Sn</c><c>   1</c></rc>
    <rc><c>Sn</c><c>   1</c></rc>
    <rc><c>Sn</c><c>   1</c></rc>
    <rc><c>Sn</c><c>   1</c></rc>
    <rc><c>Se</c><c>   2</c></rc>
    <rc><c>Se</c><c>   2</c></rc>
    <rc><c>Se</c><c>   2</c></rc>
    <rc><c>Se</c><c>   2</c></rc>
   </set>
  </array>
  <array name="atomtypes" >
   <dimension dim="1">type</dimension>
   <field type="int">atomspertype</field>
   <field type="string">element</field>
   <field>mass</field>
   <field>valence</field>
   <field type="string">pseudopotential</field>
   <set>
    <rc><c>   4</c><c>Sn</c><c>    118.71000000</c><c>     14.00000000</c><c>  PAW_PBE Sn_d 06Sep2000                </c></rc>
    <rc><c>   4</c><c>Se</c><c>     78.96000000</c><c>      6.00000000</c><c>  PAW_PBE Se 06Sep2000                  </c></rc>
   </set>
  </array>
 </atominfo>
 <structure name="initialpos" >
  <crystal>
   <varray name="basis" >
    <v>       4.34539863       0.00000000       0.00000000 </v>
    <v>       0.00000000       4.11936655       0.00000000 </v>
    <v>       0.00000000       0.00000000      11.35478920 </v>
   </varray>
   <i name="volume">    203.25401695 </i>
   <varray name="rec_basis" >
    <v>       0.23012848       0.00000000       0.00000000 </v>
    <v>       0.00000000       0.24275577       0.00000000 </v>
    <v>       0.00000000       0.00000000       0.08806857 </v>
   </varray>
  </crystal>
  <varray name="positions" >
   <v>       0.09814158       0.25000000       0.11548645 </v>
   <v>       0.40185842       0.25000000       0.61548645 </v>
   <v>       0.59814158       0.75000000       0.38451355 </v>
   <v>       0.90185842       0.75000000       0.88451355 </v>
   <v>       0.02542773       0.25000000       0.35677710 </v>
   <v>       0.47457227       0.25000000       0.85677710 </v>
   <v>       0.52542773       0.75000000       0.14322290 </v>
   <v>       0.97457227       0.75000000       0.64322290 </v>
  </varray>
 </structure>
 <calculation>
  <scstep>
   <time name="dav">   12.37   11.52</time>
   <time name="total">   12.65   11.78</time>
   <energy>
    <i name="alphaZ">    217.43841536 </i>
    <i name="ewald">  -6082.67266642 </i>
    <i name="hartreedc">  -2322.16684618 </i>
    <i name="XCdc">    230.11191094 </i>
    <i name="pawpsdc">   7112.06264409 </i>
    <i name="pawaedc">  -7207.42447429 </i>
    <i name="eentropy">     -0.00028276 </i>
    <i name="bandstr">     37.24569991 </i>
    <i name="atom">   8598.20158228 </i>
    <i name="e_fr_energy">    582.79598292 </i>
    <i name="e_wo_entrp">    582.79626568 </i>
    <i name="e_0_energy">    582.79612430 </i>
   </energy>
  </scstep>
  <scstep>
   <time name="dav">    1.49    0.77</time>
   <time name="total">    1.49    0.77</time>
   <energy>
    <i name="e_fr_energy">     16.33329586 </i>
    <i name="e_wo_entrp">     16.33349206 </i>
    <i name="e_0_energy">     16.33339396 </i>
   </energy>
  </scstep>
  <scstep>
   <time name="dav">    2.01    1.01</time>
   <time name="total">    2.01    1.01</time>
   <energy>
    <i name="e_fr_energy">    -35.45022347 </i>
    <i name="e_wo_entrp">    -35.45022347 </i>
    <i name="e_0_energy">    -35.45022347 </i>
   </energy>
  </scstep>
  <scstep>
   <time name="dav">    1.80    0.90</time>
   <time name="total">    1.80    0.90</time>
   <energy>
    <i name="e_fr_energy">    -36.55618732 </i>
    <i name="e_wo_entrp">    -36.55618732 </i>
    <i name="e_0_energy">    -36.55618732 </i>
   </energy>
  </scstep>
  <scstep>
   <time name="dav">    2.25    1.13</time>
   <time name="total">    2.53    1.29</time>
   <energy>
    <i name="e_fr_energy">    -36.58395903 </i>
    <i name="e_wo_entrp">    -36.58395903 </i>
    <i name="e_0_energy">    -36.58395903 </i>
   </energy>
  </scstep>
  <scstep>
   <time name="dav">    2.49    1.25</time>
   <time name="total">    2.96    1.64</time>
   <energy>
    <i name="e_fr_energy">    -35.95407582 </i>
    <i name="e_wo_entrp">    -35.95407582 </i>
    <i name="e_0_energy">    -35.95407582 </i>
   </energy>
  </scstep>
  <scstep>
   <time name="dav">    2.23    1.12</time>
   <time name="total">    2.69    1.48</time>
   <energy>
    <i name="e_fr_energy">    -35.91931302 </i>
    <i name="e_wo_entrp">    -35.91931302 </i>
    <i name="e_0_energy">    -35.91931302 </i>
   </energy>
  </scstep>
  <scstep>
   <time name="dav">    1.84    0.93</time>
   <time name="total">    2.32    1.28</time>
   <energy>
    <i name="e_fr_energy">    -35.91430088 </i>
    <i name="e_wo_entrp">    -35.91430088 </i>
    <i name="e_0_energy">    -35.91430088 </i>
   </energy>
  </scstep>
  <scstep>
   <time name="dav">    2.09    1.05</time>
   <time name="total">    2.57    1.41</time>
   <energy>
    <i name="e_fr_energy">    -35.91433607 </i>
    <i name="e_wo_entrp">    -35.91433607 </i>
    <i name="e_0_energy">    -35.91433607 </i>
   </energy>
  </scstep>
  <scstep>
   <time name="dav">    1.87    0.94</time>
   <time name="total">    2.35    1.30</time>
   <energy>
    <i name="e_fr_energy">    -35.91433748 </i>
    <i name="e_wo_entrp">    -35.91433748 </i>
    <i name="e_0_energy">    -35.91433748 </i>
   </energy>
  </scstep>
  <scstep>
   <time name="dav">    2.04    1.02</time>
   <time name="total">    2.53    1.39</time>
   <energy>
    <i name="e_fr_energy">    -35.91435097 </i>
    <i name="e_wo_entrp">    -35.91435097 </i>
    <i name="e_0_energy">    -35.91435097 </i>
   </energy>
  </scstep>
  <scstep>
   <time name="dav">    1.99    1.04</time>
   <time name="total">    2.35    1.40</time>
   <energy>
    <i name="e_fr_energy">    -35.91434925 </i>
    <i name="e_wo_entrp">    -35.91434925 </i>
    <i name="e_0_energy">    -35.91434925 </i>
   </energy>
  </scstep>
  <scstep>
   <time name="dav">    2.09    1.05</time>
   <time name="total">    2.55    1.41</time>
   <energy>
    <i name="e_fr_energy">    -35.91434917 </i>
    <i name="e_wo_entrp">    -35.91434917 </i>
    <i name="e_0_energy">    -35.91434917 </i>
   </energy>
  </scstep>
  <scstep>
   <time name="dav">    2.00    1.01</time>
   <time name="total">    2.42    1.36</time>
   <energy>
    <i name="e_fr_energy">    -35.91434919 </i>
    <i name="e_wo_entrp">    -35.91434919 </i>
    <i name="e_0_energy">    -35.91434919 </i>
   </energy>
  </scstep>
  <scstep>
   <time name="dav">    1.73    0.87</time>
   <time name="total">    2.19    1.22</time>
   <energy>
    <i name="e_fr_energy">    -35.91434913 </i>
    <i name="e_wo_entrp">    -35.91434913 </i>
    <i name="e_0_energy">    -35.91434913 </i>
   </energy>
  </scstep>
  <scstep>
   <time name="dav">    1.32    0.66</time>
   <time name="total">    1.80    1.03</time>
   <energy>
    <i name="e_fr_energy">    -35.91434912 </i>
    <i name="e_wo_entrp">    -35.91434912 </i>
    <i name="e_0_energy">    -35.91434912 </i>
   </energy>
  </scstep>
  <scstep>
   <time name="dav">    1.37    0.69</time>
   <time name="total">    1.62    0.94</time>
   <energy>
    <i name="alphaZ">    217.43841536 </i>
    <i name="ewald">  -6082.67266642 </i>
    <i name="hartreedc">  -2303.91155952 </i>
    <i name="XCdc">    230.42965966 </i>
    <i name="pawpsdc">   8471.23850192 </i>
    <i name="pawaedc">  -8567.13527568 </i>
    <i name="eentropy">     -0.00000000 </i>
    <i name="bandstr">   -599.50300672 </i>
    <i name="atom">   8598.20158228 </i>
    <i name="e_fr_energy">    -35.91434912 </i>
    <i name="e_wo_entrp">    -35.91434912 </i>
    <i name="e_0_energy">    -35.91434912 </i>
   </energy>
  </scstep>
  <structure>
   <crystal>
    <varray name="basis" >
     <v>       4.34539863       0.00000000       0.00000000 </v>
     <v>       0.00000000       4.11936655       0.00000000 </v>
     <v>       0.00000000       0.00000000      11.35478920 </v>
    </varray>
    <i name="volume">    203.25401695 </i>
    <varray name="rec_basis" >
     <v>       0.23012848       0.00000000       0.00000000 </v>
     <v>       0.00000000       0.24275577       0.00000000 </v>
     <v>       0.00000000       0.00000000       0.08806857 </v>
    </varray>
   </crystal>
   <varray name="positions" >
    <v>       0.09814158       0.25000000       0.11548645 </v>
    <v>       0.40185842       0.25000000       0.61548645 </v>
    <v>       0.59814158       0.75000000       0.38451355 </v>
    <v>       0.90185842       0.75000000       0.88451355 </v>
    <v>       0.02542773       0.25000000       0.35677710 </v>
    <v>       0.47457227       0.25000000       0.85677710 </v>
    <v>       0.52542773       0.75000000       0.14322290 </v>
    <v>       0.97457227       0.75000000       0.64322290 </v>
   </varray>
  </structure>
  <varray name="forces" >
   <v>      -0.00569280      -0.00000000       0.00323693 </v>
   <v>       0.00569280      -0.00000000       0.00323693 </v>
   <v>      -0.00569280       0.00000000      -0.00323693 </v>
   <v>       0.00569280       0.00000000      -0.00323693 </v>
   <v>      -0.00256183       0.00000000      -0.00301454 </v>
   <v>       0.00256183      -0.00000000      -0.00301454 </v>
   <v>      -0.00256183       0.00000000       0.00301454 </v>
   <v>       0.00256183      -0.00000000       0.00301454 </v>
  </varray>
  <varray name="stress" >
   <v>      -0.14568104       0.00000000       0.00000000 </v>
   <v>       0.00000000       0.03923052       0.00000000 </v>
   <v>       0.00000000       0.00000000      -0.50210399 </v>
  </varray>
  <energy>
   <i name="e_fr_energy">    -37.43207768 </i>
   <i name="e_wo_entrp">    -37.43207768 </i>
   <i name="e_0_energy">    -37.43207768 </i>
  </energy>
  <scstep>
   <time name="total">    0.99    0.51</time>
   <energy>
    <i name="e_fr_energy">   -132.54157588 </i>
    <i name="e_wo_entrp">   -132.54157588 </i>
    <i name="e_0_energy">   -132.54157588 </i>
   </energy>
  </scstep>
  <scstep>
   <time name="total">    1.30    0.66</time>
   <energy>
    <i name="e_fr_energy">   -259.13197491 </i>
    <i name="e_wo_entrp">   -259.13197491 </i>
    <i name="e_0_energy">   -259.13197491 </i>
   </energy>
  </scstep>
  <scstep>
   <time name="total">    1.33    0.70</time>
   <energy>
    <i name="e_fr_energy">   -259.94986169 </i>
    <i name="e_wo_entrp">   -259.94986169 </i>
    <i name="e_0_energy">   -259.94986169 </i>
   </energy>
  </scstep>
  <scstep>
   <time name="total">    1.11    0.59</time>
   <energy>
    <i name="e_fr_energy">   -260.10507729 </i>
    <i name="e_wo_entrp">   -260.10507729 </i>
    <i name="e_0_energy">   -260.10507729 </i>
   </energy>
  </scstep>
  <scstep>
   <time name="total">    1.13    0.61</time>
   <energy>
    <i name="e_fr_energy">   -260.10865010 </i>
    <i name="e_wo_entrp">   -260.10865010 </i>
    <i name="e_0_energy">   -260.10865010 </i>
   </energy>
  </scstep>
  <scstep>
   <time name="total">    1.16    0.61</time>
   <energy>
    <i name="e_fr_energy">   -260.11090575 </i>
    <i name="e_wo_entrp">   -260.11090575 </i>
    <i name="e_0_energy">   -260.11090575 </i>
   </energy>
  </scstep>
  <scstep>
   <time name="total">    1.24    0.62</time>
   <energy>
    <i name="e_fr_energy">   -260.11108332 </i>
    <i name="e_wo_entrp">   -260.11108332 </i>
    <i name="e_0_energy">   -260.11108332 </i>
   </energy>
  </scstep>
  <scstep>
   <time name="total">    1.22    0.61</time>
   <energy>
    <i name="e_fr_energy">   -260.11109834 </i>
    <i name="e_wo_entrp">   -260.11109834 </i>
    <i name="e_0_energy">   -260.11109834 </i>
   </energy>
  </scstep>
  <scstep>
   <time name="total">    1.22    0.61</time>
   <energy>
    <i name="e_fr_energy">   -260.11109407 </i>
    <i name="e_wo_entrp">   -260.11109407 </i>
    <i name="e_0_energy">   -260.11109407 </i>
   </energy>
  </scstep>
  <scstep>
   <time name="total">    1.26    0.63</time>
   <energy>
    <i name="e_fr_energy">   -260.11110234 </i>
    <i name="e_wo_entrp">   -260.11110234 </i>
    <i name="e_0_energy">   -260.11110234 </i>
   </energy>
  </scstep>
  <scstep>
   <time name="total">    1.21    0.62</time>
   <energy>
    <i name="e_fr_energy">   -260.11109219 </i>
    <i name="e_wo_entrp">   -260.11109219 </i>
    <i name="e_0_energy">   -260.11109219 </i>
   </energy>
  </scstep>
  <scstep>
   <time name="total">    1.18    0.60</time>
   <energy>
    <i name="e_fr_energy">   -260.11109588 </i>
    <i name="e_wo_entrp">   -260.11109588 </i>
    <i name="e_0_energy">   -260.11109588 </i>
   </energy>
  </scstep>
  <scstep>
   <time name="total">    1.12    0.56</time>
   <energy>
    <i name="e_fr_energy">   -260.11109451 </i>
    <i name="e_wo_entrp">   -260.11109451 </i>
    <i name="e_0_energy">   -260.11109451 </i>
   </energy>
  </scstep>
  <scstep>
   <time name="total">    0.93    0.47</time>
   <energy>
    <i name="e_fr_energy">   -130.00755736 </i>
    <i name="e_wo_entrp">   -130.00755736 </i>
    <i name="e_0_energy">   -130.00755736 </i>
   </energy>
  </scstep>
  <scstep>
   <time name="total">    1.36    0.69</time>
   <energy>
    <i name="e_fr_energy">   -258.98862082 </i>
    <i name="e_wo_entrp">   -258.98862082 </i>
    <i name="e_0_energy">   -258.98862082 </i>
   </energy>
  </scstep>
  <scstep>
   <time name="total">    1.30    0.69</time>
   <energy>
    <i name="e_fr_energy">   -259.81953300 </i>
    <i name="e_wo_entrp">   -259.81953300 </i>
    <i name="e_0_energy">   -259.81953300 </i>
   </energy>
  </scstep>
  <scstep>
   <time name="total">    1.09    0.58</time>
   <energy>
    <i name="e_fr_energy">   -259.95587013 </i>
    <i name="e_wo_entrp">   -259.95587013 </i>
    <i name="e_0_energy">   -259.95587013 </i>
   </energy>
  </scstep>
  <scstep>
   <time name="total">    1.13    0.59</time>
   <energy>
    <i name="e_fr_energy">   -259.96654055 </i>
    <i name="e_wo_entrp">   -259.96654055 </i>
    <i name="e_0_energy">   -259.96654055 </i>
   </energy>
  </scstep>
  <scstep>
   <time name="total">    1.19    0.60</time>
   <energy>
    <i name="e_fr_energy">   -259.96986195 </i>
    <i name="e_wo_entrp">   -259.96986195 </i>
    <i name="e_0_energy">   -259.96986195 </i>
   </energy>
  </scstep>
  <scstep>
   <time name="total">    1.23    0.62</time>
   <energy>
    <i name="e_fr_energy">   -259.96985664 </i>
    <i name="e_wo_entrp">   -259.96985664 </i>
    <i name="e_0_energy">   -259.96985664 </i>
   </energy>
  </scstep>
  <scstep>
   <time name="total">    1.25    0.63</time>
   <energy>
    <i name="e_fr_energy">   -259.96984739 </i>
    <i name="e_wo_entrp">   -259.96984739 </i>
    <i name="e_0_energy">   -259.96984739 </i>
   </energy>
  </scstep>
  <scstep>
   <time name="total">    1.22    0.61</time>
   <energy>
    <i name="e_fr_energy">   -259.96982302 </i>
    <i name="e_wo_entrp">   -259.96982302 </i>
    <i name="e_0_energy">   -259.96982302 </i>
   </energy>
  </scstep>
  <scstep>
   <time name="total">    1.24    0.62</time>
   <energy>
    <i name="e_fr_energy">   -259.96988974 </i>
    <i name="e_wo_entrp">   -259.96988974 </i>
    <i name="e_0_energy">   -259.96988974 </i>
   </energy>
  </scstep>
  <scstep>
   <time name="total">    1.16    0.58</time>
   <energy>
    <i name="e_fr_energy">   -259.96984023 </i>
    <i name="e_wo_entrp">   -259.96984023 </i>
    <i name="e_0_energy">   -259.96984023 </i>
   </energy>
  </scstep>
  <scstep>
   <time name="total">    1.19    0.59</time>
   <energy>
    <i name="e_fr_energy">   -259.96986197 </i>
    <i name="e_wo_entrp">   -259.96986197 </i>
    <i name="e_0_energy">   -259.96986197 </i>
   </energy>
  </scstep>
  <scstep>
   <time name="total">    1.12    0.56</time>
   <energy>
    <i name="e_fr_energy">   -259.96986609 </i>
    <i name="e_wo_entrp">   -259.96986609 </i>
    <i name="e_0_energy">   -259.96986609 </i>
   </energy>
  </scstep>
  <scstep>
   <time name="total">    0.92    0.46</time>
   <energy>
    <i name="e_fr_energy">   -129.39877413 </i>
    <i name="e_wo_entrp">   -129.39877413 </i>
    <i name="e_0_energy">   -129.39877413 </i>
   </energy>
  </scstep>
  <scstep>
   <time name="total">    1.30    0.67</time>
   <energy>
    <i name="e_fr_energy">   -263.64177135 </i>
    <i name="e_wo_entrp">   -263.64177135 </i>
    <i name="e_0_energy">   -263.64177135 </i>
   </energy>
  </scstep>
  <scstep>
   <time name="total">    1.28    0.68</time>
   <energy>
    <i name="e_fr_energy">   -264.67572901 </i>
    <i name="e_wo_entrp">   -264.67572901 </i>
    <i name="e_0_energy">   -264.67572901 </i>
   </energy>
  </scstep>
  <scstep>
   <time name="total">    1.10    0.58</time>
   <energy>
    <i name="e_fr_energy">   -264.96980153 </i>
    <i name="e_wo_entrp">   -264.96980153 </i>
    <i name="e_0_energy">   -264.96980153 </i>
   </energy>
  </scstep>
  <scstep>
   <time name="total">    1.13    0.61</time>
   <energy>
    <i name="e_fr_energy">   -264.97148846 </i>
    <i name="e_wo_entrp">   -264.97148846 </i>
    <i name="e_0_energy">   -264.97148846 </i>
   </energy>
  </scstep>
  <scstep>
   <time name="total">    1.17    0.61</time>
   <energy>
    <i name="e_fr_energy">   -264.97541980 </i>
    <i name="e_wo_entrp">   -264.97541980 </i>
    <i name="e_0_energy">   -264.97541980 </i>
   </energy>
  </scstep>
  <scstep>
   <time name="total">    1.23    0.62</time>
   <energy>
    <i name="e_fr_energy">   -264.97562592 </i>
    <i name="e_wo_entrp">   -264.97562592 </i>
    <i name="e_0_energy">   -264.97562592 </i>
   </energy>
  </scstep>
  <scstep>
   <time name="total">    1.30    0.65</time>
   <energy>
    <i name="e_fr_energy">   -264.97564173 </i>
    <i name="e_wo_entrp">   -264.97564173 </i>
    <i name="e_0_energy">   -264.97564173 </i>
   </energy>
  </scstep>
  <scstep>
   <time name="total">    1.29    0.65</time>
   <energy>
    <i name="e_fr_energy">   -264.97560643 </i>
    <i name="e_wo_entrp">   -264.97560643 </i>
    <i name="e_0_energy">   -264.97560643 </i>
   </energy>
  </scstep>
  <scstep>
   <time name="total">    1.24    0.62</time>
   <energy>
    <i name="e_fr_energy">   -264.97562013 </i>
    <i name="e_wo_entrp">   -264.97562013 </i>
    <i name="e_0_energy">   -264.97562013 </i>
   </energy>
  </scstep>
  <scstep>
   <time name="total">    1.21    0.61</time>
   <energy>
    <i name="e_fr_energy">   -264.97561676 </i>
    <i name="e_wo_entrp">   -264.97561676 </i>
    <i name="e_0_energy">   -264.97561676 </i>
   </energy>
  </scstep>
  <scstep>
   <time name="total">    1.19    0.60</time>
   <energy>
    <i name="e_fr_energy">   -264.97560461 </i>
    <i name="e_wo_entrp">   -264.97560461 </i>
    <i name="e_0_energy">   -264.97560461 </i>
   </energy>
  </scstep>
  <scstep>
   <time name="total">    1.13    0.64</time>
   <energy>
    <i name="e_fr_energy">   -264.97562581 </i>
    <i name="e_wo_entrp">   -264.97562581 </i>
    <i name="e_0_energy">   -264.97562581 </i>
   </energy>
  </scstep>
  <scstep>
   <time name="total">    1.62    1.10</time>
   <energy>
    <i name="e_fr_energy">     -2.35849507 </i>
    <i name="e_wo_entrp">     -2.35849507 </i>
    <i name="e_0_energy">     -2.35849507 </i>
   </energy>
  </scstep>
  <scstep>
   <time name="total">    2.01    1.25</time>
   <energy>
    <i name="e_fr_energy">    -13.88710899 </i>
    <i name="e_wo_entrp">    -13.88710899 </i>
    <i name="e_0_energy">    -13.88710899 </i>
   </energy>
  </scstep>
  <scstep>
   <time name="total">    2.03    1.25</time>
   <energy>
    <i name="e_fr_energy">    -13.96081421 </i>
    <i name="e_wo_entrp">    -13.96081421 </i>
    <i name="e_0_energy">    -13.96081421 </i>
   </energy>
  </scstep>
  <scstep>
   <time name="total">    2.04    1.26</time>
   <energy>
    <i name="e_fr_energy">    -13.96124286 </i>
    <i name="e_wo_entrp">    -13.96124286 </i>
    <i name="e_0_energy">    -13.96124286 </i>
   </energy>
  </scstep>
  <scstep>
   <time name="total">    2.04    1.26</time>
   <energy>
    <i name="e_fr_energy">    -13.96133346 </i>
    <i name="e_wo_entrp">    -13.96133346 </i>
    <i name="e_0_energy">    -13.96133346 </i>
   </energy>
  </scstep>
  <scstep>
   <time name="total">    2.04    1.26</time>
   <energy>
    <i name="e_fr_energy">    -13.96133744 </i>
    <i name="e_wo_entrp">    -13.96133744 </i>
    <i name="e_0_energy">    -13.96133744 </i>
   </energy>
  </scstep>
  <scstep>
   <time name="total">    2.06    1.27</time>
   <energy>
    <i name="e_fr_energy">    -13.96133873 </i>
    <i name="e_wo_entrp">    -13.96133873 </i>
    <i name="e_0_energy">    -13.96133873 </i>
   </energy>
  </scstep>
  <scstep>
   <time name="total">    2.07    1.25</time>
   <energy>
    <i name="e_fr_energy">    -13.96133884 </i>
    <i name="e_wo_entrp">    -13.96133884 </i>
    <i name="e_0_energy">    -13.96133884 </i>
   </energy>
  </scstep>
  <scstep>
   <time name="total">    2.10    1.26</time>
   <energy>
    <i name="e_fr_energy">    -13.96133886 </i>
    <i name="e_wo_entrp">    -13.96133886 </i>
    <i name="e_0_energy">    -13.96133886 </i>
   </energy>
  </scstep>
  <scstep>
   <time name="total">    2.06    1.24</time>
   <energy>
    <i name="e_fr_energy">    -13.96133886 </i>
    <i name="e_wo_entrp">    -13.96133886 </i>
    <i name="e_0_energy">    -13.96133886 </i>
   </energy>
  </scstep>
  <scstep>
   <time name="total">    2.01    1.21</time>
   <energy>
    <i name="e_fr_energy">    -13.96133886 </i>
    <i name="e_wo_entrp">    -13.96133886 </i>
    <i name="e_0_energy">    -13.96133886 </i>
   </energy>
  </scstep>
  <scstep>
   <time name="total">    1.94    1.18</time>
   <energy>
    <i name="e_fr_energy">    -13.96133886 </i>
    <i name="e_wo_entrp">    -13.96133886 </i>
    <i name="e_0_energy">    -13.96133886 </i>
   </energy>
  </scstep>
  <scstep>
   <time name="total">    1.95    1.19</time>
   <energy>
    <i name="e_fr_energy">    -13.96133886 </i>
    <i name="e_wo_entrp">    -13.96133886 </i>
    <i name="e_0_energy">    -13.96133886 </i>
   </energy>
  </scstep>
  <scstep>
   <time name="total">    1.58    1.07</time>
   <energy>
    <i name="e_fr_energy">     -3.84963000 </i>
    <i name="e_wo_entrp">     -3.84963000 </i>
    <i name="e_0_energy">     -3.84963000 </i>
   </energy>
  </scstep>
  <scstep>
   <time name="total">    2.00    1.23</time>
   <energy>
    <i name="e_fr_energy">    -16.79576219 </i>
    <i name="e_wo_entrp">    -16.79576219 </i>
    <i name="e_0_energy">    -16.79576219 </i>
   </energy>
  </scstep>
  <scstep>
   <time name="total">    2.04    1.25</time>
   <energy>
    <i name="e_fr_energy">    -16.88197012 </i>
    <i name="e_wo_entrp">    -16.88197012 </i>
    <i name="e_0_energy">    -16.88197012 </i>
   </energy>
  </scstep>
  <scstep>
   <time name="total">    2.01    1.25</time>
   <energy>
    <i name="e_fr_energy">    -16.88240805 </i>
    <i name="e_wo_entrp">    -16.88240805 </i>
    <i name="e_0_energy">    -16.88240805 </i>
   </energy>
  </scstep>
  <scstep>
   <time name="total">    2.05    1.27</time>
   <energy>
    <i name="e_fr_energy">    -16.88248654 </i>
    <i name="e_wo_entrp">    -16.88248654 </i>
    <i name="e_0_energy">    -16.88248654 </i>
   </energy>
  </scstep>
  <scstep>
   <time name="total">    2.06    1.27</time>
   <energy>
    <i name="e_fr_energy">    -16.88248984 </i>
    <i name="e_wo_entrp">    -16.88248984 </i>
    <i name="e_0_energy">    -16.88248984 </i>
   </energy>
  </scstep>
  <scstep>
   <time name="total">    2.07    1.28</time>
   <energy>
    <i name="e_fr_energy">    -16.88249116 </i>
    <i name="e_wo_entrp">    -16.88249116 </i>
    <i name="e_0_energy">    -16.88249116 </i>
   </energy>
  </scstep>
  <scstep>
   <time name="total">    2.07    1.25</time>
   <energy>
    <i name="e_fr_energy">    -16.88249126 </i>
    <i name="e_wo_entrp">    -16.88249126 </i>
    <i name="e_0_energy">    -16.88249126 </i>
   </energy>
  </scstep>
  <scstep>
   <time name="total">    2.10    1.26</time>
   <energy>
    <i name="e_fr_energy">    -16.88249128 </i>
    <i name="e_wo_entrp">    -16.88249128 </i>
    <i name="e_0_energy">    -16.88249128 </i>
   </energy>
  </scstep>
  <scstep>
   <time name="total">    2.01    1.22</time>
   <energy>
    <i name="e_fr_energy">    -16.88249128 </i>
    <i name="e_wo_entrp">    -16.88249128 </i>
    <i name="e_0_energy">    -16.88249128 </i>
   </energy>
  </scstep>
  <scstep>
   <time name="total">    2.01    1.22</time>
   <energy>
    <i name="e_fr_energy">    -16.88249128 </i>
    <i name="e_wo_entrp">    -16.88249128 </i>
    <i name="e_0_energy">    -16.88249128 </i>
   </energy>
  </scstep>
  <scstep>
   <time name="total">    1.91    1.17</time>
   <energy>
    <i name="e_fr_energy">    -16.88249128 </i>
    <i name="e_wo_entrp">    -16.88249128 </i>
    <i name="e_0_energy">    -16.88249128 </i>
   </energy>
  </scstep>
  <scstep>
   <time name="total">    1.60    1.08</time>
   <energy>
    <i name="e_fr_energy">     -4.06656526 </i>
    <i name="e_wo_entrp">     -4.06656526 </i>
    <i name="e_0_energy">     -4.06656526 </i>
   </energy>
  </scstep>
  <scstep>
   <time name="total">    2.02    1.25</time>
   <energy>
    <i name="e_fr_energy">    -15.53759055 </i>
    <i name="e_wo_entrp">    -15.53759055 </i>
    <i name="e_0_energy">    -15.53759055 </i>
   </energy>
  </scstep>
  <scstep>
   <time name="total">    2.02    1.24</time>
   <energy>
    <i name="e_fr_energy">    -15.60079990 </i>
    <i name="e_wo_entrp">    -15.60079990 </i>
    <i name="e_0_energy">    -15.60079990 </i>
   </energy>
  </scstep>
  <scstep>
   <time name="total">    2.03    1.25</time>
   <energy>
    <i name="e_fr_energy">    -15.60120196 </i>
    <i name="e_wo_entrp">    -15.60120196 </i>
    <i name="e_0_energy">    -15.60120196 </i>
   </energy>
  </scstep>
  <scstep>
   <time name="total">    2.02    1.25</time>
   <energy>
    <i name="e_fr_energy">    -15.60130159 </i>
    <i name="e_wo_entrp">    -15.60130159 </i>
    <i name="e_0_energy">    -15.60130159 </i>
   </energy>
  </scstep>
  <scstep>
   <time name="total">    2.03    1.26</time>
   <energy>
    <i name="e_fr_energy">    -15.60130534 </i>
    <i name="e_wo_entrp">    -15.60130534 </i>
    <i name="e_0_energy">    -15.60130534 </i>
   </energy>
  </scstep>
  <scstep>
   <time name="total">    2.09    1.27</time>
   <energy>
    <i name="e_fr_energy">    -15.60130703 </i>
    <i name="e_wo_entrp">    -15.60130703 </i>
    <i name="e_0_energy">    -15.60130703 </i>
   </energy>
  </scstep>
  <scstep>
   <time name="total">    2.09    1.26</time>
   <energy>
    <i name="e_fr_energy">    -15.60130714 </i>
    <i name="e_wo_entrp">    -15.60130714 </i>
    <i name="e_0_energy">    -15.60130714 </i>
   </energy>
  </scstep>
  <scstep>
   <time name="total">    2.10    1.26</time>
   <energy>
    <i name="e_fr_energy">    -15.60130717 </i>
    <i name="e_wo_entrp">    -15.60130717 </i>
    <i name="e_0_energy">    -15.60130717 </i>
   </energy>
  </scstep>
  <scstep>
   <time name="total">    2.05    1.24</time>
   <energy>
    <i name="e_fr_energy">    -15.60130718 </i>
    <i name="e_wo_entrp">    -15.60130718 </i>
    <i name="e_0_energy">    -15.60130718 </i>
   </energy>
  </scstep>
  <scstep>
   <time name="total">    2.05    1.24</time>
   <energy>
    <i name="e_fr_energy">    -15.60130718 </i>
    <i name="e_wo_entrp">    -15.60130718 </i>
    <i name="e_0_energy">    -15.60130718 </i>
   </energy>
  </scstep>
  <varray name="dielectric_ipa" >
   <v>      25.85901196       0.00000000       0.00000000 </v>
   <v>       0.00000000      31.06030127       0.00000000 </v>
   <v>       0.00000000       0.00000000      28.77907523 </v>
  </varray>
  <kpoints>
   <generation param="Gamma">
    <v type="int" name="divisions">       8        9        3 </v>
    <v name="usershift">      0.00000000       0.00000000       0.00000000 </v>
    <v name="genvec1">      0.12500000       0.00000000       0.00000000 </v>
    <v name="genvec2">      0.00000000       0.11111111       0.00000000 </v>
    <v name="genvec3">      0.00000000       0.00000000       0.33333333 </v>
    <v name="shift">      0.00000000       0.00000000       0.00000000 </v>
   </generation>
   <varray name="kpointlist" >
    <v>       0.00000000       0.00000000       0.00000000 </v>
    <v>       0.12500000       0.00000000       0.00000000 </v>
    <v>       0.25000000       0.00000000       0.00000000 </v>
    <v>       0.37500000       0.00000000       0.00000000 </v>
    <v>       0.50000000       0.00000000       0.00000000 </v>
    <v>       0.00000000       0.11111111       0.00000000 </v>
    <v>       0.12500000       0.11111111       0.00000000 </v>
    <v>       0.25000000       0.11111111       0.00000000 </v>
    <v>       0.37500000       0.11111111       0.00000000 </v>
    <v>       0.50000000       0.11111111       0.00000000 </v>
    <v>       0.00000000       0.22222222       0.00000000 </v>
    <v>       0.12500000       0.22222222       0.00000000 </v>
    <v>       0.25000000       0.22222222       0.00000000 </v>
    <v>       0.37500000       0.22222222       0.00000000 </v>
    <v>       0.50000000       0.22222222       0.00000000 </v>
    <v>       0.00000000       0.33333333       0.00000000 </v>
    <v>       0.12500000       0.33333333       0.00000000 </v>
    <v>       0.25000000       0.33333333       0.00000000 </v>
    <v>       0.37500000       0.33333333       0.00000000 </v>
    <v>       0.50000000       0.33333333       0.00000000 </v>
    <v>       0.00000000       0.44444444       0.00000000 </v>
    <v>       0.12500000       0.44444444       0.00000000 </v>
    <v>       0.25000000       0.44444444       0.00000000 </v>
    <v>       0.37500000       0.44444444       0.00000000 </v>
    <v>       0.50000000       0.44444444       0.00000000 </v>
    <v>       0.00000000       0.00000000       0.33333333 </v>
    <v>       0.12500000       0.00000000       0.33333333 </v>
    <v>       0.25000000       0.00000000       0.33333333 </v>
    <v>       0.37500000       0.00000000       0.33333333 </v>
    <v>       0.50000000       0.00000000       0.33333333 </v>
    <v>       0.00000000       0.11111111       0.33333333 </v>
    <v>       0.12500000       0.11111111       0.33333333 </v>
    <v>       0.25000000       0.11111111       0.33333333 </v>
    <v>       0.37500000       0.11111111       0.33333333 </v>
    <v>       0.50000000       0.11111111       0.33333333 </v>
    <v>       0.00000000       0.22222222       0.33333333 </v>
    <v>       0.12500000       0.22222222       0.33333333 </v>
    <v>       0.25000000       0.22222222       0.33333333 </v>
    <v>       0.37500000       0.22222222       0.33333333 </v>
    <v>       0.50000000       0.22222222       0.33333333 </v>
    <v>       0.00000000       0.33333333       0.33333333 </v>
    <v>       0.12500000       0.33333333       0.33333333 </v>
    <v>       0.25000000       0.33333333       0.33333333 </v>
    <v>       0.37500000       0.33333333       0.33333333 </v>
    <v>       0.50000000       0.33333333       0.33333333 </v>
    <v>       0.00000000       0.44444444       0.33333333 </v>
    <v>       0.12500000       0.44444444       0.33333333 </v>
    <v>       0.25000000       0.44444444       0.33333333 </v>
    <v>       0.37500000       0.44444444       0.33333333 </v>
    <v>       0.50000000       0.44444444       0.33333333 </v>
   </varray>
   <varray name="weights" >
    <v>       0.00462963 </v>
    <v>       0.00925926 </v>
    <v>       0.00925926 </v>
    <v>       0.00925926 </v>
    <v>       0.00462963 </v>
    <v>       0.00925926 </v>
    <v>       0.01851852 </v>
    <v>       0.01851852 </v>
    <v>       0.01851852 </v>
    <v>       0.00925926 </v>
    <v>       0.00925926 </v>
    <v>       0.01851852 </v>
    <v>       0.01851852 </v>
    <v>       0.01851852 </v>
    <v>       0.00925926 </v>
    <v>       0.00925926 </v>
    <v>       0.01851852 </v>
    <v>       0.01851852 </v>
    <v>       0.01851852 </v>
    <v>       0.00925926 </v>
    <v>       0.00925926 </v>
    <v>       0.01851852 </v>
    <v>       0.01851852 </v>
    <v>       0.01851852 </v>
    <v>       0.00925926 </v>
    <v>       0.00925926 </v>
    <v>       0.01851852 </v>
    <v>       0.01851852 </v>
    <v>       0.01851852 </v>
    <v>       0.00925926 </v>
    <v>       0.01851852 </v>
    <v>       0.03703704 </v>
    <v>       0.03703704 </v>
    <v>       0.03703704 </v>
    <v>       0.01851852 </v>
    <v>       0.01851852 </v>
    <v>       0.03703704 </v>
    <v>       0.03703704 </v>
    <v>       0.03703704 </v>
    <v>       0.01851852 </v>
    <v>       0.01851852 </v>
    <v>       0.03703704 </v>
    <v>       0.03703704 </v>
    <v>       0.03703704 </v>
    <v>       0.01851852 </v>
    <v>       0.01851852 </v>
    <v>       0.03703704 </v>
    <v>       0.03703704 </v>
    <v>       0.03703704 </v>
    <v>       0.01851852 </v>
   </varray>
  </kpoints>
  <scstep>
   <time name="total">    1.61    1.09</time>
   <energy>
    <i name="e_fr_energy">     -2.35849507 </i>
    <i name="e_wo_entrp">     -2.35849507 </i>
    <i name="e_0_energy">     -2.35849507 </i>
   </energy>
  </scstep>
  <scstep>
   <time name="total">    2.25    1.38</time>
   <energy>
    <i name="e_fr_energy">    -13.88710899 </i>
    <i name="e_wo_entrp">    -13.88710899 </i>
    <i name="e_0_energy">    -13.88710899 </i>
   </energy>
  </scstep>
  <scstep>
   <time name="total">    2.18    1.40</time>
   <energy>
    <i name="e_fr_energy">    -13.36811905 </i>
    <i name="e_wo_entrp">    -13.36811905 </i>
    <i name="e_0_energy">    -13.36811905 </i>
   </energy>
  </scstep>
  <scstep>
   <time name="total">    2.16    1.40</time>
   <energy>
    <i name="e_fr_energy">    -13.53570078 </i>
    <i name="e_wo_entrp">    -13.53570078 </i>
    <i name="e_0_energy">    -13.53570078 </i>
   </energy>
  </scstep>
  <scstep>
   <time name="total">    2.14    1.37</time>
   <energy>
    <i name="e_fr_energy">    -13.73550384 </i>
    <i name="e_wo_entrp">    -13.73550384 </i>
    <i name="e_0_energy">    -13.73550384 </i>
   </energy>
  </scstep>
  <scstep>
   <time name="total">    2.23    1.40</time>
   <energy>
    <i name="e_fr_energy">    -13.78877597 </i>
    <i name="e_wo_entrp">    -13.78877597 </i>
    <i name="e_0_energy">    -13.78877597 </i>
   </energy>
  </scstep>
  <scstep>
   <time name="total">    2.25    1.41</time>
   <energy>
    <i name="e_fr_energy">    -13.79767924 </i>
    <i name="e_wo_entrp">    -13.79767924 </i>
    <i name="e_0_energy">    -13.79767924 </i>
   </energy>
  </scstep>
  <scstep>
   <time name="total">    2.23    1.40</time>
   <energy>
    <i name="e_fr_energy">    -13.79721480 </i>
    <i name="e_wo_entrp">    -13.79721480 </i>
    <i name="e_0_energy">    -13.79721480 </i>
   </energy>
  </scstep>
  <scstep>
   <time name="total">    2.29    1.43</time>
   <energy>
    <i name="e_fr_energy">    -13.80427235 </i>
    <i name="e_wo_entrp">    -13.80427235 </i>
    <i name="e_0_energy">    -13.80427235 </i>
   </energy>
  </scstep>
  <scstep>
   <time name="total">    2.27    1.42</time>
   <energy>
    <i name="e_fr_energy">    -13.79711678 </i>
    <i name="e_wo_entrp">    -13.79711678 </i>
    <i name="e_0_energy">    -13.79711678 </i>
   </energy>
  </scstep>
  <scstep>
   <time name="total">    2.23    1.40</time>
   <energy>
    <i name="e_fr_energy">    -13.80199504 </i>
    <i name="e_wo_entrp">    -13.80199504 </i>
    <i name="e_0_energy">    -13.80199504 </i>
   </energy>
  </scstep>
  <scstep>
   <time name="total">    2.28    1.42</time>
   <energy>
    <i name="e_fr_energy">    -13.80180396 </i>
    <i name="e_wo_entrp">    -13.80180396 </i>
    <i name="e_0_energy">    -13.80180396 </i>
   </energy>
  </scstep>
  <scstep>
   <time name="total">    2.23    1.40</time>
   <energy>
    <i name="e_fr_energy">    -13.80211763 </i>
    <i name="e_wo_entrp">    -13.80211763 </i>
    <i name="e_0_energy">    -13.80211763 </i>
   </energy>
  </scstep>
  <scstep>
   <time name="total">    2.16    1.36</time>
   <energy>
    <i name="e_fr_energy">    -13.80346947 </i>
    <i name="e_wo_entrp">    -13.80346947 </i>
    <i name="e_0_energy">    -13.80346947 </i>
   </energy>
  </scstep>
  <scstep>
   <time name="total">    2.18    1.37</time>
   <energy>
    <i name="e_fr_energy">    -13.79985768 </i>
    <i name="e_wo_entrp">    -13.79985768 </i>
    <i name="e_0_energy">    -13.79985768 </i>
   </energy>
  </scstep>
  <scstep>
   <time name="total">    2.14    1.36</time>
   <energy>
    <i name="e_fr_energy">    -13.80480853 </i>
    <i name="e_wo_entrp">    -13.80480853 </i>
    <i name="e_0_energy">    -13.80480853 </i>
   </energy>
  </scstep>
  <scstep>
   <time name="total">    2.13    1.35</time>
   <energy>
    <i name="e_fr_energy">    -13.80335588 </i>
    <i name="e_wo_entrp">    -13.80335588 </i>
    <i name="e_0_energy">    -13.80335588 </i>
   </energy>
  </scstep>
  <scstep>
   <time name="total">    2.07    1.32</time>
   <energy>
    <i name="e_fr_energy">    -13.80274541 </i>
    <i name="e_wo_entrp">    -13.80274541 </i>
    <i name="e_0_energy">    -13.80274541 </i>
   </energy>
  </scstep>
  <scstep>
   <time name="total">    2.08    1.33</time>
   <energy>
    <i name="e_fr_energy">    -13.80404656 </i>
    <i name="e_wo_entrp">    -13.80404656 </i>
    <i name="e_0_energy">    -13.80404656 </i>
   </energy>
  </scstep>
  <scstep>
   <time name="total">    2.08    1.32</time>
   <energy>
    <i name="e_fr_energy">    -13.80351213 </i>
    <i name="e_wo_entrp">    -13.80351213 </i>
    <i name="e_0_energy">    -13.80351213 </i>
   </energy>
  </scstep>
  <scstep>
   <time name="total">    2.07    1.32</time>
   <energy>
    <i name="e_fr_energy">    -13.80183180 </i>
    <i name="e_wo_entrp">    -13.80183180 </i>
    <i name="e_0_energy">    -13.80183180 </i>
   </energy>
  </scstep>
  <scstep>
   <time name="total">    2.07    1.32</time>
   <energy>
    <i name="e_fr_energy">    -13.80093248 </i>
    <i name="e_wo_entrp">    -13.80093248 </i>
    <i name="e_0_energy">    -13.80093248 </i>
   </energy>
  </scstep>
  <scstep>
   <time name="total">    2.08    1.33</time>
   <energy>
    <i name="e_fr_energy">    -13.80227272 </i>
    <i name="e_wo_entrp">    -13.80227272 </i>
    <i name="e_0_energy">    -13.80227272 </i>
   </energy>
  </scstep>
  <scstep>
   <time name="total">    2.14    1.36</time>
   <energy>
    <i name="e_fr_energy">    -13.80172719 </i>
    <i name="e_wo_entrp">    -13.80172719 </i>
    <i name="e_0_energy">    -13.80172719 </i>
   </energy>
  </scstep>
  <scstep>
   <time name="total">    2.09    1.33</time>
   <energy>
    <i name="e_fr_energy">    -13.79997421 </i>
    <i name="e_wo_entrp">    -13.79997421 </i>
    <i name="e_0_energy">    -13.79997421 </i>
   </energy>
  </scstep>
  <scstep>
   <time name="total">    2.12    1.35</time>
   <energy>
    <i name="e_fr_energy">    -13.80215048 </i>
    <i name="e_wo_entrp">    -13.80215048 </i>
    <i name="e_0_energy">    -13.80215048 </i>
   </energy>
  </scstep>
  <scstep>
   <time name="total">    2.09    1.33</time>
   <energy>
    <i name="e_fr_energy">    -13.80441008 </i>
    <i name="e_wo_entrp">    -13.80441008 </i>
    <i name="e_0_energy">    -13.80441008 </i>
   </energy>
  </scstep>
  <scstep>
   <time name="total">    2.12    1.34</time>
   <energy>
    <i name="e_fr_energy">    -13.80348916 </i>
    <i name="e_wo_entrp">    -13.80348916 </i>
    <i name="e_0_energy">    -13.80348916 </i>
   </energy>
  </scstep>
  <scstep>
   <time name="total">    2.10    1.34</time>
   <energy>
    <i name="e_fr_energy">    -13.80236480 </i>
    <i name="e_wo_entrp">    -13.80236480 </i>
    <i name="e_0_energy">    -13.80236480 </i>
   </energy>
  </scstep>
  <kpoints>
   <generation param="Gamma">
    <v type="int" name="divisions">       8        9        3 </v>
    <v name="usershift">      0.00000000       0.00000000       0.00000000 </v>
    <v name="genvec1">      0.12500000       0.00000000       0.00000000 </v>
    <v name="genvec2">      0.00000000       0.11111111       0.00000000 </v>
    <v name="genvec3">      0.00000000       0.00000000       0.33333333 </v>
    <v name="shift">      0.00000000       0.00000000       0.00000000 </v>
   </generation>
   <varray name="kpointlist" >
    <v>       0.00000000       0.00000000       0.00000000 </v>
    <v>       0.12500000       0.00000000       0.00000000 </v>
    <v>       0.25000000       0.00000000       0.00000000 </v>
    <v>       0.37500000       0.00000000       0.00000000 </v>
    <v>       0.50000000       0.00000000       0.00000000 </v>
    <v>       0.00000000       0.11111111       0.00000000 </v>
    <v>       0.12500000       0.11111111       0.00000000 </v>
    <v>       0.25000000       0.11111111       0.00000000 </v>
    <v>       0.37500000       0.11111111       0.00000000 </v>
    <v>       0.50000000       0.11111111       0.00000000 </v>
    <v>       0.00000000       0.22222222       0.00000000 </v>
    <v>       0.12500000       0.22222222       0.00000000 </v>
    <v>       0.25000000       0.22222222       0.00000000 </v>
    <v>       0.37500000       0.22222222       0.00000000 </v>
    <v>       0.50000000       0.22222222       0.00000000 </v>
    <v>       0.00000000       0.33333333       0.00000000 </v>
    <v>       0.12500000       0.33333333       0.00000000 </v>
    <v>       0.25000000       0.33333333       0.00000000 </v>
    <v>       0.37500000       0.33333333       0.00000000 </v>
    <v>       0.50000000       0.33333333       0.00000000 </v>
    <v>       0.00000000       0.44444444       0.00000000 </v>
    <v>       0.12500000       0.44444444       0.00000000 </v>
    <v>       0.25000000       0.44444444       0.00000000 </v>
    <v>       0.37500000       0.44444444       0.00000000 </v>
    <v>       0.50000000       0.44444444       0.00000000 </v>
    <v>       0.00000000       0.00000000       0.33333333 </v>
    <v>       0.12500000       0.00000000       0.33333333 </v>
    <v>       0.25000000       0.00000000       0.33333333 </v>
    <v>       0.37500000       0.00000000       0.33333333 </v>
    <v>       0.50000000       0.00000000       0.33333333 </v>
    <v>       0.00000000       0.11111111       0.33333333 </v>
    <v>       0.12500000       0.11111111       0.33333333 </v>
    <v>       0.25000000       0.11111111       0.33333333 </v>
    <v>       0.37500000       0.11111111       0.33333333 </v>
    <v>       0.50000000       0.11111111       0.33333333 </v>
    <v>       0.00000000       0.22222222       0.33333333 </v>
    <v>       0.12500000       0.22222222       0.33333333 </v>
    <v>       0.25000000       0.22222222       0.33333333 </v>
    <v>       0.37500000       0.22222222       0.33333333 </v>
    <v>       0.50000000       0.22222222       0.33333333 </v>
    <v>       0.00000000       0.33333333       0.33333333 </v>
    <v>       0.12500000       0.33333333       0.33333333 </v>
    <v>       0.25000000       0.33333333       0.33333333 </v>
    <v>       0.37500000       0.33333333       0.33333333 </v>
    <v>       0.50000000       0.33333333       0.33333333 </v>
    <v>       0.00000000       0.44444444       0.33333333 </v>
    <v>       0.12500000       0.44444444       0.33333333 </v>
    <v>       0.25000000       0.44444444       0.33333333 </v>
    <v>       0.37500000       0.44444444       0.33333333 </v>
    <v>       0.50000000       0.44444444       0.33333333 </v>
   </varray>
   <varray name="weights" >
    <v>       0.00462963 </v>
    <v>       0.00925926 </v>
    <v>       0.00925926 </v>
    <v>       0.00925926 </v>
    <v>       0.00462963 </v>
    <v>       0.00925926 </v>
    <v>       0.01851852 </v>
    <v>       0.01851852 </v>
    <v>       0.01851852 </v>
    <v>       0.00925926 </v>
    <v>       0.00925926 </v>
    <v>       0.01851852 </v>
    <v>       0.01851852 </v>
    <v>       0.01851852 </v>
    <v>       0.00925926 </v>
    <v>       0.00925926 </v>
    <v>       0.01851852 </v>
    <v>       0.01851852 </v>
    <v>       0.01851852 </v>
    <v>       0.00925926 </v>
    <v>       0.00925926 </v>
    <v>       0.01851852 </v>
    <v>       0.01851852 </v>
    <v>       0.01851852 </v>
    <v>       0.00925926 </v>
    <v>       0.00925926 </v>
    <v>       0.01851852 </v>
    <v>       0.01851852 </v>
    <v>       0.01851852 </v>
    <v>       0.00925926 </v>
    <v>       0.01851852 </v>
    <v>       0.03703704 </v>
    <v>       0.03703704 </v>
    <v>       0.03703704 </v>
    <v>       0.01851852 </v>
    <v>       0.01851852 </v>
    <v>       0.03703704 </v>
    <v>       0.03703704 </v>
    <v>       0.03703704 </v>
    <v>       0.01851852 </v>
    <v>       0.01851852 </v>
    <v>       0.03703704 </v>
    <v>       0.03703704 </v>
    <v>       0.03703704 </v>
    <v>       0.01851852 </v>
    <v>       0.01851852 </v>
    <v>       0.03703704 </v>
    <v>       0.03703704 </v>
    <v>       0.03703704 </v>
    <v>       0.01851852 </v>
   </varray>
  </kpoints>
  <scstep>
   <time name="total">    1.56    1.05</time>
   <energy>
    <i name="e_fr_energy">     -3.84963000 </i>
    <i name="e_wo_entrp">     -3.84963000 </i>
    <i name="e_0_energy">     -3.84963000 </i>
   </energy>
  </scstep>
  <scstep>
   <time name="total">    2.27    1.38</time>
   <energy>
    <i name="e_fr_energy">    -16.79576219 </i>
    <i name="e_wo_entrp">    -16.79576219 </i>
    <i name="e_0_energy">    -16.79576219 </i>
   </energy>
  </scstep>
  <scstep>
   <time name="total">    2.12    1.36</time>
   <energy>
    <i name="e_fr_energy">    -16.51260224 </i>
    <i name="e_wo_entrp">    -16.51260224 </i>
    <i name="e_0_energy">    -16.51260224 </i>
   </energy>
  </scstep>
  <scstep>
   <time name="total">    2.13    1.34</time>
   <energy>
    <i name="e_fr_energy">    -16.93482026 </i>
    <i name="e_wo_entrp">    -16.93482026 </i>
    <i name="e_0_energy">    -16.93482026 </i>
   </energy>
  </scstep>
  <scstep>
   <time name="total">    2.18    1.38</time>
   <energy>
    <i name="e_fr_energy">    -17.04858153 </i>
    <i name="e_wo_entrp">    -17.04858153 </i>
    <i name="e_0_energy">    -17.04858153 </i>
   </energy>
  </scstep>
  <scstep>
   <time name="total">    2.21    1.39</time>
   <energy>
    <i name="e_fr_energy">    -17.06885469 </i>
    <i name="e_wo_entrp">    -17.06885469 </i>
    <i name="e_0_energy">    -17.06885469 </i>
   </energy>
  </scstep>
  <scstep>
   <time name="total">    2.21    1.38</time>
   <energy>
    <i name="e_fr_energy">    -17.06720104 </i>
    <i name="e_wo_entrp">    -17.06720104 </i>
    <i name="e_0_energy">    -17.06720104 </i>
   </energy>
  </scstep>
  <scstep>
   <time name="total">    2.26    1.40</time>
   <energy>
    <i name="e_fr_energy">    -17.07108309 </i>
    <i name="e_wo_entrp">    -17.07108309 </i>
    <i name="e_0_energy">    -17.07108309 </i>
   </energy>
  </scstep>
  <scstep>
   <time name="total">    2.23    1.39</time>
   <energy>
    <i name="e_fr_energy">    -17.06856696 </i>
    <i name="e_wo_entrp">    -17.06856696 </i>
    <i name="e_0_energy">    -17.06856696 </i>
   </energy>
  </scstep>
  <scstep>
   <time name="total">    2.26    1.41</time>
   <energy>
    <i name="e_fr_energy">    -17.07053035 </i>
    <i name="e_wo_entrp">    -17.07053035 </i>
    <i name="e_0_energy">    -17.07053035 </i>
   </energy>
  </scstep>
  <scstep>
   <time name="total">    2.28    1.42</time>
   <energy>
    <i name="e_fr_energy">    -17.06876191 </i>
    <i name="e_wo_entrp">    -17.06876191 </i>
    <i name="e_0_energy">    -17.06876191 </i>
   </energy>
  </scstep>
  <scstep>
   <time name="total">    2.29    1.42</time>
   <energy>
    <i name="e_fr_energy">    -17.07028158 </i>
    <i name="e_wo_entrp">    -17.07028158 </i>
    <i name="e_0_energy">    -17.07028158 </i>
   </energy>
  </scstep>
  <scstep>
   <time name="total">    2.21    1.38</time>
   <energy>
    <i name="e_fr_energy">    -17.06975737 </i>
    <i name="e_wo_entrp">    -17.06975737 </i>
    <i name="e_0_energy">    -17.06975737 </i>
   </energy>
  </scstep>
  <scstep>
   <time name="total">    2.23    1.39</time>
   <energy>
    <i name="e_fr_energy">    -17.06928784 </i>
    <i name="e_wo_entrp">    -17.06928784 </i>
    <i name="e_0_energy">    -17.06928784 </i>
   </energy>
  </scstep>
  <scstep>
   <time name="total">    2.12    1.34</time>
   <energy>
    <i name="e_fr_energy">    -17.06955215 </i>
    <i name="e_wo_entrp">    -17.06955215 </i>
    <i name="e_0_energy">    -17.06955215 </i>
   </energy>
  </scstep>
  <scstep>
   <time name="total">    2.11    1.33</time>
   <energy>
    <i name="e_fr_energy">    -17.07082164 </i>
    <i name="e_wo_entrp">    -17.07082164 </i>
    <i name="e_0_energy">    -17.07082164 </i>
   </energy>
  </scstep>
  <scstep>
   <time name="total">    2.08    1.32</time>
   <energy>
    <i name="e_fr_energy">    -17.06990237 </i>
    <i name="e_wo_entrp">    -17.06990237 </i>
    <i name="e_0_energy">    -17.06990237 </i>
   </energy>
  </scstep>
  <scstep>
   <time name="total">    2.06    1.30</time>
   <energy>
    <i name="e_fr_energy">    -17.06853501 </i>
    <i name="e_wo_entrp">    -17.06853501 </i>
    <i name="e_0_energy">    -17.06853501 </i>
   </energy>
  </scstep>
  <scstep>
   <time name="total">    2.11    1.33</time>
   <energy>
    <i name="e_fr_energy">    -17.07059122 </i>
    <i name="e_wo_entrp">    -17.07059122 </i>
    <i name="e_0_energy">    -17.07059122 </i>
   </energy>
  </scstep>
  <scstep>
   <time name="total">    2.06    1.31</time>
   <energy>
    <i name="e_fr_energy">    -17.07001535 </i>
    <i name="e_wo_entrp">    -17.07001535 </i>
    <i name="e_0_energy">    -17.07001535 </i>
   </energy>
  </scstep>
  <scstep>
   <time name="total">    2.08    1.31</time>
   <energy>
    <i name="e_fr_energy">    -17.07022506 </i>
    <i name="e_wo_entrp">    -17.07022506 </i>
    <i name="e_0_energy">    -17.07022506 </i>
   </energy>
  </scstep>
  <scstep>
   <time name="total">    2.08    1.31</time>
   <energy>
    <i name="e_fr_energy">    -17.07015065 </i>
    <i name="e_wo_entrp">    -17.07015065 </i>
    <i name="e_0_energy">    -17.07015065 </i>
   </energy>
  </scstep>
  <scstep>
   <time name="total">    2.11    1.33</time>
   <energy>
    <i name="e_fr_energy">    -17.07042265 </i>
    <i name="e_wo_entrp">    -17.07042265 </i>
    <i name="e_0_energy">    -17.07042265 </i>
   </energy>
  </scstep>
  <scstep>
   <time name="total">    2.07    1.31</time>
   <energy>
    <i name="e_fr_energy">    -17.07066857 </i>
    <i name="e_wo_entrp">    -17.07066857 </i>
    <i name="e_0_energy">    -17.07066857 </i>
   </energy>
  </scstep>
  <scstep>
   <time name="total">    2.08    1.32</time>
   <energy>
    <i name="e_fr_energy">    -17.07043347 </i>
    <i name="e_wo_entrp">    -17.07043347 </i>
    <i name="e_0_energy">    -17.07043347 </i>
   </energy>
  </scstep>
  <scstep>
   <time name="total">    2.09    1.32</time>
   <energy>
    <i name="e_fr_energy">    -17.07084891 </i>
    <i name="e_wo_entrp">    -17.07084891 </i>
    <i name="e_0_energy">    -17.07084891 </i>
   </energy>
  </scstep>
  <scstep>
   <time name="total">    2.11    1.33</time>
   <energy>
    <i name="e_fr_energy">    -17.07137512 </i>
    <i name="e_wo_entrp">    -17.07137512 </i>
    <i name="e_0_energy">    -17.07137512 </i>
   </energy>
  </scstep>
  <scstep>
   <time name="total">    2.10    1.32</time>
   <energy>
    <i name="e_fr_energy">    -17.06939374 </i>
    <i name="e_wo_entrp">    -17.06939374 </i>
    <i name="e_0_energy">    -17.06939374 </i>
   </energy>
  </scstep>
  <scstep>
   <time name="total">    2.11    1.33</time>
   <energy>
    <i name="e_fr_energy">    -17.07141592 </i>
    <i name="e_wo_entrp">    -17.07141592 </i>
    <i name="e_0_energy">    -17.07141592 </i>
   </energy>
  </scstep>
  <scstep>
   <time name="total">    2.11    1.33</time>
   <energy>
    <i name="e_fr_energy">    -17.07051752 </i>
    <i name="e_wo_entrp">    -17.07051752 </i>
    <i name="e_0_energy">    -17.07051752 </i>
   </energy>
  </scstep>
  <scstep>
   <time name="total">    2.12    1.34</time>
   <energy>
    <i name="e_fr_energy">    -17.06950056 </i>
    <i name="e_wo_entrp">    -17.06950056 </i>
    <i name="e_0_energy">    -17.06950056 </i>
   </energy>
  </scstep>
  <scstep>
   <time name="total">    2.11    1.33</time>
   <energy>
    <i name="e_fr_energy">    -17.07037411 </i>
    <i name="e_wo_entrp">    -17.07037411 </i>
    <i name="e_0_energy">    -17.07037411 </i>
   </energy>
  </scstep>
  <scstep>
   <time name="total">    2.11    1.33</time>
   <energy>
    <i name="e_fr_energy">    -17.07130738 </i>
    <i name="e_wo_entrp">    -17.07130738 </i>
    <i name="e_0_energy">    -17.07130738 </i>
   </energy>
  </scstep>
  <scstep>
   <time name="total">    2.13    1.34</time>
   <energy>
    <i name="e_fr_energy">    -17.07049651 </i>
    <i name="e_wo_entrp">    -17.07049651 </i>
    <i name="e_0_energy">    -17.07049651 </i>
   </energy>
  </scstep>
  <scstep>
   <time name="total">    2.12    1.34</time>
   <energy>
    <i name="e_fr_energy">    -17.07023264 </i>
    <i name="e_wo_entrp">    -17.07023264 </i>
    <i name="e_0_energy">    -17.07023264 </i>
   </energy>
  </scstep>
  <scstep>
   <time name="total">    2.14    1.34</time>
   <energy>
    <i name="e_fr_energy">    -17.06969832 </i>
    <i name="e_wo_entrp">    -17.06969832 </i>
    <i name="e_0_energy">    -17.06969832 </i>
   </energy>
  </scstep>
  <scstep>
   <time name="total">    2.12    1.33</time>
   <energy>
    <i name="e_fr_energy">    -17.07031706 </i>
    <i name="e_wo_entrp">    -17.07031706 </i>
    <i name="e_0_energy">    -17.07031706 </i>
   </energy>
  </scstep>
  <scstep>
   <time name="total">    2.12    1.34</time>
   <energy>
    <i name="e_fr_energy">    -17.07078900 </i>
    <i name="e_wo_entrp">    -17.07078900 </i>
    <i name="e_0_energy">    -17.07078900 </i>
   </energy>
  </scstep>
  <scstep>
   <time name="total">    2.14    1.35</time>
   <energy>
    <i name="e_fr_energy">    -17.07082175 </i>
    <i name="e_wo_entrp">    -17.07082175 </i>
    <i name="e_0_energy">    -17.07082175 </i>
   </energy>
  </scstep>
  <scstep>
   <time name="total">    2.12    1.34</time>
   <energy>
    <i name="e_fr_energy">    -17.06989760 </i>
    <i name="e_wo_entrp">    -17.06989760 </i>
    <i name="e_0_energy">    -17.06989760 </i>
   </energy>
  </scstep>
  <scstep>
   <time name="total">    2.13    1.34</time>
   <energy>
    <i name="e_fr_energy">    -17.07097373 </i>
    <i name="e_wo_entrp">    -17.07097373 </i>
    <i name="e_0_energy">    -17.07097373 </i>
   </energy>
  </scstep>
  <scstep>
   <time name="total">    2.12    1.34</time>
   <energy>
    <i name="e_fr_energy">    -17.07123370 </i>
    <i name="e_wo_entrp">    -17.07123370 </i>
    <i name="e_0_energy">    -17.07123370 </i>
   </energy>
  </scstep>
  <scstep>
   <time name="total">    2.18    1.37</time>
   <energy>
    <i name="e_fr_energy">    -17.07068401 </i>
    <i name="e_wo_entrp">    -17.07068401 </i>
    <i name="e_0_energy">    -17.07068401 </i>
   </energy>
  </scstep>
  <scstep>
   <time name="total">    2.13    1.34</time>
   <energy>
    <i name="e_fr_energy">    -17.07018413 </i>
    <i name="e_wo_entrp">    -17.07018413 </i>
    <i name="e_0_energy">    -17.07018413 </i>
   </energy>
  </scstep>
  <scstep>
   <time name="total">    2.16    1.36</time>
   <energy>
    <i name="e_fr_energy">    -17.07013646 </i>
    <i name="e_wo_entrp">    -17.07013646 </i>
    <i name="e_0_energy">    -17.07013646 </i>
   </energy>
  </scstep>
  <scstep>
   <time name="total">    2.13    1.34</time>
   <energy>
    <i name="e_fr_energy">    -17.07055295 </i>
    <i name="e_wo_entrp">    -17.07055295 </i>
    <i name="e_0_energy">    -17.07055295 </i>
   </energy>
  </scstep>
  <scstep>
   <time name="total">    2.15    1.35</time>
   <energy>
    <i name="e_fr_energy">    -17.07188451 </i>
    <i name="e_wo_entrp">    -17.07188451 </i>
    <i name="e_0_energy">    -17.07188451 </i>
   </energy>
  </scstep>
  <scstep>
   <time name="total">    2.14    1.35</time>
   <energy>
    <i name="e_fr_energy">    -17.06940796 </i>
    <i name="e_wo_entrp">    -17.06940796 </i>
    <i name="e_0_energy">    -17.06940796 </i>
   </energy>
  </scstep>
  <scstep>
   <time name="total">    2.15    1.35</time>
   <energy>
    <i name="e_fr_energy">    -17.06958358 </i>
    <i name="e_wo_entrp">    -17.06958358 </i>
    <i name="e_0_energy">    -17.06958358 </i>
   </energy>
  </scstep>
  <scstep>
   <time name="total">    2.15    1.35</time>
   <energy>
    <i name="e_fr_energy">    -17.07142799 </i>
    <i name="e_wo_entrp">    -17.07142799 </i>
    <i name="e_0_energy">    -17.07142799 </i>
   </energy>
  </scstep>
  <scstep>
   <time name="total">    2.16    1.36</time>
   <energy>
    <i name="e_fr_energy">    -17.07121106 </i>
    <i name="e_wo_entrp">    -17.07121106 </i>
    <i name="e_0_energy">    -17.07121106 </i>
   </energy>
  </scstep>
  <scstep>
   <time name="total">    2.15    1.35</time>
   <energy>
    <i name="e_fr_energy">    -17.07042345 </i>
    <i name="e_wo_entrp">    -17.07042345 </i>
    <i name="e_0_energy">    -17.07042345 </i>
   </energy>
  </scstep>
  <scstep>
   <time name="total">    2.15    1.35</time>
   <energy>
    <i name="e_fr_energy">    -17.07056189 </i>
    <i name="e_wo_entrp">    -17.07056189 </i>
    <i name="e_0_energy">    -17.07056189 </i>
   </energy>
  </scstep>
  <scstep>
   <time name="total">    2.23    1.39</time>
   <energy>
    <i name="e_fr_energy">    -17.07050919 </i>
    <i name="e_wo_entrp">    -17.07050919 </i>
    <i name="e_0_energy">    -17.07050919 </i>
   </energy>
  </scstep>
  <kpoints>
   <generation param="Gamma">
    <v type="int" name="divisions">       8        9        3 </v>
    <v name="usershift">      0.00000000       0.00000000       0.00000000 </v>
    <v name="genvec1">      0.12500000       0.00000000       0.00000000 </v>
    <v name="genvec2">      0.00000000       0.11111111       0.00000000 </v>
    <v name="genvec3">      0.00000000       0.00000000       0.33333333 </v>
    <v name="shift">      0.00000000       0.00000000       0.00000000 </v>
   </generation>
   <varray name="kpointlist" >
    <v>       0.00000000       0.00000000       0.00000000 </v>
    <v>       0.12500000       0.00000000       0.00000000 </v>
    <v>       0.25000000       0.00000000       0.00000000 </v>
    <v>       0.37500000       0.00000000       0.00000000 </v>
    <v>       0.50000000       0.00000000       0.00000000 </v>
    <v>       0.00000000       0.11111111       0.00000000 </v>
    <v>       0.12500000       0.11111111       0.00000000 </v>
    <v>       0.25000000       0.11111111       0.00000000 </v>
    <v>       0.37500000       0.11111111       0.00000000 </v>
    <v>       0.50000000       0.11111111       0.00000000 </v>
    <v>       0.00000000       0.22222222       0.00000000 </v>
    <v>       0.12500000       0.22222222       0.00000000 </v>
    <v>       0.25000000       0.22222222       0.00000000 </v>
    <v>       0.37500000       0.22222222       0.00000000 </v>
    <v>       0.50000000       0.22222222       0.00000000 </v>
    <v>       0.00000000       0.33333333       0.00000000 </v>
    <v>       0.12500000       0.33333333       0.00000000 </v>
    <v>       0.25000000       0.33333333       0.00000000 </v>
    <v>       0.37500000       0.33333333       0.00000000 </v>
    <v>       0.50000000       0.33333333       0.00000000 </v>
    <v>       0.00000000       0.44444444       0.00000000 </v>
    <v>       0.12500000       0.44444444       0.00000000 </v>
    <v>       0.25000000       0.44444444       0.00000000 </v>
    <v>       0.37500000       0.44444444       0.00000000 </v>
    <v>       0.50000000       0.44444444       0.00000000 </v>
    <v>       0.00000000       0.00000000       0.33333333 </v>
    <v>       0.12500000       0.00000000       0.33333333 </v>
    <v>       0.25000000       0.00000000       0.33333333 </v>
    <v>       0.37500000       0.00000000       0.33333333 </v>
    <v>       0.50000000       0.00000000       0.33333333 </v>
    <v>       0.00000000       0.11111111       0.33333333 </v>
    <v>       0.12500000       0.11111111       0.33333333 </v>
    <v>       0.25000000       0.11111111       0.33333333 </v>
    <v>       0.37500000       0.11111111       0.33333333 </v>
    <v>       0.50000000       0.11111111       0.33333333 </v>
    <v>       0.00000000       0.22222222       0.33333333 </v>
    <v>       0.12500000       0.22222222       0.33333333 </v>
    <v>       0.25000000       0.22222222       0.33333333 </v>
    <v>       0.37500000       0.22222222       0.33333333 </v>
    <v>       0.50000000       0.22222222       0.33333333 </v>
    <v>       0.00000000       0.33333333       0.33333333 </v>
    <v>       0.12500000       0.33333333       0.33333333 </v>
    <v>       0.25000000       0.33333333       0.33333333 </v>
    <v>       0.37500000       0.33333333       0.33333333 </v>
    <v>       0.50000000       0.33333333       0.33333333 </v>
    <v>       0.00000000       0.44444444       0.33333333 </v>
    <v>       0.12500000       0.44444444       0.33333333 </v>
    <v>       0.25000000       0.44444444       0.33333333 </v>
    <v>       0.37500000       0.44444444       0.33333333 </v>
    <v>       0.50000000       0.44444444       0.33333333 </v>
   </varray>
   <varray name="weights" >
    <v>       0.00462963 </v>
    <v>       0.00925926 </v>
    <v>       0.00925926 </v>
    <v>       0.00925926 </v>
    <v>       0.00462963 </v>
    <v>       0.00925926 </v>
    <v>       0.01851852 </v>
    <v>       0.01851852 </v>
    <v>       0.01851852 </v>
    <v>       0.00925926 </v>
    <v>       0.00925926 </v>
    <v>       0.01851852 </v>
    <v>       0.01851852 </v>
    <v>       0.01851852 </v>
    <v>       0.00925926 </v>
    <v>       0.00925926 </v>
    <v>       0.01851852 </v>
    <v>       0.01851852 </v>
    <v>       0.01851852 </v>
    <v>       0.00925926 </v>
    <v>       0.00925926 </v>
    <v>       0.01851852 </v>
    <v>       0.01851852 </v>
    <v>       0.01851852 </v>
    <v>       0.00925926 </v>
    <v>       0.00925926 </v>
    <v>       0.01851852 </v>
    <v>       0.01851852 </v>
    <v>       0.01851852 </v>
    <v>       0.00925926 </v>
    <v>       0.01851852 </v>
    <v>       0.03703704 </v>
    <v>       0.03703704 </v>
    <v>       0.03703704 </v>
    <v>       0.01851852 </v>
    <v>       0.01851852 </v>
    <v>       0.03703704 </v>
    <v>       0.03703704 </v>
    <v>       0.03703704 </v>
    <v>       0.01851852 </v>
    <v>       0.01851852 </v>
    <v>       0.03703704 </v>
    <v>       0.03703704 </v>
    <v>       0.03703704 </v>
    <v>       0.01851852 </v>
    <v>       0.01851852 </v>
    <v>       0.03703704 </v>
    <v>       0.03703704 </v>
    <v>       0.03703704 </v>
    <v>       0.01851852 </v>
   </varray>
  </kpoints>
  <scstep>
   <time name="total">    1.56    1.06</time>
   <energy>
    <i name="e_fr_energy">     -4.06656526 </i>
    <i name="e_wo_entrp">     -4.06656526 </i>
    <i name="e_0_energy">     -4.06656526 </i>
   </energy>
  </scstep>
  <scstep>
   <time name="total">    2.29    1.40</time>
   <energy>
    <i name="e_fr_energy">    -15.53759055 </i>
    <i name="e_wo_entrp">    -15.53759055 </i>
    <i name="e_0_energy">    -15.53759055 </i>
   </energy>
  </scstep>
  <scstep>
   <time name="total">    2.12    1.36</time>
   <energy>
    <i name="e_fr_energy">    -15.11461063 </i>
    <i name="e_wo_entrp">    -15.11461063 </i>
    <i name="e_0_energy">    -15.11461063 </i>
   </energy>
  </scstep>
  <scstep>
   <time name="total">    2.14    1.37</time>
   <energy>
    <i name="e_fr_energy">    -15.28088041 </i>
    <i name="e_wo_entrp">    -15.28088041 </i>
    <i name="e_0_energy">    -15.28088041 </i>
   </energy>
  </scstep>
  <scstep>
   <time name="total">    2.19    1.40</time>
   <energy>
    <i name="e_fr_energy">    -15.43242386 </i>
    <i name="e_wo_entrp">    -15.43242386 </i>
    <i name="e_0_energy">    -15.43242386 </i>
   </energy>
  </scstep>
  <scstep>
   <time name="total">    2.22    1.39</time>
   <energy>
    <i name="e_fr_energy">    -15.50448409 </i>
    <i name="e_wo_entrp">    -15.50448409 </i>
    <i name="e_0_energy">    -15.50448409 </i>
   </energy>
  </scstep>
  <scstep>
   <time name="total">    2.27    1.41</time>
   <energy>
    <i name="e_fr_energy">    -15.50415891 </i>
    <i name="e_wo_entrp">    -15.50415891 </i>
    <i name="e_0_energy">    -15.50415891 </i>
   </energy>
  </scstep>
  <scstep>
   <time name="total">    2.21    1.38</time>
   <energy>
    <i name="e_fr_energy">    -15.50914515 </i>
    <i name="e_wo_entrp">    -15.50914515 </i>
    <i name="e_0_energy">    -15.50914515 </i>
   </energy>
  </scstep>
  <scstep>
   <time name="total">    2.27    1.41</time>
   <energy>
    <i name="e_fr_energy">    -15.50705402 </i>
    <i name="e_wo_entrp">    -15.50705402 </i>
    <i name="e_0_energy">    -15.50705402 </i>
   </energy>
  </scstep>
  <scstep>
   <time name="total">    2.21    1.38</time>
   <energy>
    <i name="e_fr_energy">    -15.50485376 </i>
    <i name="e_wo_entrp">    -15.50485376 </i>
    <i name="e_0_energy">    -15.50485376 </i>
   </energy>
  </scstep>
  <scstep>
   <time name="total">    2.24    1.40</time>
   <energy>
    <i name="e_fr_energy">    -15.50545677 </i>
    <i name="e_wo_entrp">    -15.50545677 </i>
    <i name="e_0_energy">    -15.50545677 </i>
   </energy>
  </scstep>
  <scstep>
   <time name="total">    2.28    1.42</time>
   <energy>
    <i name="e_fr_energy">    -15.50771151 </i>
    <i name="e_wo_entrp">    -15.50771151 </i>
    <i name="e_0_energy">    -15.50771151 </i>
   </energy>
  </scstep>
  <scstep>
   <time name="total">    2.25    1.40</time>
   <energy>
    <i name="e_fr_energy">    -15.50437307 </i>
    <i name="e_wo_entrp">    -15.50437307 </i>
    <i name="e_0_energy">    -15.50437307 </i>
   </energy>
  </scstep>
  <scstep>
   <time name="total">    2.22    1.39</time>
   <energy>
    <i name="e_fr_energy">    -15.50923817 </i>
    <i name="e_wo_entrp">    -15.50923817 </i>
    <i name="e_0_energy">    -15.50923817 </i>
   </energy>
  </scstep>
  <scstep>
   <time name="total">    2.15    1.35</time>
   <energy>
    <i name="e_fr_energy">    -15.50428531 </i>
    <i name="e_wo_entrp">    -15.50428531 </i>
    <i name="e_0_energy">    -15.50428531 </i>
   </energy>
  </scstep>
  <scstep>
   <time name="total">    2.10    1.33</time>
   <energy>
    <i name="e_fr_energy">    -15.50624218 </i>
    <i name="e_wo_entrp">    -15.50624218 </i>
    <i name="e_0_energy">    -15.50624218 </i>
   </energy>
  </scstep>
  <scstep>
   <time name="total">    2.11    1.33</time>
   <energy>
    <i name="e_fr_energy">    -15.50231952 </i>
    <i name="e_wo_entrp">    -15.50231952 </i>
    <i name="e_0_energy">    -15.50231952 </i>
   </energy>
  </scstep>
  <scstep>
   <time name="total">    2.12    1.34</time>
   <energy>
    <i name="e_fr_energy">    -15.50663122 </i>
    <i name="e_wo_entrp">    -15.50663122 </i>
    <i name="e_0_energy">    -15.50663122 </i>
   </energy>
  </scstep>
  <scstep>
   <time name="total">    2.08    1.32</time>
   <energy>
    <i name="e_fr_energy">    -15.50426583 </i>
    <i name="e_wo_entrp">    -15.50426583 </i>
    <i name="e_0_energy">    -15.50426583 </i>
   </energy>
  </scstep>
  <scstep>
   <time name="total">    2.07    1.31</time>
   <energy>
    <i name="e_fr_energy">    -15.50455676 </i>
    <i name="e_wo_entrp">    -15.50455676 </i>
    <i name="e_0_energy">    -15.50455676 </i>
   </energy>
  </scstep>
  <scstep>
   <time name="total">    2.07    1.31</time>
   <energy>
    <i name="e_fr_energy">    -15.50477745 </i>
    <i name="e_wo_entrp">    -15.50477745 </i>
    <i name="e_0_energy">    -15.50477745 </i>
   </energy>
  </scstep>
  <scstep>
   <time name="total">    2.08    1.32</time>
   <energy>
    <i name="e_fr_energy">    -15.50595077 </i>
    <i name="e_wo_entrp">    -15.50595077 </i>
    <i name="e_0_energy">    -15.50595077 </i>
   </energy>
  </scstep>
  <scstep>
   <time name="total">    2.08    1.32</time>
   <energy>
    <i name="e_fr_energy">    -15.50754158 </i>
    <i name="e_wo_entrp">    -15.50754158 </i>
    <i name="e_0_energy">    -15.50754158 </i>
   </energy>
  </scstep>
  <scstep>
   <time name="total">    2.10    1.33</time>
   <energy>
    <i name="e_fr_energy">    -15.50490188 </i>
    <i name="e_wo_entrp">    -15.50490188 </i>
    <i name="e_0_energy">    -15.50490188 </i>
   </energy>
  </scstep>
  <kpoints>
   <generation param="Gamma">
    <v type="int" name="divisions">       8        9        3 </v>
    <v name="usershift">      0.00000000       0.00000000       0.00000000 </v>
    <v name="genvec1">      0.12500000       0.00000000       0.00000000 </v>
    <v name="genvec2">      0.00000000       0.11111111       0.00000000 </v>
    <v name="genvec3">      0.00000000       0.00000000       0.33333333 </v>
    <v name="shift">      0.00000000       0.00000000       0.00000000 </v>
   </generation>
   <varray name="kpointlist" >
    <v>       0.00000000       0.00000000       0.00000000 </v>
    <v>       0.12500000       0.00000000       0.00000000 </v>
    <v>       0.25000000       0.00000000       0.00000000 </v>
    <v>       0.37500000       0.00000000       0.00000000 </v>
    <v>       0.50000000       0.00000000       0.00000000 </v>
    <v>       0.00000000       0.11111111       0.00000000 </v>
    <v>       0.12500000       0.11111111       0.00000000 </v>
    <v>       0.25000000       0.11111111       0.00000000 </v>
    <v>       0.37500000       0.11111111       0.00000000 </v>
    <v>       0.50000000       0.11111111       0.00000000 </v>
    <v>       0.00000000       0.22222222       0.00000000 </v>
    <v>       0.12500000       0.22222222       0.00000000 </v>
    <v>       0.25000000       0.22222222       0.00000000 </v>
    <v>       0.37500000       0.22222222       0.00000000 </v>
    <v>       0.50000000       0.22222222       0.00000000 </v>
    <v>       0.00000000       0.33333333       0.00000000 </v>
    <v>       0.12500000       0.33333333       0.00000000 </v>
    <v>       0.25000000       0.33333333       0.00000000 </v>
    <v>       0.37500000       0.33333333       0.00000000 </v>
    <v>       0.50000000       0.33333333       0.00000000 </v>
    <v>       0.00000000       0.44444444       0.00000000 </v>
    <v>       0.12500000       0.44444444       0.00000000 </v>
    <v>       0.25000000       0.44444444       0.00000000 </v>
    <v>       0.37500000       0.44444444       0.00000000 </v>
    <v>       0.50000000       0.44444444       0.00000000 </v>
    <v>       0.00000000       0.00000000       0.33333333 </v>
    <v>       0.12500000       0.00000000       0.33333333 </v>
    <v>       0.25000000       0.00000000       0.33333333 </v>
    <v>       0.37500000       0.00000000       0.33333333 </v>
    <v>       0.50000000       0.00000000       0.33333333 </v>
    <v>       0.00000000       0.11111111       0.33333333 </v>
    <v>       0.12500000       0.11111111       0.33333333 </v>
    <v>       0.25000000       0.11111111       0.33333333 </v>
    <v>       0.37500000       0.11111111       0.33333333 </v>
    <v>       0.50000000       0.11111111       0.33333333 </v>
    <v>       0.00000000       0.22222222       0.33333333 </v>
    <v>       0.12500000       0.22222222       0.33333333 </v>
    <v>       0.25000000       0.22222222       0.33333333 </v>
    <v>       0.37500000       0.22222222       0.33333333 </v>
    <v>       0.50000000       0.22222222       0.33333333 </v>
    <v>       0.00000000       0.33333333       0.33333333 </v>
    <v>       0.12500000       0.33333333       0.33333333 </v>
    <v>       0.25000000       0.33333333       0.33333333 </v>
    <v>       0.37500000       0.33333333       0.33333333 </v>
    <v>       0.50000000       0.33333333       0.33333333 </v>
    <v>       0.00000000       0.44444444       0.33333333 </v>
    <v>       0.12500000       0.44444444       0.33333333 </v>
    <v>       0.25000000       0.44444444       0.33333333 </v>
    <v>       0.37500000       0.44444444       0.33333333 </v>
    <v>       0.50000000       0.44444444       0.33333333 </v>
   </varray>
   <varray name="weights" >
    <v>       0.00462963 </v>
    <v>       0.00925926 </v>
    <v>       0.00925926 </v>
    <v>       0.00925926 </v>
    <v>       0.00462963 </v>
    <v>       0.00925926 </v>
    <v>       0.01851852 </v>
    <v>       0.01851852 </v>
    <v>       0.01851852 </v>
    <v>       0.00925926 </v>
    <v>       0.00925926 </v>
    <v>       0.01851852 </v>
    <v>       0.01851852 </v>
    <v>       0.01851852 </v>
    <v>       0.00925926 </v>
    <v>       0.00925926 </v>
    <v>       0.01851852 </v>
    <v>       0.01851852 </v>
    <v>       0.01851852 </v>
    <v>       0.00925926 </v>
    <v>       0.00925926 </v>
    <v>       0.01851852 </v>
    <v>       0.01851852 </v>
    <v>       0.01851852 </v>
    <v>       0.00925926 </v>
    <v>       0.00925926 </v>
    <v>       0.01851852 </v>
    <v>       0.01851852 </v>
    <v>       0.01851852 </v>
    <v>       0.00925926 </v>
    <v>       0.01851852 </v>
    <v>       0.03703704 </v>
    <v>       0.03703704 </v>
    <v>       0.03703704 </v>
    <v>       0.01851852 </v>
    <v>       0.01851852 </v>
    <v>       0.03703704 </v>
    <v>       0.03703704 </v>
    <v>       0.03703704 </v>
    <v>       0.01851852 </v>
    <v>       0.01851852 </v>
    <v>       0.03703704 </v>
    <v>       0.03703704 </v>
    <v>       0.03703704 </v>
    <v>       0.01851852 </v>
    <v>       0.01851852 </v>
    <v>       0.03703704 </v>
    <v>       0.03703704 </v>
    <v>       0.03703704 </v>
    <v>       0.01851852 </v>
   </varray>
  </kpoints>
  <varray name="dielectric_dft" >
   <v>      24.40582011      -0.00000000       0.00000000 </v>
   <v>       0.00000000      29.83527911       0.00000000 </v>
   <v>       0.00000000       0.00000000      27.58747113 </v>
  </varray>
  <varray name="epsilon" >
   <v>      24.40582011      -0.00000000       0.00000000 </v>
   <v>       0.00000000      29.83527911       0.00000000 </v>
   <v>       0.00000000       0.00000000      27.58747113 </v>
  </varray>
  <kpoints>
   <generation param="Gamma">
    <v type="int" name="divisions">       8        9        3 </v>
    <v name="usershift">      0.00000000       0.00000000       0.00000000 </v>
    <v name="genvec1">      0.12500000       0.00000000       0.00000000 </v>
    <v name="genvec2">      0.00000000       0.11111111       0.00000000 </v>
    <v name="genvec3">      0.00000000       0.00000000       0.33333333 </v>
    <v name="shift">      0.00000000       0.00000000       0.00000000 </v>
   </generation>
   <varray name="kpointlist" >
    <v>       0.00000000       0.00000000       0.00000000 </v>
    <v>       0.12500000       0.00000000       0.00000000 </v>
    <v>       0.25000000       0.00000000       0.00000000 </v>
    <v>       0.37500000       0.00000000       0.00000000 </v>
    <v>       0.50000000       0.00000000       0.00000000 </v>
    <v>       0.00000000       0.11111111       0.00000000 </v>
    <v>       0.12500000       0.11111111       0.00000000 </v>
    <v>       0.25000000       0.11111111       0.00000000 </v>
    <v>       0.37500000       0.11111111       0.00000000 </v>
    <v>       0.50000000       0.11111111       0.00000000 </v>
    <v>       0.00000000       0.22222222       0.00000000 </v>
    <v>       0.12500000       0.22222222       0.00000000 </v>
    <v>       0.25000000       0.22222222       0.00000000 </v>
    <v>       0.37500000       0.22222222       0.00000000 </v>
    <v>       0.50000000       0.22222222       0.00000000 </v>
    <v>       0.00000000       0.33333333       0.00000000 </v>
    <v>       0.12500000       0.33333333       0.00000000 </v>
    <v>       0.25000000       0.33333333       0.00000000 </v>
    <v>       0.37500000       0.33333333       0.00000000 </v>
    <v>       0.50000000       0.33333333       0.00000000 </v>
    <v>       0.00000000       0.44444444       0.00000000 </v>
    <v>       0.12500000       0.44444444       0.00000000 </v>
    <v>       0.25000000       0.44444444       0.00000000 </v>
    <v>       0.37500000       0.44444444       0.00000000 </v>
    <v>       0.50000000       0.44444444       0.00000000 </v>
    <v>       0.00000000       0.00000000       0.33333333 </v>
    <v>       0.12500000       0.00000000       0.33333333 </v>
    <v>       0.25000000       0.00000000       0.33333333 </v>
    <v>       0.37500000       0.00000000       0.33333333 </v>
    <v>       0.50000000       0.00000000       0.33333333 </v>
    <v>       0.00000000       0.11111111       0.33333333 </v>
    <v>       0.12500000       0.11111111       0.33333333 </v>
    <v>       0.25000000       0.11111111       0.33333333 </v>
    <v>       0.37500000       0.11111111       0.33333333 </v>
    <v>       0.50000000       0.11111111       0.33333333 </v>
    <v>       0.00000000       0.22222222       0.33333333 </v>
    <v>       0.12500000       0.22222222       0.33333333 </v>
    <v>       0.25000000       0.22222222       0.33333333 </v>
    <v>       0.37500000       0.22222222       0.33333333 </v>
    <v>       0.50000000       0.22222222       0.33333333 </v>
    <v>       0.00000000       0.33333333       0.33333333 </v>
    <v>       0.12500000       0.33333333       0.33333333 </v>
    <v>       0.25000000       0.33333333       0.33333333 </v>
    <v>       0.37500000       0.33333333       0.33333333 </v>
    <v>       0.50000000       0.33333333       0.33333333 </v>
    <v>       0.00000000       0.44444444       0.33333333 </v>
    <v>       0.12500000       0.44444444       0.33333333 </v>
    <v>       0.25000000       0.44444444       0.33333333 </v>
    <v>       0.37500000       0.44444444       0.33333333 </v>
    <v>       0.50000000       0.44444444       0.33333333 </v>
   </varray>
   <varray name="weights" >
    <v>       0.00462963 </v>
    <v>       0.00925926 </v>
    <v>       0.00925926 </v>
    <v>       0.00925926 </v>
    <v>       0.00462963 </v>
    <v>       0.00925926 </v>
    <v>       0.01851852 </v>
    <v>       0.01851852 </v>
    <v>       0.01851852 </v>
    <v>       0.00925926 </v>
    <v>       0.00925926 </v>
    <v>       0.01851852 </v>
    <v>       0.01851852 </v>
    <v>       0.01851852 </v>
    <v>       0.00925926 </v>
    <v>       0.00925926 </v>
    <v>       0.01851852 </v>
    <v>       0.01851852 </v>
    <v>       0.01851852 </v>
    <v>       0.00925926 </v>
    <v>       0.00925926 </v>
    <v>       0.01851852 </v>
    <v>       0.01851852 </v>
    <v>       0.01851852 </v>
    <v>       0.00925926 </v>
    <v>       0.00925926 </v>
    <v>       0.01851852 </v>
    <v>       0.01851852 </v>
    <v>       0.01851852 </v>
    <v>       0.00925926 </v>
    <v>       0.01851852 </v>
    <v>       0.03703704 </v>
    <v>       0.03703704 </v>
    <v>       0.03703704 </v>
    <v>       0.01851852 </v>
    <v>       0.01851852 </v>
    <v>       0.03703704 </v>
    <v>       0.03703704 </v>
    <v>       0.03703704 </v>
    <v>       0.01851852 </v>
    <v>       0.01851852 </v>
    <v>       0.03703704 </v>
    <v>       0.03703704 </v>
    <v>       0.03703704 </v>
    <v>       0.01851852 </v>
    <v>       0.01851852 </v>
    <v>       0.03703704 </v>
    <v>       0.03703704 </v>
    <v>       0.03703704 </v>
    <v>       0.01851852 </v>
   </varray>
  </kpoints>
  <array name="born_charges" >
   <dimension dim="1">ion</dimension>
   <set>
    <v>       4.00425141      -0.00000000      -0.58728125 </v>
    <v>       0.00000000       4.57877657       0.00000000 </v>
    <v>       0.09130682       0.00000000       4.22498945 </v>
   </set>
   <set>
    <v>       4.00425141       0.00000000       0.58728125 </v>
    <v>       0.00000000       4.57877657       0.00000000 </v>
    <v>      -0.09130682       0.00000000       4.22498945 </v>
   </set>
   <set>
    <v>       4.00425141       0.00000000       0.58728125 </v>
    <v>       0.00000000       4.57877657       0.00000000 </v>
    <v>      -0.09130682       0.00000000       4.22498945 </v>
   </set>
   <set>
    <v>       4.00425141       0.00000000      -0.58728125 </v>
    <v>       0.00000000       4.57877657       0.00000000 </v>
    <v>       0.09130682       0.00000000       4.22498945 </v>
   </set>
   <set>
    <v>      -4.00425141       0.00000000       0.57744132 </v>
    <v>       0.00000000      -4.57877657       0.00000000 </v>
    <v>       0.69022077       0.00000000      -4.22498945 </v>
   </set>
   <set>
    <v>      -4.00425141       0.00000000      -0.57744132 </v>
    <v>       0.00000000      -4.57877657       0.00000000 </v>
    <v>      -0.69022077       0.00000000      -4.22498945 </v>
   </set>
   <set>
    <v>      -4.00425141       0.00000000      -0.57744132 </v>
    <v>       0.00000000      -4.57877657       0.00000000 </v>
    <v>      -0.69022077       0.00000000      -4.22498945 </v>
   </set>
   <set>
    <v>      -4.00425141       0.00000000       0.57744132 </v>
    <v>       0.00000000      -4.57877657       0.00000000 </v>
    <v>       0.69022077       0.00000000      -4.22498945 </v>
   </set>
  </array>
  <time name="totalsc">  445.02  280.06</time>
  <eigenvalues>
   <array>
    <dimension dim="1">band</dimension>
    <dimension dim="2">kpoint</dimension>
    <dimension dim="3">spin</dimension>
    <field>eigene</field>
    <field>occ</field>
    <set>
     <set comment="spin 1">
      <set comment="kpoint 1">
       <r>  -15.4187    1.0000 </r>
       <r>  -15.3996    1.0000 </r>
       <r>  -15.3986    1.0000 </r>
       <r>  -15.3928    1.0000 </r>
       <r>  -15.3921    1.0000 </r>
       <r>  -15.3905    1.0000 </r>
       <r>  -15.3869    1.0000 </r>
       <r>  -15.3832    1.0000 </r>
       <r>  -15.3822    1.0000 </r>
       <r>  -15.3804    1.0000 </r>
       <r>  -15.3768    1.0000 </r>
       <r>  -15.3759    1.0000 </r>
       <r>  -15.3654    1.0000 </r>
       <r>  -15.3606    1.0000 </r>
       <r>  -15.3454    1.0000 </r>
       <r>  -15.3356    1.0000 </r>
       <r>  -15.3352    1.0000 </r>
       <r>  -15.3272    1.0000 </r>
       <r>  -15.3146    1.0000 </r>
       <r>  -15.3052    1.0000 </r>
       <r>   -8.1763    1.0000 </r>
       <r>   -7.7620    1.0000 </r>
       <r>   -7.1056    1.0000 </r>
       <r>   -6.4993    1.0000 </r>
       <r>   -1.4523    1.0000 </r>
       <r>   -0.2033    1.0000 </r>
       <r>    0.0317    1.0000 </r>
       <r>    0.8512    1.0000 </r>
       <r>    0.9717    1.0000 </r>
       <r>    2.3049    1.0000 </r>
       <r>    2.3269    1.0000 </r>
       <r>    2.4400    1.0000 </r>
       <r>    2.8971    1.0000 </r>
       <r>    2.9104    1.0000 </r>
       <r>    3.4147    1.0000 </r>
       <r>    3.9148    1.0000 </r>
       <r>    4.2228    1.0000 </r>
       <r>    4.5866    1.0000 </r>
       <r>    5.1285    1.0000 </r>
       <r>    5.2916    1.0000 </r>
       <r>    6.3287    0.0000 </r>
       <r>    8.7847    0.0000 </r>
       <r>    8.8892    0.0000 </r>
       <r>    8.9301    0.0000 </r>
       <r>    9.1744    0.0000 </r>
       <r>    9.3632    0.0000 </r>
       <r>   10.0955    0.0000 </r>
       <r>   10.4084    0.0000 </r>
       <r>   10.5149    0.0000 </r>
       <r>   10.7524    0.0000 </r>
       <r>   11.3367    0.0000 </r>
       <r>   11.8013    0.0000 </r>
       <r>   12.0272    0.0000 </r>
       <r>   12.0825    0.0000 </r>
       <r>   12.1611    0.0000 </r>
       <r>   12.6138    0.0000 </r>
       <r>   12.6674    0.0000 </r>
       <r>   13.5799    0.0000 </r>
       <r>   14.3890    0.0000 </r>
       <r>   14.4201    0.0000 </r>
       <r>   14.5486    0.0000 </r>
       <r>   14.6906    0.0000 </r>
       <r>   15.0288    0.0000 </r>
       <r>   15.0349    0.0000 </r>
      </set>
      <set comment="kpoint 2">
       <r>  -15.4175    1.0000 </r>
       <r>  -15.3998    1.0000 </r>
       <r>  -15.3974    1.0000 </r>
       <r>  -15.3924    1.0000 </r>
       <r>  -15.3920    1.0000 </r>
       <r>  -15.3918    1.0000 </r>
       <r>  -15.3875    1.0000 </r>
       <r>  -15.3835    1.0000 </r>
       <r>  -15.3811    1.0000 </r>
       <r>  -15.3806    1.0000 </r>
       <r>  -15.3776    1.0000 </r>
       <r>  -15.3737    1.0000 </r>
       <r>  -15.3643    1.0000 </r>
       <r>  -15.3609    1.0000 </r>
       <r>  -15.3455    1.0000 </r>
       <r>  -15.3359    1.0000 </r>
       <r>  -15.3351    1.0000 </r>
       <r>  -15.3276    1.0000 </r>
       <r>  -15.3142    1.0000 </r>
       <r>  -15.3056    1.0000 </r>
       <r>   -8.1021    1.0000 </r>
       <r>   -7.6946    1.0000 </r>
       <r>   -7.0829    1.0000 </r>
       <r>   -6.5082    1.0000 </r>
       <r>   -1.7395    1.0000 </r>
       <r>   -0.3993    1.0000 </r>
       <r>   -0.2362    1.0000 </r>
       <r>    0.4741    1.0000 </r>
       <r>    0.8548    1.0000 </r>
       <r>    2.3521    1.0000 </r>
       <r>    2.4385    1.0000 </r>
       <r>    2.8598    1.0000 </r>
       <r>    3.0110    1.0000 </r>
       <r>    3.4364    1.0000 </r>
       <r>    3.4987    1.0000 </r>
       <r>    3.9884    1.0000 </r>
       <r>    4.2727    1.0000 </r>
       <r>    4.9198    1.0000 </r>
       <r>    4.9635    1.0000 </r>
       <r>    5.3407    1.0000 </r>
       <r>    6.3409    0.0000 </r>
       <r>    8.2035    0.0000 </r>
       <r>    8.8526    0.0000 </r>
       <r>    8.9935    0.0000 </r>
       <r>    9.0720    0.0000 </r>
       <r>    9.1608    0.0000 </r>
       <r>    9.9599    0.0000 </r>
       <r>   10.2519    0.0000 </r>
       <r>   10.2910    0.0000 </r>
       <r>   10.3886    0.0000 </r>
       <r>   11.2687    0.0000 </r>
       <r>   11.2819    0.0000 </r>
       <r>   11.5606    0.0000 </r>
       <r>   12.0215    0.0000 </r>
       <r>   12.0874    0.0000 </r>
       <r>   12.6063    0.0000 </r>
       <r>   13.0644    0.0000 </r>
       <r>   13.6484    0.0000 </r>
       <r>   13.9951    0.0000 </r>
       <r>   14.5746    0.0000 </r>
       <r>   14.8767    0.0000 </r>
       <r>   15.3469    0.0000 </r>
       <r>   15.3982    0.0000 </r>
       <r>   15.6505    0.0000 </r>
      </set>
      <set comment="kpoint 3">
       <r>  -15.4142    1.0000 </r>
       <r>  -15.4006    1.0000 </r>
       <r>  -15.3947    1.0000 </r>
       <r>  -15.3946    1.0000 </r>
       <r>  -15.3941    1.0000 </r>
       <r>  -15.3903    1.0000 </r>
       <r>  -15.3877    1.0000 </r>
       <r>  -15.3847    1.0000 </r>
       <r>  -15.3810    1.0000 </r>
       <r>  -15.3798    1.0000 </r>
       <r>  -15.3774    1.0000 </r>
       <r>  -15.3689    1.0000 </r>
       <r>  -15.3632    1.0000 </r>
       <r>  -15.3606    1.0000 </r>
       <r>  -15.3453    1.0000 </r>
       <r>  -15.3375    1.0000 </r>
       <r>  -15.3339    1.0000 </r>
       <r>  -15.3287    1.0000 </r>
       <r>  -15.3131    1.0000 </r>
       <r>  -15.3066    1.0000 </r>
       <r>   -7.8923    1.0000 </r>
       <r>   -7.5042    1.0000 </r>
       <r>   -7.0484    1.0000 </r>
       <r>   -6.5567    1.0000 </r>
       <r>   -2.2673    1.0000 </r>
       <r>   -1.1164    1.0000 </r>
       <r>   -0.8011    1.0000 </r>
       <r>    0.0288    1.0000 </r>
       <r>    0.8763    1.0000 </r>
       <r>    2.6450    1.0000 </r>
       <r>    2.7583    1.0000 </r>
       <r>    3.2963    1.0000 </r>
       <r>    3.4864    1.0000 </r>
       <r>    3.7070    1.0000 </r>
       <r>    3.8888    1.0000 </r>
       <r>    4.3709    1.0000 </r>
       <r>    4.6281    1.0000 </r>
       <r>    4.7584    1.0000 </r>
       <r>    5.2775    1.0000 </r>
       <r>    5.5808    1.0000 </r>
       <r>    6.6654    0.0000 </r>
       <r>    7.1854    0.0000 </r>
       <r>    7.9177    0.0000 </r>
       <r>    8.1044    0.0000 </r>
       <r>    8.8624    0.0000 </r>
       <r>    8.9412    0.0000 </r>
       <r>    9.3345    0.0000 </r>
       <r>    9.4418    0.0000 </r>
       <r>   10.3214    0.0000 </r>
       <r>   10.5815    0.0000 </r>
       <r>   10.5921    0.0000 </r>
       <r>   11.1349    0.0000 </r>
       <r>   11.2442    0.0000 </r>
       <r>   12.2697    0.0000 </r>
       <r>   12.6786    0.0000 </r>
       <r>   12.6835    0.0000 </r>
       <r>   13.3259    0.0000 </r>
       <r>   13.5476    0.0000 </r>
       <r>   14.1259    0.0000 </r>
       <r>   14.7043    0.0000 </r>
       <r>   15.1912    0.0000 </r>
       <r>   15.5473    0.0000 </r>
       <r>   15.9295    0.0000 </r>
       <r>   16.2970    0.0000 </r>
      </set>
      <set comment="kpoint 4">
       <r>  -15.4098    1.0000 </r>
       <r>  -15.4024    1.0000 </r>
       <r>  -15.3972    1.0000 </r>
       <r>  -15.3967    1.0000 </r>
       <r>  -15.3921    1.0000 </r>
       <r>  -15.3895    1.0000 </r>
       <r>  -15.3870    1.0000 </r>
       <r>  -15.3860    1.0000 </r>
       <r>  -15.3819    1.0000 </r>
       <r>  -15.3817    1.0000 </r>
       <r>  -15.3722    1.0000 </r>
       <r>  -15.3647    1.0000 </r>
       <r>  -15.3640    1.0000 </r>
       <r>  -15.3596    1.0000 </r>
       <r>  -15.3438    1.0000 </r>
       <r>  -15.3393    1.0000 </r>
       <r>  -15.3324    1.0000 </r>
       <r>  -15.3298    1.0000 </r>
       <r>  -15.3116    1.0000 </r>
       <r>  -15.3081    1.0000 </r>
       <r>   -7.5916    1.0000 </r>
       <r>   -7.2277    1.0000 </r>
       <r>   -7.0923    1.0000 </r>
       <r>   -6.6913    1.0000 </r>
       <r>   -2.5950    1.0000 </r>
       <r>   -1.9593    1.0000 </r>
       <r>   -1.0542    1.0000 </r>
       <r>   -0.5685    1.0000 </r>
       <r>    1.3285    1.0000 </r>
       <r>    2.5401    1.0000 </r>
       <r>    3.2288    1.0000 </r>
       <r>    3.7070    1.0000 </r>
       <r>    3.8667    1.0000 </r>
       <r>    4.0893    1.0000 </r>
       <r>    4.1797    1.0000 </r>
       <r>    4.3635    1.0000 </r>
       <r>    4.6975    1.0000 </r>
       <r>    5.1629    1.0000 </r>
       <r>    5.6686    1.0000 </r>
       <r>    5.8768    1.0000 </r>
       <r>    6.6685    0.0000 </r>
       <r>    7.0737    0.0000 </r>
       <r>    7.2413    0.0000 </r>
       <r>    7.3178    0.0000 </r>
       <r>    7.9166    0.0000 </r>
       <r>    8.0162    0.0000 </r>
       <r>    8.6649    0.0000 </r>
       <r>    8.8929    0.0000 </r>
       <r>    9.3159    0.0000 </r>
       <r>    9.6039    0.0000 </r>
       <r>   11.4619    0.0000 </r>
       <r>   11.7468    0.0000 </r>
       <r>   12.4138    0.0000 </r>
       <r>   12.6898    0.0000 </r>
       <r>   13.1040    0.0000 </r>
       <r>   13.6015    0.0000 </r>
       <r>   13.6472    0.0000 </r>
       <r>   14.1614    0.0000 </r>
       <r>   14.2972    0.0000 </r>
       <r>   14.6478    0.0000 </r>
       <r>   14.7441    0.0000 </r>
       <r>   15.7140    0.0000 </r>
       <r>   16.5467    0.0000 </r>
       <r>   16.6339    0.0000 </r>
      </set>
      <set comment="kpoint 5">
       <r>  -15.4056    1.0000 </r>
       <r>  -15.4056    1.0000 </r>
       <r>  -15.3980    1.0000 </r>
       <r>  -15.3980    1.0000 </r>
       <r>  -15.3902    1.0000 </r>
       <r>  -15.3902    1.0000 </r>
       <r>  -15.3866    1.0000 </r>
       <r>  -15.3866    1.0000 </r>
       <r>  -15.3824    1.0000 </r>
       <r>  -15.3824    1.0000 </r>
       <r>  -15.3676    1.0000 </r>
       <r>  -15.3676    1.0000 </r>
       <r>  -15.3607    1.0000 </r>
       <r>  -15.3607    1.0000 </r>
       <r>  -15.3415    1.0000 </r>
       <r>  -15.3415    1.0000 </r>
       <r>  -15.3310    1.0000 </r>
       <r>  -15.3310    1.0000 </r>
       <r>  -15.3098    1.0000 </r>
       <r>  -15.3098    1.0000 </r>
       <r>   -7.2876    1.0000 </r>
       <r>   -7.2876    1.0000 </r>
       <r>   -6.9305    1.0000 </r>
       <r>   -6.9305    1.0000 </r>
       <r>   -2.4954    1.0000 </r>
       <r>   -2.4954    1.0000 </r>
       <r>   -0.9754    1.0000 </r>
       <r>   -0.9754    1.0000 </r>
       <r>    1.9508    1.0000 </r>
       <r>    1.9508    1.0000 </r>
       <r>    3.6945    1.0000 </r>
       <r>    3.6945    1.0000 </r>
       <r>    4.1185    1.0000 </r>
       <r>    4.1185    1.0000 </r>
       <r>    4.4415    1.0000 </r>
       <r>    4.4415    1.0000 </r>
       <r>    5.0253    1.0000 </r>
       <r>    5.0253    1.0000 </r>
       <r>    5.6397    1.0000 </r>
       <r>    5.6397    1.0000 </r>
       <r>    7.0706    0.0000 </r>
       <r>    7.0706    0.0000 </r>
       <r>    7.2449    0.0000 </r>
       <r>    7.2449    0.0000 </r>
       <r>    7.5484    0.0000 </r>
       <r>    7.5484    0.0000 </r>
       <r>    8.3552    0.0000 </r>
       <r>    8.3552    0.0000 </r>
       <r>    8.9604    0.0000 </r>
       <r>    8.9604    0.0000 </r>
       <r>   11.9056    0.0000 </r>
       <r>   11.9056    0.0000 </r>
       <r>   13.1158    0.0000 </r>
       <r>   13.1158    0.0000 </r>
       <r>   13.7884    0.0000 </r>
       <r>   13.7884    0.0000 </r>
       <r>   13.9007    0.0000 </r>
       <r>   13.9007    0.0000 </r>
       <r>   15.0970    0.0000 </r>
       <r>   15.0970    0.0000 </r>
       <r>   15.6172    0.0000 </r>
       <r>   15.6172    0.0000 </r>
       <r>   16.0078    0.0000 </r>
       <r>   16.0078    0.0000 </r>
      </set>
      <set comment="kpoint 6">
       <r>  -15.4150    1.0000 </r>
       <r>  -15.3971    1.0000 </r>
       <r>  -15.3968    1.0000 </r>
       <r>  -15.3925    1.0000 </r>
       <r>  -15.3919    1.0000 </r>
       <r>  -15.3914    1.0000 </r>
       <r>  -15.3911    1.0000 </r>
       <r>  -15.3853    1.0000 </r>
       <r>  -15.3822    1.0000 </r>
       <r>  -15.3794    1.0000 </r>
       <r>  -15.3791    1.0000 </r>
       <r>  -15.3734    1.0000 </r>
       <r>  -15.3633    1.0000 </r>
       <r>  -15.3607    1.0000 </r>
       <r>  -15.3438    1.0000 </r>
       <r>  -15.3362    1.0000 </r>
       <r>  -15.3340    1.0000 </r>
       <r>  -15.3286    1.0000 </r>
       <r>  -15.3151    1.0000 </r>
       <r>  -15.3068    1.0000 </r>
       <r>   -8.1044    1.0000 </r>
       <r>   -7.7012    1.0000 </r>
       <r>   -7.0670    1.0000 </r>
       <r>   -6.4974    1.0000 </r>
       <r>   -1.5670    1.0000 </r>
       <r>   -0.4565    1.0000 </r>
       <r>    0.0251    1.0000 </r>
       <r>    0.4220    1.0000 </r>
       <r>    0.8833    1.0000 </r>
       <r>    2.2239    1.0000 </r>
       <r>    2.5193    1.0000 </r>
       <r>    2.6290    1.0000 </r>
       <r>    2.8958    1.0000 </r>
       <r>    2.9769    1.0000 </r>
       <r>    3.6197    1.0000 </r>
       <r>    3.9521    1.0000 </r>
       <r>    4.2347    1.0000 </r>
       <r>    4.8290    1.0000 </r>
       <r>    5.1476    1.0000 </r>
       <r>    5.2311    1.0000 </r>
       <r>    6.4445    0.0000 </r>
       <r>    8.3165    0.0000 </r>
       <r>    8.8413    0.0000 </r>
       <r>    9.0674    0.0000 </r>
       <r>    9.1892    0.0000 </r>
       <r>    9.3095    0.0000 </r>
       <r>    9.7733    0.0000 </r>
       <r>   10.1679    0.0000 </r>
       <r>   10.2575    0.0000 </r>
       <r>   10.6533    0.0000 </r>
       <r>   11.0745    0.0000 </r>
       <r>   11.3877    0.0000 </r>
       <r>   11.7672    0.0000 </r>
       <r>   11.7764    0.0000 </r>
       <r>   12.2850    0.0000 </r>
       <r>   12.3622    0.0000 </r>
       <r>   12.6102    0.0000 </r>
       <r>   13.9167    0.0000 </r>
       <r>   14.1433    0.0000 </r>
       <r>   14.4975    0.0000 </r>
       <r>   15.1131    0.0000 </r>
       <r>   15.2029    0.0000 </r>
       <r>   15.2593    0.0000 </r>
       <r>   15.4099    0.0000 </r>
      </set>
      <set comment="kpoint 7">
       <r>  -15.4140    1.0000 </r>
       <r>  -15.3970    1.0000 </r>
       <r>  -15.3960    1.0000 </r>
       <r>  -15.3931    1.0000 </r>
       <r>  -15.3928    1.0000 </r>
       <r>  -15.3911    1.0000 </r>
       <r>  -15.3907    1.0000 </r>
       <r>  -15.3859    1.0000 </r>
       <r>  -15.3823    1.0000 </r>
       <r>  -15.3815    1.0000 </r>
       <r>  -15.3770    1.0000 </r>
       <r>  -15.3716    1.0000 </r>
       <r>  -15.3629    1.0000 </r>
       <r>  -15.3605    1.0000 </r>
       <r>  -15.3440    1.0000 </r>
       <r>  -15.3357    1.0000 </r>
       <r>  -15.3347    1.0000 </r>
       <r>  -15.3290    1.0000 </r>
       <r>  -15.3147    1.0000 </r>
       <r>  -15.3071    1.0000 </r>
       <r>   -8.0311    1.0000 </r>
       <r>   -7.6350    1.0000 </r>
       <r>   -7.0444    1.0000 </r>
       <r>   -6.5042    1.0000 </r>
       <r>   -1.7864    1.0000 </r>
       <r>   -0.5487    1.0000 </r>
       <r>   -0.2739    1.0000 </r>
       <r>    0.2847    1.0000 </r>
       <r>    0.8029    1.0000 </r>
       <r>    2.0058    1.0000 </r>
       <r>    2.1685    1.0000 </r>
       <r>    3.1800    1.0000 </r>
       <r>    3.2146    1.0000 </r>
       <r>    3.3439    1.0000 </r>
       <r>    3.4154    1.0000 </r>
       <r>    4.0436    1.0000 </r>
       <r>    4.5045    1.0000 </r>
       <r>    4.9940    1.0000 </r>
       <r>    5.2305    1.0000 </r>
       <r>    5.3086    1.0000 </r>
       <r>    6.4713    0.0000 </r>
       <r>    7.8094    0.0000 </r>
       <r>    8.4209    0.0000 </r>
       <r>    8.7359    0.0000 </r>
       <r>    8.9960    0.0000 </r>
       <r>    9.2961    0.0000 </r>
       <r>    9.6018    0.0000 </r>
       <r>    9.9672    0.0000 </r>
       <r>   10.2673    0.0000 </r>
       <r>   10.8802    0.0000 </r>
       <r>   10.9879    0.0000 </r>
       <r>   11.3245    0.0000 </r>
       <r>   11.5781    0.0000 </r>
       <r>   12.1050    0.0000 </r>
       <r>   12.3423    0.0000 </r>
       <r>   12.6962    0.0000 </r>
       <r>   12.9434    0.0000 </r>
       <r>   13.9527    0.0000 </r>
       <r>   14.2059    0.0000 </r>
       <r>   14.5123    0.0000 </r>
       <r>   14.8212    0.0000 </r>
       <r>   15.0176    0.0000 </r>
       <r>   15.2497    0.0000 </r>
       <r>   15.5567    0.0000 </r>
      </set>
      <set comment="kpoint 8">
       <r>  -15.4114    1.0000 </r>
       <r>  -15.3980    1.0000 </r>
       <r>  -15.3960    1.0000 </r>
       <r>  -15.3955    1.0000 </r>
       <r>  -15.3935    1.0000 </r>
       <r>  -15.3896    1.0000 </r>
       <r>  -15.3893    1.0000 </r>
       <r>  -15.3871    1.0000 </r>
       <r>  -15.3836    1.0000 </r>
       <r>  -15.3828    1.0000 </r>
       <r>  -15.3740    1.0000 </r>
       <r>  -15.3670    1.0000 </r>
       <r>  -15.3629    1.0000 </r>
       <r>  -15.3591    1.0000 </r>
       <r>  -15.3437    1.0000 </r>
       <r>  -15.3362    1.0000 </r>
       <r>  -15.3345    1.0000 </r>
       <r>  -15.3298    1.0000 </r>
       <r>  -15.3138    1.0000 </r>
       <r>  -15.3080    1.0000 </r>
       <r>   -7.8245    1.0000 </r>
       <r>   -7.4484    1.0000 </r>
       <r>   -7.0092    1.0000 </r>
       <r>   -6.5459    1.0000 </r>
       <r>   -2.2244    1.0000 </r>
       <r>   -1.0852    1.0000 </r>
       <r>   -0.7990    1.0000 </r>
       <r>   -0.0615    1.0000 </r>
       <r>    0.9552    1.0000 </r>
       <r>    1.9974    1.0000 </r>
       <r>    2.1619    1.0000 </r>
       <r>    3.1971    1.0000 </r>
       <r>    3.5690    1.0000 </r>
       <r>    3.6356    1.0000 </r>
       <r>    4.0226    1.0000 </r>
       <r>    4.0756    1.0000 </r>
       <r>    4.8348    1.0000 </r>
       <r>    5.1089    1.0000 </r>
       <r>    5.3387    1.0000 </r>
       <r>    5.5398    1.0000 </r>
       <r>    6.7817    0.0000 </r>
       <r>    7.2802    0.0000 </r>
       <r>    7.5196    0.0000 </r>
       <r>    7.6824    0.0000 </r>
       <r>    8.8701    0.0000 </r>
       <r>    8.9543    0.0000 </r>
       <r>    9.2933    0.0000 </r>
       <r>    9.8457    0.0000 </r>
       <r>   10.3681    0.0000 </r>
       <r>   10.5865    0.0000 </r>
       <r>   10.9510    0.0000 </r>
       <r>   11.3972    0.0000 </r>
       <r>   11.7776    0.0000 </r>
       <r>   11.9617    0.0000 </r>
       <r>   12.7583    0.0000 </r>
       <r>   13.0587    0.0000 </r>
       <r>   13.5410    0.0000 </r>
       <r>   13.9759    0.0000 </r>
       <r>   14.0219    0.0000 </r>
       <r>   14.4097    0.0000 </r>
       <r>   14.8068    0.0000 </r>
       <r>   15.5566    0.0000 </r>
       <r>   15.7442    0.0000 </r>
       <r>   16.2263    0.0000 </r>
      </set>
      <set comment="kpoint 9">
       <r>  -15.4080    1.0000 </r>
       <r>  -15.4010    1.0000 </r>
       <r>  -15.3977    1.0000 </r>
       <r>  -15.3974    1.0000 </r>
       <r>  -15.3926    1.0000 </r>
       <r>  -15.3905    1.0000 </r>
       <r>  -15.3880    1.0000 </r>
       <r>  -15.3869    1.0000 </r>
       <r>  -15.3846    1.0000 </r>
       <r>  -15.3834    1.0000 </r>
       <r>  -15.3701    1.0000 </r>
       <r>  -15.3641    1.0000 </r>
       <r>  -15.3622    1.0000 </r>
       <r>  -15.3580    1.0000 </r>
       <r>  -15.3423    1.0000 </r>
       <r>  -15.3380    1.0000 </r>
       <r>  -15.3331    1.0000 </r>
       <r>  -15.3308    1.0000 </r>
       <r>  -15.3124    1.0000 </r>
       <r>  -15.3093    1.0000 </r>
       <r>   -7.5301    1.0000 </r>
       <r>   -7.1795    1.0000 </r>
       <r>   -7.0490    1.0000 </r>
       <r>   -6.6688    1.0000 </r>
       <r>   -2.5083    1.0000 </r>
       <r>   -1.8833    1.0000 </r>
       <r>   -0.9897    1.0000 </r>
       <r>   -0.5520    1.0000 </r>
       <r>    1.3954    1.0000 </r>
       <r>    2.2246    1.0000 </r>
       <r>    2.4321    1.0000 </r>
       <r>    3.2946    1.0000 </r>
       <r>    3.3876    1.0000 </r>
       <r>    3.6433    1.0000 </r>
       <r>    4.1234    1.0000 </r>
       <r>    4.4494    1.0000 </r>
       <r>    5.0087    1.0000 </r>
       <r>    5.1291    1.0000 </r>
       <r>    5.4261    1.0000 </r>
       <r>    5.5068    1.0000 </r>
       <r>    6.9280    0.0000 </r>
       <r>    7.0898    0.0000 </r>
       <r>    7.1710    0.0000 </r>
       <r>    7.4883    0.0000 </r>
       <r>    8.3551    0.0000 </r>
       <r>    8.4800    0.0000 </r>
       <r>    8.7759    0.0000 </r>
       <r>    9.4852    0.0000 </r>
       <r>    9.9386    0.0000 </r>
       <r>   10.2577    0.0000 </r>
       <r>   11.3672    0.0000 </r>
       <r>   11.6187    0.0000 </r>
       <r>   11.9673    0.0000 </r>
       <r>   12.7376    0.0000 </r>
       <r>   12.8855    0.0000 </r>
       <r>   13.2012    0.0000 </r>
       <r>   14.0620    0.0000 </r>
       <r>   14.3483    0.0000 </r>
       <r>   14.3918    0.0000 </r>
       <r>   14.8448    0.0000 </r>
       <r>   15.3205    0.0000 </r>
       <r>   15.6887    0.0000 </r>
       <r>   16.7842    0.0000 </r>
       <r>   16.8866    0.0000 </r>
      </set>
      <set comment="kpoint 10">
       <r>  -15.4045    1.0000 </r>
       <r>  -15.4045    1.0000 </r>
       <r>  -15.3983    1.0000 </r>
       <r>  -15.3983    1.0000 </r>
       <r>  -15.3918    1.0000 </r>
       <r>  -15.3918    1.0000 </r>
       <r>  -15.3873    1.0000 </r>
       <r>  -15.3873    1.0000 </r>
       <r>  -15.3840    1.0000 </r>
       <r>  -15.3840    1.0000 </r>
       <r>  -15.3665    1.0000 </r>
       <r>  -15.3665    1.0000 </r>
       <r>  -15.3590    1.0000 </r>
       <r>  -15.3590    1.0000 </r>
       <r>  -15.3400    1.0000 </r>
       <r>  -15.3400    1.0000 </r>
       <r>  -15.3318    1.0000 </r>
       <r>  -15.3318    1.0000 </r>
       <r>  -15.3108    1.0000 </r>
       <r>  -15.3108    1.0000 </r>
       <r>   -7.2355    1.0000 </r>
       <r>   -7.2355    1.0000 </r>
       <r>   -6.8940    1.0000 </r>
       <r>   -6.8940    1.0000 </r>
       <r>   -2.4017    1.0000 </r>
       <r>   -2.4017    1.0000 </r>
       <r>   -0.9122    1.0000 </r>
       <r>   -0.9122    1.0000 </r>
       <r>    1.9458    1.0000 </r>
       <r>    1.9458    1.0000 </r>
       <r>    2.9909    1.0000 </r>
       <r>    2.9909    1.0000 </r>
       <r>    3.4156    1.0000 </r>
       <r>    3.4156    1.0000 </r>
       <r>    4.2869    1.0000 </r>
       <r>    4.2869    1.0000 </r>
       <r>    5.2354    1.0000 </r>
       <r>    5.2354    1.0000 </r>
       <r>    5.4016    1.0000 </r>
       <r>    5.4016    1.0000 </r>
       <r>    6.8758    0.0000 </r>
       <r>    6.8758    0.0000 </r>
       <r>    7.3065    0.0000 </r>
       <r>    7.3065    0.0000 </r>
       <r>    8.5189    0.0000 </r>
       <r>    8.5189    0.0000 </r>
       <r>    8.8563    0.0000 </r>
       <r>    8.8563    0.0000 </r>
       <r>    9.6813    0.0000 </r>
       <r>    9.6813    0.0000 </r>
       <r>   11.7504    0.0000 </r>
       <r>   11.7504    0.0000 </r>
       <r>   12.2219    0.0000 </r>
       <r>   12.2219    0.0000 </r>
       <r>   13.7477    0.0000 </r>
       <r>   13.7477    0.0000 </r>
       <r>   14.5103    0.0000 </r>
       <r>   14.5103    0.0000 </r>
       <r>   15.4152    0.0000 </r>
       <r>   15.4152    0.0000 </r>
       <r>   15.7131    0.0000 </r>
       <r>   15.7131    0.0000 </r>
       <r>   16.2114    0.0000 </r>
       <r>   16.2114    0.0000 </r>
      </set>
      <set comment="kpoint 11">
       <r>  -15.4052    1.0000 </r>
       <r>  -15.3974    1.0000 </r>
       <r>  -15.3950    1.0000 </r>
       <r>  -15.3934    1.0000 </r>
       <r>  -15.3933    1.0000 </r>
       <r>  -15.3931    1.0000 </r>
       <r>  -15.3886    1.0000 </r>
       <r>  -15.3878    1.0000 </r>
       <r>  -15.3844    1.0000 </r>
       <r>  -15.3843    1.0000 </r>
       <r>  -15.3756    1.0000 </r>
       <r>  -15.3685    1.0000 </r>
       <r>  -15.3617    1.0000 </r>
       <r>  -15.3592    1.0000 </r>
       <r>  -15.3396    1.0000 </r>
       <r>  -15.3383    1.0000 </r>
       <r>  -15.3331    1.0000 </r>
       <r>  -15.3310    1.0000 </r>
       <r>  -15.3159    1.0000 </r>
       <r>  -15.3107    1.0000 </r>
       <r>   -7.8968    1.0000 </r>
       <r>   -7.5305    1.0000 </r>
       <r>   -6.9719    1.0000 </r>
       <r>   -6.5164    1.0000 </r>
       <r>   -1.8546    1.0000 </r>
       <r>   -0.9715    1.0000 </r>
       <r>   -0.4383    1.0000 </r>
       <r>   -0.1956    1.0000 </r>
       <r>    0.8868    1.0000 </r>
       <r>    2.4052    1.0000 </r>
       <r>    2.7520    1.0000 </r>
       <r>    2.9201    1.0000 </r>
       <r>    2.9765    1.0000 </r>
       <r>    3.2017    1.0000 </r>
       <r>    3.9353    1.0000 </r>
       <r>    4.0822    1.0000 </r>
       <r>    4.3064    1.0000 </r>
       <r>    5.0422    1.0000 </r>
       <r>    5.1691    1.0000 </r>
       <r>    5.4411    1.0000 </r>
       <r>    6.7179    0.0000 </r>
       <r>    7.0643    0.0000 </r>
       <r>    8.4034    0.0000 </r>
       <r>    8.5126    0.0000 </r>
       <r>    8.6123    0.0000 </r>
       <r>    9.1723    0.0000 </r>
       <r>    9.2870    0.0000 </r>
       <r>    9.7589    0.0000 </r>
       <r>   10.4350    0.0000 </r>
       <r>   10.6045    0.0000 </r>
       <r>   10.6957    0.0000 </r>
       <r>   10.8624    0.0000 </r>
       <r>   11.4637    0.0000 </r>
       <r>   11.5081    0.0000 </r>
       <r>   12.1477    0.0000 </r>
       <r>   12.6732    0.0000 </r>
       <r>   13.1559    0.0000 </r>
       <r>   13.4893    0.0000 </r>
       <r>   14.7016    0.0000 </r>
       <r>   14.7867    0.0000 </r>
       <r>   15.3740    0.0000 </r>
       <r>   15.3903    0.0000 </r>
       <r>   15.5799    0.0000 </r>
       <r>   16.1332    0.0000 </r>
      </set>
      <set comment="kpoint 12">
       <r>  -15.4060    1.0000 </r>
       <r>  -15.3973    1.0000 </r>
       <r>  -15.3967    1.0000 </r>
       <r>  -15.3939    1.0000 </r>
       <r>  -15.3930    1.0000 </r>
       <r>  -15.3922    1.0000 </r>
       <r>  -15.3883    1.0000 </r>
       <r>  -15.3877    1.0000 </r>
       <r>  -15.3852    1.0000 </r>
       <r>  -15.3846    1.0000 </r>
       <r>  -15.3744    1.0000 </r>
       <r>  -15.3668    1.0000 </r>
       <r>  -15.3624    1.0000 </r>
       <r>  -15.3579    1.0000 </r>
       <r>  -15.3399    1.0000 </r>
       <r>  -15.3377    1.0000 </r>
       <r>  -15.3332    1.0000 </r>
       <r>  -15.3316    1.0000 </r>
       <r>  -15.3157    1.0000 </r>
       <r>  -15.3108    1.0000 </r>
       <r>   -7.8266    1.0000 </r>
       <r>   -7.4680    1.0000 </r>
       <r>   -6.9490    1.0000 </r>
       <r>   -6.5160    1.0000 </r>
       <r>   -1.9294    1.0000 </r>
       <r>   -0.9275    1.0000 </r>
       <r>   -0.5404    1.0000 </r>
       <r>   -0.2883    1.0000 </r>
       <r>    0.9524    1.0000 </r>
       <r>    1.7332    1.0000 </r>
       <r>    2.0543    1.0000 </r>
       <r>    2.9267    1.0000 </r>
       <r>    3.3655    1.0000 </r>
       <r>    3.6170    1.0000 </r>
       <r>    3.7038    1.0000 </r>
       <r>    4.0786    1.0000 </r>
       <r>    4.7734    1.0000 </r>
       <r>    5.0734    1.0000 </r>
       <r>    5.2274    1.0000 </r>
       <r>    5.4612    1.0000 </r>
       <r>    6.7560    0.0000 </r>
       <r>    7.1363    0.0000 </r>
       <r>    7.6689    0.0000 </r>
       <r>    7.8074    0.0000 </r>
       <r>    8.9407    0.0000 </r>
       <r>    9.0315    0.0000 </r>
       <r>    9.6427    0.0000 </r>
       <r>    9.9071    0.0000 </r>
       <r>   10.4789    0.0000 </r>
       <r>   10.5646    0.0000 </r>
       <r>   10.7381    0.0000 </r>
       <r>   11.3933    0.0000 </r>
       <r>   11.4374    0.0000 </r>
       <r>   12.4284    0.0000 </r>
       <r>   12.4550    0.0000 </r>
       <r>   12.9314    0.0000 </r>
       <r>   13.3452    0.0000 </r>
       <r>   13.8727    0.0000 </r>
       <r>   13.9827    0.0000 </r>
       <r>   14.3594    0.0000 </r>
       <r>   14.7765    0.0000 </r>
       <r>   15.5271    0.0000 </r>
       <r>   15.7010    0.0000 </r>
       <r>   15.9652    0.0000 </r>
      </set>
      <set comment="kpoint 13">
       <r>  -15.4078    1.0000 </r>
       <r>  -15.4009    1.0000 </r>
       <r>  -15.3968    1.0000 </r>
       <r>  -15.3957    1.0000 </r>
       <r>  -15.3933    1.0000 </r>
       <r>  -15.3915    1.0000 </r>
       <r>  -15.3893    1.0000 </r>
       <r>  -15.3865    1.0000 </r>
       <r>  -15.3851    1.0000 </r>
       <r>  -15.3845    1.0000 </r>
       <r>  -15.3716    1.0000 </r>
       <r>  -15.3629    1.0000 </r>
       <r>  -15.3626    1.0000 </r>
       <r>  -15.3559    1.0000 </r>
       <r>  -15.3397    1.0000 </r>
       <r>  -15.3365    1.0000 </r>
       <r>  -15.3335    1.0000 </r>
       <r>  -15.3328    1.0000 </r>
       <r>  -15.3150    1.0000 </r>
       <r>  -15.3112    1.0000 </r>
       <r>   -7.6309    1.0000 </r>
       <r>   -7.2940    1.0000 </r>
       <r>   -6.9105    1.0000 </r>
       <r>   -6.5352    1.0000 </r>
       <r>   -2.1197    1.0000 </r>
       <r>   -1.0396    1.0000 </r>
       <r>   -0.8567    1.0000 </r>
       <r>   -0.3828    1.0000 </r>
       <r>    1.1893    1.0000 </r>
       <r>    1.3016    1.0000 </r>
       <r>    1.5618    1.0000 </r>
       <r>    2.7013    1.0000 </r>
       <r>    2.8127    1.0000 </r>
       <r>    3.7939    1.0000 </r>
       <r>    3.9176    1.0000 </r>
       <r>    4.2921    1.0000 </r>
       <r>    4.6973    1.0000 </r>
       <r>    4.9398    1.0000 </r>
       <r>    5.0523    1.0000 </r>
       <r>    5.3108    1.0000 </r>
       <r>    6.7316    0.0000 </r>
       <r>    7.1902    0.0000 </r>
       <r>    7.8406    0.0000 </r>
       <r>    8.2786    0.0000 </r>
       <r>    8.5121    0.0000 </r>
       <r>    8.9650    0.0000 </r>
       <r>    9.3094    0.0000 </r>
       <r>   10.3372    0.0000 </r>
       <r>   10.8388    0.0000 </r>
       <r>   10.9590    0.0000 </r>
       <r>   11.0219    0.0000 </r>
       <r>   11.4354    0.0000 </r>
       <r>   11.6772    0.0000 </r>
       <r>   12.7377    0.0000 </r>
       <r>   12.9858    0.0000 </r>
       <r>   13.2352    0.0000 </r>
       <r>   13.8176    0.0000 </r>
       <r>   13.8975    0.0000 </r>
       <r>   14.1843    0.0000 </r>
       <r>   14.7110    0.0000 </r>
       <r>   15.1762    0.0000 </r>
       <r>   15.3754    0.0000 </r>
       <r>   16.0616    0.0000 </r>
       <r>   16.1524    0.0000 </r>
      </set>
      <set comment="kpoint 14">
       <r>  -15.4094    1.0000 </r>
       <r>  -15.4058    1.0000 </r>
       <r>  -15.3978    1.0000 </r>
       <r>  -15.3974    1.0000 </r>
       <r>  -15.3938    1.0000 </r>
       <r>  -15.3908    1.0000 </r>
       <r>  -15.3904    1.0000 </r>
       <r>  -15.3880    1.0000 </r>
       <r>  -15.3830    1.0000 </r>
       <r>  -15.3827    1.0000 </r>
       <r>  -15.3684    1.0000 </r>
       <r>  -15.3636    1.0000 </r>
       <r>  -15.3582    1.0000 </r>
       <r>  -15.3547    1.0000 </r>
       <r>  -15.3383    1.0000 </r>
       <r>  -15.3351    1.0000 </r>
       <r>  -15.3345    1.0000 </r>
       <r>  -15.3335    1.0000 </r>
       <r>  -15.3140    1.0000 </r>
       <r>  -15.3119    1.0000 </r>
       <r>   -7.3577    1.0000 </r>
       <r>   -7.0496    1.0000 </r>
       <r>   -6.9359    1.0000 </r>
       <r>   -6.6207    1.0000 </r>
       <r>   -2.2588    1.0000 </r>
       <r>   -1.6729    1.0000 </r>
       <r>   -0.8342    1.0000 </r>
       <r>   -0.5595    1.0000 </r>
       <r>    1.3679    1.0000 </r>
       <r>    1.5586    1.0000 </r>
       <r>    1.5896    1.0000 </r>
       <r>    2.5150    1.0000 </r>
       <r>    2.6305    1.0000 </r>
       <r>    3.3033    1.0000 </r>
       <r>    3.4374    1.0000 </r>
       <r>    4.0730    1.0000 </r>
       <r>    4.3440    1.0000 </r>
       <r>    4.8152    1.0000 </r>
       <r>    4.8291    1.0000 </r>
       <r>    5.3080    1.0000 </r>
       <r>    6.5260    0.0000 </r>
       <r>    7.7970    0.0000 </r>
       <r>    7.9312    0.0000 </r>
       <r>    8.8437    0.0000 </r>
       <r>    9.0000    0.0000 </r>
       <r>    9.3111    0.0000 </r>
       <r>    9.5327    0.0000 </r>
       <r>   10.5083    0.0000 </r>
       <r>   10.6338    0.0000 </r>
       <r>   11.0164    0.0000 </r>
       <r>   11.1028    0.0000 </r>
       <r>   11.5332    0.0000 </r>
       <r>   11.5864    0.0000 </r>
       <r>   11.8933    0.0000 </r>
       <r>   12.9326    0.0000 </r>
       <r>   13.7451    0.0000 </r>
       <r>   14.0168    0.0000 </r>
       <r>   14.5247    0.0000 </r>
       <r>   15.0470    0.0000 </r>
       <r>   15.6918    0.0000 </r>
       <r>   15.8571    0.0000 </r>
       <r>   16.2532    0.0000 </r>
       <r>   16.4131    0.0000 </r>
       <r>   16.8734    0.0000 </r>
      </set>
      <set comment="kpoint 15">
       <r>  -15.4089    1.0000 </r>
       <r>  -15.4089    1.0000 </r>
       <r>  -15.3985    1.0000 </r>
       <r>  -15.3985    1.0000 </r>
       <r>  -15.3921    1.0000 </r>
       <r>  -15.3921    1.0000 </r>
       <r>  -15.3897    1.0000 </r>
       <r>  -15.3897    1.0000 </r>
       <r>  -15.3819    1.0000 </r>
       <r>  -15.3819    1.0000 </r>
       <r>  -15.3654    1.0000 </r>
       <r>  -15.3654    1.0000 </r>
       <r>  -15.3554    1.0000 </r>
       <r>  -15.3554    1.0000 </r>
       <r>  -15.3362    1.0000 </r>
       <r>  -15.3362    1.0000 </r>
       <r>  -15.3341    1.0000 </r>
       <r>  -15.3341    1.0000 </r>
       <r>  -15.3129    1.0000 </r>
       <r>  -15.3129    1.0000 </r>
       <r>   -7.0938    1.0000 </r>
       <r>   -7.0938    1.0000 </r>
       <r>   -6.8018    1.0000 </r>
       <r>   -6.8018    1.0000 </r>
       <r>   -2.1276    1.0000 </r>
       <r>   -2.1276    1.0000 </r>
       <r>   -0.7552    1.0000 </r>
       <r>   -0.7552    1.0000 </r>
       <r>    1.7012    1.0000 </r>
       <r>    1.7012    1.0000 </r>
       <r>    1.9815    1.0000 </r>
       <r>    1.9815    1.0000 </r>
       <r>    2.7667    1.0000 </r>
       <r>    2.7667    1.0000 </r>
       <r>    3.4984    1.0000 </r>
       <r>    3.4984    1.0000 </r>
       <r>    4.5142    1.0000 </r>
       <r>    4.5142    1.0000 </r>
       <r>    5.0045    1.0000 </r>
       <r>    5.0045    1.0000 </r>
       <r>    7.0678    0.0000 </r>
       <r>    7.0678    0.0000 </r>
       <r>    8.6252    0.0000 </r>
       <r>    8.6252    0.0000 </r>
       <r>    9.6267    0.0000 </r>
       <r>    9.6267    0.0000 </r>
       <r>   10.1896    0.0000 </r>
       <r>   10.1896    0.0000 </r>
       <r>   10.5579    0.0000 </r>
       <r>   10.5579    0.0000 </r>
       <r>   11.2364    0.0000 </r>
       <r>   11.2364    0.0000 </r>
       <r>   11.6189    0.0000 </r>
       <r>   11.6189    0.0000 </r>
       <r>   13.2153    0.0000 </r>
       <r>   13.2153    0.0000 </r>
       <r>   15.2741    0.0000 </r>
       <r>   15.2741    0.0000 </r>
       <r>   15.7334    0.0000 </r>
       <r>   15.7334    0.0000 </r>
       <r>   16.0961    0.0000 </r>
       <r>   16.0961    0.0000 </r>
       <r>   17.0449    0.0000 </r>
       <r>   17.0449    0.0000 </r>
      </set>
      <set comment="kpoint 16">
       <r>  -15.4023    1.0000 </r>
       <r>  -15.3987    1.0000 </r>
       <r>  -15.3980    1.0000 </r>
       <r>  -15.3951    1.0000 </r>
       <r>  -15.3914    1.0000 </r>
       <r>  -15.3903    1.0000 </r>
       <r>  -15.3887    1.0000 </r>
       <r>  -15.3885    1.0000 </r>
       <r>  -15.3864    1.0000 </r>
       <r>  -15.3787    1.0000 </r>
       <r>  -15.3729    1.0000 </r>
       <r>  -15.3646    1.0000 </r>
       <r>  -15.3621    1.0000 </r>
       <r>  -15.3548    1.0000 </r>
       <r>  -15.3419    1.0000 </r>
       <r>  -15.3403    1.0000 </r>
       <r>  -15.3338    1.0000 </r>
       <r>  -15.3268    1.0000 </r>
       <r>  -15.3169    1.0000 </r>
       <r>  -15.3153    1.0000 </r>
       <r>   -7.5798    1.0000 </r>
       <r>   -7.2875    1.0000 </r>
       <r>   -6.8834    1.0000 </r>
       <r>   -6.6194    1.0000 </r>
       <r>   -2.1427    1.0000 </r>
       <r>   -1.3759    1.0000 </r>
       <r>   -1.2881    1.0000 </r>
       <r>   -0.7061    1.0000 </r>
       <r>    1.2302    1.0000 </r>
       <r>    2.7126    1.0000 </r>
       <r>    2.9630    1.0000 </r>
       <r>    3.1514    1.0000 </r>
       <r>    3.2467    1.0000 </r>
       <r>    3.4971    1.0000 </r>
       <r>    4.1055    1.0000 </r>
       <r>    4.2215    1.0000 </r>
       <r>    4.5839    1.0000 </r>
       <r>    4.9757    1.0000 </r>
       <r>    5.1107    1.0000 </r>
       <r>    5.7516    1.0000 </r>
       <r>    6.3130    0.0000 </r>
       <r>    7.0814    0.0000 </r>
       <r>    7.5255    0.0000 </r>
       <r>    7.6221    0.0000 </r>
       <r>    7.8391    0.0000 </r>
       <r>    8.3539    0.0000 </r>
       <r>    8.4166    0.0000 </r>
       <r>    9.2745    0.0000 </r>
       <r>    9.6813    0.0000 </r>
       <r>    9.8893    0.0000 </r>
       <r>   10.7342    0.0000 </r>
       <r>   11.0970    0.0000 </r>
       <r>   12.1181    0.0000 </r>
       <r>   12.6892    0.0000 </r>
       <r>   12.8380    0.0000 </r>
       <r>   13.1281    0.0000 </r>
       <r>   14.0010    0.0000 </r>
       <r>   14.1166    0.0000 </r>
       <r>   14.1601    0.0000 </r>
       <r>   14.6611    0.0000 </r>
       <r>   15.3638    0.0000 </r>
       <r>   15.4920    0.0000 </r>
       <r>   15.8748    0.0000 </r>
       <r>   16.4881    0.0000 </r>
      </set>
      <set comment="kpoint 17">
       <r>  -15.4055    1.0000 </r>
       <r>  -15.4016    1.0000 </r>
       <r>  -15.3985    1.0000 </r>
       <r>  -15.3963    1.0000 </r>
       <r>  -15.3914    1.0000 </r>
       <r>  -15.3893    1.0000 </r>
       <r>  -15.3886    1.0000 </r>
       <r>  -15.3867    1.0000 </r>
       <r>  -15.3855    1.0000 </r>
       <r>  -15.3789    1.0000 </r>
       <r>  -15.3723    1.0000 </r>
       <r>  -15.3648    1.0000 </r>
       <r>  -15.3607    1.0000 </r>
       <r>  -15.3540    1.0000 </r>
       <r>  -15.3414    1.0000 </r>
       <r>  -15.3398    1.0000 </r>
       <r>  -15.3338    1.0000 </r>
       <r>  -15.3273    1.0000 </r>
       <r>  -15.3167    1.0000 </r>
       <r>  -15.3152    1.0000 </r>
       <r>   -7.5165    1.0000 </r>
       <r>   -7.2324    1.0000 </r>
       <r>   -6.8583    1.0000 </r>
       <r>   -6.6051    1.0000 </r>
       <r>   -2.0999    1.0000 </r>
       <r>   -1.2829    1.0000 </r>
       <r>   -1.2272    1.0000 </r>
       <r>   -0.7431    1.0000 </r>
       <r>    1.3178    1.0000 </r>
       <r>    1.8248    1.0000 </r>
       <r>    2.2146    1.0000 </r>
       <r>    2.9623    1.0000 </r>
       <r>    3.4346    1.0000 </r>
       <r>    3.4994    1.0000 </r>
       <r>    4.0452    1.0000 </r>
       <r>    4.0660    1.0000 </r>
       <r>    4.6577    1.0000 </r>
       <r>    5.0378    1.0000 </r>
       <r>    5.1242    1.0000 </r>
       <r>    5.2294    1.0000 </r>
       <r>    6.8955    0.0000 </r>
       <r>    6.9939    0.0000 </r>
       <r>    7.0736    0.0000 </r>
       <r>    7.4279    0.0000 </r>
       <r>    8.4734    0.0000 </r>
       <r>    8.8395    0.0000 </r>
       <r>    9.0816    0.0000 </r>
       <r>    9.4093    0.0000 </r>
       <r>   10.1348    0.0000 </r>
       <r>   10.5856    0.0000 </r>
       <r>   10.8482    0.0000 </r>
       <r>   10.9803    0.0000 </r>
       <r>   11.7080    0.0000 </r>
       <r>   12.9118    0.0000 </r>
       <r>   13.0047    0.0000 </r>
       <r>   13.1813    0.0000 </r>
       <r>   13.8150    0.0000 </r>
       <r>   14.1556    0.0000 </r>
       <r>   14.2843    0.0000 </r>
       <r>   14.7222    0.0000 </r>
       <r>   15.3091    0.0000 </r>
       <r>   16.0266    0.0000 </r>
       <r>   16.4379    0.0000 </r>
       <r>   16.5727    0.0000 </r>
      </set>
      <set comment="kpoint 18">
       <r>  -15.4111    1.0000 </r>
       <r>  -15.4073    1.0000 </r>
       <r>  -15.4014    1.0000 </r>
       <r>  -15.4001    1.0000 </r>
       <r>  -15.3917    1.0000 </r>
       <r>  -15.3888    1.0000 </r>
       <r>  -15.3863    1.0000 </r>
       <r>  -15.3834    1.0000 </r>
       <r>  -15.3834    1.0000 </r>
       <r>  -15.3797    1.0000 </r>
       <r>  -15.3706    1.0000 </r>
       <r>  -15.3647    1.0000 </r>
       <r>  -15.3572    1.0000 </r>
       <r>  -15.3524    1.0000 </r>
       <r>  -15.3400    1.0000 </r>
       <r>  -15.3387    1.0000 </r>
       <r>  -15.3336    1.0000 </r>
       <r>  -15.3285    1.0000 </r>
       <r>  -15.3163    1.0000 </r>
       <r>  -15.3151    1.0000 </r>
       <r>   -7.3434    1.0000 </r>
       <r>   -7.0825    1.0000 </r>
       <r>   -6.8087    1.0000 </r>
       <r>   -6.5824    1.0000 </r>
       <r>   -2.0007    1.0000 </r>
       <r>   -1.1535    1.0000 </r>
       <r>   -1.0308    1.0000 </r>
       <r>   -0.8211    1.0000 </r>
       <r>    1.0348    1.0000 </r>
       <r>    1.4441    1.0000 </r>
       <r>    1.5466    1.0000 </r>
       <r>    2.2885    1.0000 </r>
       <r>    2.5718    1.0000 </r>
       <r>    3.4101    1.0000 </r>
       <r>    3.5007    1.0000 </r>
       <r>    3.9505    1.0000 </r>
       <r>    4.2844    1.0000 </r>
       <r>    4.3731    1.0000 </r>
       <r>    4.7309    1.0000 </r>
       <r>    5.2754    1.0000 </r>
       <r>    6.4010    0.0000 </r>
       <r>    7.8294    0.0000 </r>
       <r>    8.2097    0.0000 </r>
       <r>    8.5332    0.0000 </r>
       <r>    8.8318    0.0000 </r>
       <r>    9.2988    0.0000 </r>
       <r>    9.7954    0.0000 </r>
       <r>   10.2533    0.0000 </r>
       <r>   10.6274    0.0000 </r>
       <r>   10.7575    0.0000 </r>
       <r>   11.3864    0.0000 </r>
       <r>   11.5087    0.0000 </r>
       <r>   11.7504    0.0000 </r>
       <r>   11.8076    0.0000 </r>
       <r>   13.2717    0.0000 </r>
       <r>   14.0112    0.0000 </r>
       <r>   14.0870    0.0000 </r>
       <r>   14.1973    0.0000 </r>
       <r>   14.9188    0.0000 </r>
       <r>   15.2617    0.0000 </r>
       <r>   15.9077    0.0000 </r>
       <r>   15.9395    0.0000 </r>
       <r>   16.1510    0.0000 </r>
       <r>   16.7157    0.0000 </r>
      </set>
      <set comment="kpoint 19">
       <r>  -15.4155    1.0000 </r>
       <r>  -15.4131    1.0000 </r>
       <r>  -15.4047    1.0000 </r>
       <r>  -15.4042    1.0000 </r>
       <r>  -15.3912    1.0000 </r>
       <r>  -15.3893    1.0000 </r>
       <r>  -15.3842    1.0000 </r>
       <r>  -15.3820    1.0000 </r>
       <r>  -15.3808    1.0000 </r>
       <r>  -15.3803    1.0000 </r>
       <r>  -15.3684    1.0000 </r>
       <r>  -15.3650    1.0000 </r>
       <r>  -15.3534    1.0000 </r>
       <r>  -15.3511    1.0000 </r>
       <r>  -15.3383    1.0000 </r>
       <r>  -15.3376    1.0000 </r>
       <r>  -15.3326    1.0000 </r>
       <r>  -15.3297    1.0000 </r>
       <r>  -15.3157    1.0000 </r>
       <r>  -15.3150    1.0000 </r>
       <r>   -7.1123    1.0000 </r>
       <r>   -6.8837    1.0000 </r>
       <r>   -6.8031    1.0000 </r>
       <r>   -6.6009    1.0000 </r>
       <r>   -1.8865    1.0000 </r>
       <r>   -1.3932    1.0000 </r>
       <r>   -0.7424    1.0000 </r>
       <r>   -0.7149    1.0000 </r>
       <r>    0.7349    1.0000 </r>
       <r>    1.1354    1.0000 </r>
       <r>    1.5538    1.0000 </r>
       <r>    1.8513    1.0000 </r>
       <r>    2.1858    1.0000 </r>
       <r>    2.6786    1.0000 </r>
       <r>    2.9327    1.0000 </r>
       <r>    3.4791    1.0000 </r>
       <r>    3.6075    1.0000 </r>
       <r>    4.1100    1.0000 </r>
       <r>    4.6478    1.0000 </r>
       <r>    4.7893    1.0000 </r>
       <r>    6.8380    0.0000 </r>
       <r>    8.4322    0.0000 </r>
       <r>    8.9534    0.0000 </r>
       <r>    9.1901    0.0000 </r>
       <r>    9.9118    0.0000 </r>
       <r>    9.9302    0.0000 </r>
       <r>   10.3665    0.0000 </r>
       <r>   10.6954    0.0000 </r>
       <r>   10.7302    0.0000 </r>
       <r>   10.9569    0.0000 </r>
       <r>   11.5098    0.0000 </r>
       <r>   11.6297    0.0000 </r>
       <r>   11.8283    0.0000 </r>
       <r>   12.1801    0.0000 </r>
       <r>   12.7245    0.0000 </r>
       <r>   13.4294    0.0000 </r>
       <r>   15.1748    0.0000 </r>
       <r>   15.3284    0.0000 </r>
       <r>   15.7528    0.0000 </r>
       <r>   15.8354    0.0000 </r>
       <r>   16.0749    0.0000 </r>
       <r>   16.5591    0.0000 </r>
       <r>   16.8594    0.0000 </r>
       <r>   17.1877    0.0000 </r>
      </set>
      <set comment="kpoint 20">
       <r>  -15.4163    1.0000 </r>
       <r>  -15.4163    1.0000 </r>
       <r>  -15.4060    1.0000 </r>
       <r>  -15.4060    1.0000 </r>
       <r>  -15.3903    1.0000 </r>
       <r>  -15.3903    1.0000 </r>
       <r>  -15.3828    1.0000 </r>
       <r>  -15.3828    1.0000 </r>
       <r>  -15.3798    1.0000 </r>
       <r>  -15.3798    1.0000 </r>
       <r>  -15.3663    1.0000 </r>
       <r>  -15.3663    1.0000 </r>
       <r>  -15.3512    1.0000 </r>
       <r>  -15.3512    1.0000 </r>
       <r>  -15.3373    1.0000 </r>
       <r>  -15.3373    1.0000 </r>
       <r>  -15.3311    1.0000 </r>
       <r>  -15.3311    1.0000 </r>
       <r>  -15.3152    1.0000 </r>
       <r>  -15.3152    1.0000 </r>
       <r>   -6.9065    1.0000 </r>
       <r>   -6.9065    1.0000 </r>
       <r>   -6.7038    1.0000 </r>
       <r>   -6.7038    1.0000 </r>
       <r>   -1.7014    1.0000 </r>
       <r>   -1.7014    1.0000 </r>
       <r>   -0.6345    1.0000 </r>
       <r>   -0.6345    1.0000 </r>
       <r>    0.9954    1.0000 </r>
       <r>    0.9954    1.0000 </r>
       <r>    1.4229    1.0000 </r>
       <r>    1.4229    1.0000 </r>
       <r>    2.2806    1.0000 </r>
       <r>    2.2806    1.0000 </r>
       <r>    2.9936    1.0000 </r>
       <r>    2.9936    1.0000 </r>
       <r>    3.6526    1.0000 </r>
       <r>    3.6526    1.0000 </r>
       <r>    4.6275    1.0000 </r>
       <r>    4.6275    1.0000 </r>
       <r>    7.6040    0.0000 </r>
       <r>    7.6040    0.0000 </r>
       <r>    9.5182    0.0000 </r>
       <r>    9.5182    0.0000 </r>
       <r>   10.3993    0.0000 </r>
       <r>   10.3993    0.0000 </r>
       <r>   10.7615    0.0000 </r>
       <r>   10.7615    0.0000 </r>
       <r>   10.8842    0.0000 </r>
       <r>   10.8842    0.0000 </r>
       <r>   11.6885    0.0000 </r>
       <r>   11.6885    0.0000 </r>
       <r>   11.9777    0.0000 </r>
       <r>   11.9777    0.0000 </r>
       <r>   12.7689    0.0000 </r>
       <r>   12.7689    0.0000 </r>
       <r>   15.8859    0.0000 </r>
       <r>   15.8859    0.0000 </r>
       <r>   16.4484    0.0000 </r>
       <r>   16.4484    0.0000 </r>
       <r>   16.6486    0.0000 </r>
       <r>   16.6486    0.0000 </r>
       <r>   17.3041    0.0000 </r>
       <r>   17.3042    0.0000 </r>
      </set>
      <set comment="kpoint 21">
       <r>  -15.4046    1.0000 </r>
       <r>  -15.4032    1.0000 </r>
       <r>  -15.3991    1.0000 </r>
       <r>  -15.3973    1.0000 </r>
       <r>  -15.3893    1.0000 </r>
       <r>  -15.3893    1.0000 </r>
       <r>  -15.3884    1.0000 </r>
       <r>  -15.3865    1.0000 </r>
       <r>  -15.3799    1.0000 </r>
       <r>  -15.3731    1.0000 </r>
       <r>  -15.3716    1.0000 </r>
       <r>  -15.3705    1.0000 </r>
       <r>  -15.3552    1.0000 </r>
       <r>  -15.3505    1.0000 </r>
       <r>  -15.3481    1.0000 </r>
       <r>  -15.3462    1.0000 </r>
       <r>  -15.3271    1.0000 </r>
       <r>  -15.3223    1.0000 </r>
       <r>  -15.3207    1.0000 </r>
       <r>  -15.3188    1.0000 </r>
       <r>   -7.2060    1.0000 </r>
       <r>   -7.0435    1.0000 </r>
       <r>   -6.8918    1.0000 </r>
       <r>   -6.8575    1.0000 </r>
       <r>   -2.2100    1.0000 </r>
       <r>   -1.9193    1.0000 </r>
       <r>   -1.4604    1.0000 </r>
       <r>   -1.1995    1.0000 </r>
       <r>    1.7740    1.0000 </r>
       <r>    2.3758    1.0000 </r>
       <r>    3.3426    1.0000 </r>
       <r>    3.5582    1.0000 </r>
       <r>    3.6820    1.0000 </r>
       <r>    3.7610    1.0000 </r>
       <r>    3.8214    1.0000 </r>
       <r>    4.3470    1.0000 </r>
       <r>    4.9196    1.0000 </r>
       <r>    4.9374    1.0000 </r>
       <r>    5.0315    1.0000 </r>
       <r>    5.1738    1.0000 </r>
       <r>    6.8023    0.0000 </r>
       <r>    6.9012    0.0000 </r>
       <r>    7.0084    0.0000 </r>
       <r>    7.3681    0.0000 </r>
       <r>    7.4318    0.0000 </r>
       <r>    7.6427    0.0000 </r>
       <r>    8.1799    0.0000 </r>
       <r>    8.5722    0.0000 </r>
       <r>    8.9487    0.0000 </r>
       <r>    9.1300    0.0000 </r>
       <r>   10.9496    0.0000 </r>
       <r>   11.1175    0.0000 </r>
       <r>   12.7688    0.0000 </r>
       <r>   12.9544    0.0000 </r>
       <r>   13.3698    0.0000 </r>
       <r>   13.5905    0.0000 </r>
       <r>   14.4779    0.0000 </r>
       <r>   14.9123    0.0000 </r>
       <r>   15.1421    0.0000 </r>
       <r>   15.6717    0.0000 </r>
       <r>   15.7379    0.0000 </r>
       <r>   16.2580    0.0000 </r>
       <r>   16.5633    0.0000 </r>
       <r>   16.7111    0.0000 </r>
      </set>
      <set comment="kpoint 22">
       <r>  -15.4075    1.0000 </r>
       <r>  -15.4061    1.0000 </r>
       <r>  -15.4005    1.0000 </r>
       <r>  -15.3993    1.0000 </r>
       <r>  -15.3897    1.0000 </r>
       <r>  -15.3891    1.0000 </r>
       <r>  -15.3867    1.0000 </r>
       <r>  -15.3857    1.0000 </r>
       <r>  -15.3788    1.0000 </r>
       <r>  -15.3732    1.0000 </r>
       <r>  -15.3712    1.0000 </r>
       <r>  -15.3700    1.0000 </r>
       <r>  -15.3544    1.0000 </r>
       <r>  -15.3507    1.0000 </r>
       <r>  -15.3463    1.0000 </r>
       <r>  -15.3453    1.0000 </r>
       <r>  -15.3273    1.0000 </r>
       <r>  -15.3234    1.0000 </r>
       <r>  -15.3199    1.0000 </r>
       <r>  -15.3186    1.0000 </r>
       <r>   -7.1551    1.0000 </r>
       <r>   -6.9994    1.0000 </r>
       <r>   -6.8595    1.0000 </r>
       <r>   -6.8242    1.0000 </r>
       <r>   -2.1139    1.0000 </r>
       <r>   -1.8200    1.0000 </r>
       <r>   -1.3751    1.0000 </r>
       <r>   -1.1558    1.0000 </r>
       <r>    1.8130    1.0000 </r>
       <r>    2.1439    1.0000 </r>
       <r>    2.3896    1.0000 </r>
       <r>    2.9444    1.0000 </r>
       <r>    3.2126    1.0000 </r>
       <r>    3.2546    1.0000 </r>
       <r>    4.2344    1.0000 </r>
       <r>    4.3190    1.0000 </r>
       <r>    4.3380    1.0000 </r>
       <r>    4.5814    1.0000 </r>
       <r>    5.1658    1.0000 </r>
       <r>    5.2198    1.0000 </r>
       <r>    6.6266    0.0000 </r>
       <r>    6.6295    0.0000 </r>
       <r>    7.2930    0.0000 </r>
       <r>    7.5805    0.0000 </r>
       <r>    8.4040    0.0000 </r>
       <r>    8.5252    0.0000 </r>
       <r>    8.8365    0.0000 </r>
       <r>    9.2829    0.0000 </r>
       <r>    9.4045    0.0000 </r>
       <r>   10.0453    0.0000 </r>
       <r>   10.7755    0.0000 </r>
       <r>   10.8875    0.0000 </r>
       <r>   11.8437    0.0000 </r>
       <r>   12.1958    0.0000 </r>
       <r>   14.0470    0.0000 </r>
       <r>   14.4334    0.0000 </r>
       <r>   14.6871    0.0000 </r>
       <r>   14.9311    0.0000 </r>
       <r>   15.1790    0.0000 </r>
       <r>   15.3334    0.0000 </r>
       <r>   15.8050    0.0000 </r>
       <r>   16.2177    0.0000 </r>
       <r>   16.4836    0.0000 </r>
       <r>   16.5394    0.0000 </r>
      </set>
      <set comment="kpoint 23">
       <r>  -15.4138    1.0000 </r>
       <r>  -15.4124    1.0000 </r>
       <r>  -15.4047    1.0000 </r>
       <r>  -15.4041    1.0000 </r>
       <r>  -15.3894    1.0000 </r>
       <r>  -15.3885    1.0000 </r>
       <r>  -15.3841    1.0000 </r>
       <r>  -15.3840    1.0000 </r>
       <r>  -15.3768    1.0000 </r>
       <r>  -15.3734    1.0000 </r>
       <r>  -15.3704    1.0000 </r>
       <r>  -15.3690    1.0000 </r>
       <r>  -15.3521    1.0000 </r>
       <r>  -15.3499    1.0000 </r>
       <r>  -15.3432    1.0000 </r>
       <r>  -15.3430    1.0000 </r>
       <r>  -15.3275    1.0000 </r>
       <r>  -15.3247    1.0000 </r>
       <r>  -15.3189    1.0000 </r>
       <r>  -15.3182    1.0000 </r>
       <r>   -7.0210    1.0000 </r>
       <r>   -6.8854    1.0000 </r>
       <r>   -6.7842    1.0000 </r>
       <r>   -6.7444    1.0000 </r>
       <r>   -1.8437    1.0000 </r>
       <r>   -1.5420    1.0000 </r>
       <r>   -1.1427    1.0000 </r>
       <r>   -1.0592    1.0000 </r>
       <r>    1.2380    1.0000 </r>
       <r>    1.7333    1.0000 </r>
       <r>    1.7403    1.0000 </r>
       <r>    1.9883    1.0000 </r>
       <r>    2.4613    1.0000 </r>
       <r>    2.9313    1.0000 </r>
       <r>    3.3398    1.0000 </r>
       <r>    3.5615    1.0000 </r>
       <r>    3.6032    1.0000 </r>
       <r>    4.0734    1.0000 </r>
       <r>    4.8204    1.0000 </r>
       <r>    4.9943    1.0000 </r>
       <r>    6.7490    0.0000 </r>
       <r>    7.4628    0.0000 </r>
       <r>    8.5799    0.0000 </r>
       <r>    8.9150    0.0000 </r>
       <r>    9.4906    0.0000 </r>
       <r>    9.6091    0.0000 </r>
       <r>   10.0177    0.0000 </r>
       <r>   10.2289    0.0000 </r>
       <r>   10.3397    0.0000 </r>
       <r>   10.6007    0.0000 </r>
       <r>   10.7828    0.0000 </r>
       <r>   11.4230    0.0000 </r>
       <r>   11.4762    0.0000 </r>
       <r>   11.5478    0.0000 </r>
       <r>   13.3652    0.0000 </r>
       <r>   13.6434    0.0000 </r>
       <r>   15.2212    0.0000 </r>
       <r>   15.4359    0.0000 </r>
       <r>   15.6600    0.0000 </r>
       <r>   16.2879    0.0000 </r>
       <r>   16.3987    0.0000 </r>
       <r>   16.6817    0.0000 </r>
       <r>   16.9492    0.0000 </r>
       <r>   17.1728    0.0000 </r>
      </set>
      <set comment="kpoint 24">
       <r>  -15.4193    1.0000 </r>
       <r>  -15.4185    1.0000 </r>
       <r>  -15.4091    1.0000 </r>
       <r>  -15.4088    1.0000 </r>
       <r>  -15.3892    1.0000 </r>
       <r>  -15.3884    1.0000 </r>
       <r>  -15.3823    1.0000 </r>
       <r>  -15.3820    1.0000 </r>
       <r>  -15.3752    1.0000 </r>
       <r>  -15.3738    1.0000 </r>
       <r>  -15.3696    1.0000 </r>
       <r>  -15.3685    1.0000 </r>
       <r>  -15.3493    1.0000 </r>
       <r>  -15.3484    1.0000 </r>
       <r>  -15.3407    1.0000 </r>
       <r>  -15.3406    1.0000 </r>
       <r>  -15.3271    1.0000 </r>
       <r>  -15.3256    1.0000 </r>
       <r>  -15.3182    1.0000 </r>
       <r>  -15.3179    1.0000 </r>
       <r>   -6.8586    1.0000 </r>
       <r>   -6.7528    1.0000 </r>
       <r>   -6.7238    1.0000 </r>
       <r>   -6.6722    1.0000 </r>
       <r>   -1.4790    1.0000 </r>
       <r>   -1.2095    1.0000 </r>
       <r>   -0.9544    1.0000 </r>
       <r>   -0.8590    1.0000 </r>
       <r>    0.6191    1.0000 </r>
       <r>    1.0077    1.0000 </r>
       <r>    1.2571    1.0000 </r>
       <r>    1.5507    1.0000 </r>
       <r>    2.0446    1.0000 </r>
       <r>    2.2139    1.0000 </r>
       <r>    2.7131    1.0000 </r>
       <r>    3.1563    1.0000 </r>
       <r>    3.3001    1.0000 </r>
       <r>    3.4430    1.0000 </r>
       <r>    4.5031    1.0000 </r>
       <r>    4.5542    1.0000 </r>
       <r>    7.5156    0.0000 </r>
       <r>    8.2755    0.0000 </r>
       <r>    9.0578    0.0000 </r>
       <r>    9.3873    0.0000 </r>
       <r>   10.2675    0.0000 </r>
       <r>   10.3098    0.0000 </r>
       <r>   10.4431    0.0000 </r>
       <r>   10.8192    0.0000 </r>
       <r>   10.8308    0.0000 </r>
       <r>   11.3270    0.0000 </r>
       <r>   11.7870    0.0000 </r>
       <r>   11.9203    0.0000 </r>
       <r>   12.0520    0.0000 </r>
       <r>   12.4248    0.0000 </r>
       <r>   12.7831    0.0000 </r>
       <r>   13.0669    0.0000 </r>
       <r>   15.6043    0.0000 </r>
       <r>   15.7710    0.0000 </r>
       <r>   16.6811    0.0000 </r>
       <r>   16.7621    0.0000 </r>
       <r>   16.9849    0.0000 </r>
       <r>   17.1402    0.0000 </r>
       <r>   17.5937    0.0000 </r>
       <r>   17.6400    0.0000 </r>
      </set>
      <set comment="kpoint 25">
       <r>  -15.4213    1.0000 </r>
       <r>  -15.4213    1.0000 </r>
       <r>  -15.4108    1.0000 </r>
       <r>  -15.4108    1.0000 </r>
       <r>  -15.3888    1.0000 </r>
       <r>  -15.3888    1.0000 </r>
       <r>  -15.3814    1.0000 </r>
       <r>  -15.3814    1.0000 </r>
       <r>  -15.3743    1.0000 </r>
       <r>  -15.3743    1.0000 </r>
       <r>  -15.3688    1.0000 </r>
       <r>  -15.3688    1.0000 </r>
       <r>  -15.3478    1.0000 </r>
       <r>  -15.3478    1.0000 </r>
       <r>  -15.3397    1.0000 </r>
       <r>  -15.3397    1.0000 </r>
       <r>  -15.3263    1.0000 </r>
       <r>  -15.3263    1.0000 </r>
       <r>  -15.3178    1.0000 </r>
       <r>  -15.3178    1.0000 </r>
       <r>   -6.7428    1.0000 </r>
       <r>   -6.7428    1.0000 </r>
       <r>   -6.6683    1.0000 </r>
       <r>   -6.6683    1.0000 </r>
       <r>   -1.2063    1.0000 </r>
       <r>   -1.2063    1.0000 </r>
       <r>   -0.7605    1.0000 </r>
       <r>   -0.7605    1.0000 </r>
       <r>    0.5470    1.0000 </r>
       <r>    0.5470    1.0000 </r>
       <r>    1.1579    1.0000 </r>
       <r>    1.1579    1.0000 </r>
       <r>    1.9137    1.0000 </r>
       <r>    1.9137    1.0000 </r>
       <r>    2.6460    1.0000 </r>
       <r>    2.6460    1.0000 </r>
       <r>    3.3577    1.0000 </r>
       <r>    3.3577    1.0000 </r>
       <r>    4.3751    1.0000 </r>
       <r>    4.3751    1.0000 </r>
       <r>    8.2219    0.0000 </r>
       <r>    8.2219    0.0000 </r>
       <r>    9.0858    0.0000 </r>
       <r>    9.0858    0.0000 </r>
       <r>   10.3727    0.0000 </r>
       <r>   10.3727    0.0000 </r>
       <r>   10.8051    0.0000 </r>
       <r>   10.8051    0.0000 </r>
       <r>   11.7071    0.0000 </r>
       <r>   11.7071    0.0000 </r>
       <r>   12.3425    0.0000 </r>
       <r>   12.3425    0.0000 </r>
       <r>   12.6669    0.0000 </r>
       <r>   12.6669    0.0000 </r>
       <r>   12.8391    0.0000 </r>
       <r>   12.8391    0.0000 </r>
       <r>   16.0088    0.0000 </r>
       <r>   16.0088    0.0000 </r>
       <r>   16.7000    0.0000 </r>
       <r>   16.7000    0.0000 </r>
       <r>   16.9501    0.0000 </r>
       <r>   16.9501    0.0000 </r>
       <r>   17.7995    0.0000 </r>
       <r>   17.7998    0.0000 </r>
      </set>
      <set comment="kpoint 26">
       <r>  -15.4151    1.0000 </r>
       <r>  -15.4063    1.0000 </r>
       <r>  -15.3971    1.0000 </r>
       <r>  -15.3943    1.0000 </r>
       <r>  -15.3909    1.0000 </r>
       <r>  -15.3888    1.0000 </r>
       <r>  -15.3886    1.0000 </r>
       <r>  -15.3848    1.0000 </r>
       <r>  -15.3795    1.0000 </r>
       <r>  -15.3782    1.0000 </r>
       <r>  -15.3776    1.0000 </r>
       <r>  -15.3759    1.0000 </r>
       <r>  -15.3648    1.0000 </r>
       <r>  -15.3623    1.0000 </r>
       <r>  -15.3435    1.0000 </r>
       <r>  -15.3395    1.0000 </r>
       <r>  -15.3316    1.0000 </r>
       <r>  -15.3284    1.0000 </r>
       <r>  -15.3120    1.0000 </r>
       <r>  -15.3074    1.0000 </r>
       <r>   -8.1038    1.0000 </r>
       <r>   -7.9125    1.0000 </r>
       <r>   -6.9079    1.0000 </r>
       <r>   -6.6206    1.0000 </r>
       <r>   -1.3106    1.0000 </r>
       <r>   -0.8662    1.0000 </r>
       <r>    0.7172    1.0000 </r>
       <r>    0.8324    1.0000 </r>
       <r>    1.2151    1.0000 </r>
       <r>    2.0487    1.0000 </r>
       <r>    2.4201    1.0000 </r>
       <r>    2.5371    1.0000 </r>
       <r>    2.6754    1.0000 </r>
       <r>    3.0389    1.0000 </r>
       <r>    3.6815    1.0000 </r>
       <r>    3.7038    1.0000 </r>
       <r>    3.7183    1.0000 </r>
       <r>    4.0713    1.0000 </r>
       <r>    5.2312    1.0000 </r>
       <r>    5.3063    1.0000 </r>
       <r>    7.6367    0.0000 </r>
       <r>    8.4665    0.0000 </r>
       <r>    8.5550    0.0000 </r>
       <r>    9.0518    0.0000 </r>
       <r>    9.4993    0.0000 </r>
       <r>    9.6459    0.0000 </r>
       <r>    9.9032    0.0000 </r>
       <r>   10.1248    0.0000 </r>
       <r>   10.6474    0.0000 </r>
       <r>   10.8245    0.0000 </r>
       <r>   11.3409    0.0000 </r>
       <r>   11.3900    0.0000 </r>
       <r>   11.6225    0.0000 </r>
       <r>   11.8788    0.0000 </r>
       <r>   12.1934    0.0000 </r>
       <r>   12.4562    0.0000 </r>
       <r>   13.0131    0.0000 </r>
       <r>   13.3974    0.0000 </r>
       <r>   13.9241    0.0000 </r>
       <r>   14.3179    0.0000 </r>
       <r>   14.5186    0.0000 </r>
       <r>   14.5418    0.0000 </r>
       <r>   14.8578    0.0000 </r>
       <r>   14.8653    0.0000 </r>
      </set>
      <set comment="kpoint 27">
       <r>  -15.4141    1.0000 </r>
       <r>  -15.4059    1.0000 </r>
       <r>  -15.3959    1.0000 </r>
       <r>  -15.3934    1.0000 </r>
       <r>  -15.3917    1.0000 </r>
       <r>  -15.3898    1.0000 </r>
       <r>  -15.3892    1.0000 </r>
       <r>  -15.3851    1.0000 </r>
       <r>  -15.3799    1.0000 </r>
       <r>  -15.3781    1.0000 </r>
       <r>  -15.3772    1.0000 </r>
       <r>  -15.3741    1.0000 </r>
       <r>  -15.3641    1.0000 </r>
       <r>  -15.3623    1.0000 </r>
       <r>  -15.3436    1.0000 </r>
       <r>  -15.3396    1.0000 </r>
       <r>  -15.3318    1.0000 </r>
       <r>  -15.3288    1.0000 </r>
       <r>  -15.3119    1.0000 </r>
       <r>  -15.3076    1.0000 </r>
       <r>   -8.0310    1.0000 </r>
       <r>   -7.8434    1.0000 </r>
       <r>   -6.8927    1.0000 </r>
       <r>   -6.6215    1.0000 </r>
       <r>   -1.5794    1.0000 </r>
       <r>   -1.0928    1.0000 </r>
       <r>    0.2685    1.0000 </r>
       <r>    0.4974    1.0000 </r>
       <r>    1.2665    1.0000 </r>
       <r>    2.2065    1.0000 </r>
       <r>    2.5301    1.0000 </r>
       <r>    2.7806    1.0000 </r>
       <r>    2.8290    1.0000 </r>
       <r>    3.2221    1.0000 </r>
       <r>    3.7779    1.0000 </r>
       <r>    3.8809    1.0000 </r>
       <r>    4.1292    1.0000 </r>
       <r>    4.2444    1.0000 </r>
       <r>    5.1254    1.0000 </r>
       <r>    5.3058    1.0000 </r>
       <r>    7.5930    0.0000 </r>
       <r>    8.3058    0.0000 </r>
       <r>    8.7499    0.0000 </r>
       <r>    9.0015    0.0000 </r>
       <r>    9.0069    0.0000 </r>
       <r>    9.3274    0.0000 </r>
       <r>    9.4352    0.0000 </r>
       <r>    9.9402    0.0000 </r>
       <r>   10.4686    0.0000 </r>
       <r>   10.8574    0.0000 </r>
       <r>   10.9944    0.0000 </r>
       <r>   11.2843    0.0000 </r>
       <r>   11.3752    0.0000 </r>
       <r>   11.5335    0.0000 </r>
       <r>   12.1230    0.0000 </r>
       <r>   12.6603    0.0000 </r>
       <r>   12.9683    0.0000 </r>
       <r>   13.4691    0.0000 </r>
       <r>   13.9362    0.0000 </r>
       <r>   14.1375    0.0000 </r>
       <r>   15.0444    0.0000 </r>
       <r>   15.2498    0.0000 </r>
       <r>   15.4288    0.0000 </r>
       <r>   15.5272    0.0000 </r>
      </set>
      <set comment="kpoint 28">
       <r>  -15.4114    1.0000 </r>
       <r>  -15.4050    1.0000 </r>
       <r>  -15.3940    1.0000 </r>
       <r>  -15.3934    1.0000 </r>
       <r>  -15.3925    1.0000 </r>
       <r>  -15.3915    1.0000 </r>
       <r>  -15.3897    1.0000 </r>
       <r>  -15.3864    1.0000 </r>
       <r>  -15.3805    1.0000 </r>
       <r>  -15.3790    1.0000 </r>
       <r>  -15.3741    1.0000 </r>
       <r>  -15.3700    1.0000 </r>
       <r>  -15.3631    1.0000 </r>
       <r>  -15.3617    1.0000 </r>
       <r>  -15.3434    1.0000 </r>
       <r>  -15.3398    1.0000 </r>
       <r>  -15.3321    1.0000 </r>
       <r>  -15.3297    1.0000 </r>
       <r>  -15.3114    1.0000 </r>
       <r>  -15.3081    1.0000 </r>
       <r>   -7.8262    1.0000 </r>
       <r>   -7.6502    1.0000 </r>
       <r>   -6.8766    1.0000 </r>
       <r>   -6.6488    1.0000 </r>
       <r>   -2.0928    1.0000 </r>
       <r>   -1.6071    1.0000 </r>
       <r>   -0.4953    1.0000 </r>
       <r>   -0.1452    1.0000 </r>
       <r>    1.4566    1.0000 </r>
       <r>    2.4989    1.0000 </r>
       <r>    2.8444    1.0000 </r>
       <r>    3.0789    1.0000 </r>
       <r>    3.3237    1.0000 </r>
       <r>    3.6293    1.0000 </r>
       <r>    3.9554    1.0000 </r>
       <r>    4.2528    1.0000 </r>
       <r>    4.5008    1.0000 </r>
       <r>    4.7518    1.0000 </r>
       <r>    5.0958    1.0000 </r>
       <r>    5.3924    1.0000 </r>
       <r>    7.4698    0.0000 </r>
       <r>    7.7932    0.0000 </r>
       <r>    8.0781    0.0000 </r>
       <r>    8.3020    0.0000 </r>
       <r>    8.5158    0.0000 </r>
       <r>    8.6426    0.0000 </r>
       <r>    9.1213    0.0000 </r>
       <r>    9.8384    0.0000 </r>
       <r>    9.8672    0.0000 </r>
       <r>   10.3640    0.0000 </r>
       <r>   10.6818    0.0000 </r>
       <r>   10.8265    0.0000 </r>
       <r>   11.4160    0.0000 </r>
       <r>   11.6885    0.0000 </r>
       <r>   12.5991    0.0000 </r>
       <r>   13.1161    0.0000 </r>
       <r>   13.2960    0.0000 </r>
       <r>   13.8853    0.0000 </r>
       <r>   14.1955    0.0000 </r>
       <r>   14.2195    0.0000 </r>
       <r>   15.2513    0.0000 </r>
       <r>   15.6560    0.0000 </r>
       <r>   16.4112    0.0000 </r>
       <r>   16.5582    0.0000 </r>
      </set>
      <set comment="kpoint 29">
       <r>  -15.4081    1.0000 </r>
       <r>  -15.4044    1.0000 </r>
       <r>  -15.3962    1.0000 </r>
       <r>  -15.3953    1.0000 </r>
       <r>  -15.3917    1.0000 </r>
       <r>  -15.3905    1.0000 </r>
       <r>  -15.3901    1.0000 </r>
       <r>  -15.3884    1.0000 </r>
       <r>  -15.3807    1.0000 </r>
       <r>  -15.3798    1.0000 </r>
       <r>  -15.3700    1.0000 </r>
       <r>  -15.3666    1.0000 </r>
       <r>  -15.3627    1.0000 </r>
       <r>  -15.3608    1.0000 </r>
       <r>  -15.3424    1.0000 </r>
       <r>  -15.3402    1.0000 </r>
       <r>  -15.3319    1.0000 </r>
       <r>  -15.3306    1.0000 </r>
       <r>  -15.3107    1.0000 </r>
       <r>  -15.3090    1.0000 </r>
       <r>   -7.5371    1.0000 </r>
       <r>   -7.3872    1.0000 </r>
       <r>   -6.9242    1.0000 </r>
       <r>   -6.7559    1.0000 </r>
       <r>   -2.4440    1.0000 </r>
       <r>   -2.1146    1.0000 </r>
       <r>   -1.0324    1.0000 </r>
       <r>   -0.7684    1.0000 </r>
       <r>    1.8780    1.0000 </r>
       <r>    2.8116    1.0000 </r>
       <r>    3.2838    1.0000 </r>
       <r>    3.3014    1.0000 </r>
       <r>    3.4986    1.0000 </r>
       <r>    3.9502    1.0000 </r>
       <r>    4.0774    1.0000 </r>
       <r>    4.2838    1.0000 </r>
       <r>    4.8151    1.0000 </r>
       <r>    4.9841    1.0000 </r>
       <r>    5.6240    1.0000 </r>
       <r>    5.8264    1.0000 </r>
       <r>    6.8915    0.0000 </r>
       <r>    7.2996    0.0000 </r>
       <r>    7.3900    0.0000 </r>
       <r>    7.7231    0.0000 </r>
       <r>    7.7645    0.0000 </r>
       <r>    8.1462    0.0000 </r>
       <r>    8.6034    0.0000 </r>
       <r>    9.0600    0.0000 </r>
       <r>    9.4110    0.0000 </r>
       <r>    9.4470    0.0000 </r>
       <r>   10.9309    0.0000 </r>
       <r>   11.1905    0.0000 </r>
       <r>   12.5587    0.0000 </r>
       <r>   12.8011    0.0000 </r>
       <r>   13.1962    0.0000 </r>
       <r>   13.5639    0.0000 </r>
       <r>   13.8586    0.0000 </r>
       <r>   14.3174    0.0000 </r>
       <r>   14.5790    0.0000 </r>
       <r>   14.5902    0.0000 </r>
       <r>   15.3815    0.0000 </r>
       <r>   15.5691    0.0000 </r>
       <r>   15.5844    0.0000 </r>
       <r>   16.3885    0.0000 </r>
      </set>
      <set comment="kpoint 30">
       <r>  -15.4054    1.0000 </r>
       <r>  -15.4054    1.0000 </r>
       <r>  -15.3968    1.0000 </r>
       <r>  -15.3968    1.0000 </r>
       <r>  -15.3907    1.0000 </r>
       <r>  -15.3907    1.0000 </r>
       <r>  -15.3898    1.0000 </r>
       <r>  -15.3898    1.0000 </r>
       <r>  -15.3804    1.0000 </r>
       <r>  -15.3804    1.0000 </r>
       <r>  -15.3670    1.0000 </r>
       <r>  -15.3670    1.0000 </r>
       <r>  -15.3613    1.0000 </r>
       <r>  -15.3613    1.0000 </r>
       <r>  -15.3410    1.0000 </r>
       <r>  -15.3410    1.0000 </r>
       <r>  -15.3313    1.0000 </r>
       <r>  -15.3313    1.0000 </r>
       <r>  -15.3099    1.0000 </r>
       <r>  -15.3099    1.0000 </r>
       <r>   -7.2852    1.0000 </r>
       <r>   -7.2852    1.0000 </r>
       <r>   -6.9342    1.0000 </r>
       <r>   -6.9342    1.0000 </r>
       <r>   -2.4399    1.0000 </r>
       <r>   -2.4399    1.0000 </r>
       <r>   -1.1193    1.0000 </r>
       <r>   -1.1193    1.0000 </r>
       <r>    2.4460    1.0000 </r>
       <r>    2.4460    1.0000 </r>
       <r>    3.5862    1.0000 </r>
       <r>    3.5862    1.0000 </r>
       <r>    3.7046    1.0000 </r>
       <r>    3.7046    1.0000 </r>
       <r>    4.1027    1.0000 </r>
       <r>    4.1027    1.0000 </r>
       <r>    5.3439    1.0000 </r>
       <r>    5.3439    1.0000 </r>
       <r>    5.7136    1.0000 </r>
       <r>    5.7136    1.0000 </r>
       <r>    6.9227    0.0000 </r>
       <r>    6.9227    0.0000 </r>
       <r>    7.2905    0.0000 </r>
       <r>    7.2905    0.0000 </r>
       <r>    7.5955    0.0000 </r>
       <r>    7.5955    0.0000 </r>
       <r>    8.8597    0.0000 </r>
       <r>    8.8597    0.0000 </r>
       <r>    8.8813    0.0000 </r>
       <r>    8.8813    0.0000 </r>
       <r>   11.2084    0.0000 </r>
       <r>   11.2084    0.0000 </r>
       <r>   13.4979    0.0000 </r>
       <r>   13.4979    0.0000 </r>
       <r>   14.1191    0.0000 </r>
       <r>   14.1191    0.0000 </r>
       <r>   14.2107    0.0000 </r>
       <r>   14.2107    0.0000 </r>
       <r>   14.5174    0.0000 </r>
       <r>   14.5174    0.0000 </r>
       <r>   15.7747    0.0000 </r>
       <r>   15.7747    0.0000 </r>
       <r>   15.7943    0.0000 </r>
       <r>   15.7943    0.0000 </r>
      </set>
      <set comment="kpoint 31">
       <r>  -15.4117    1.0000 </r>
       <r>  -15.4036    1.0000 </r>
       <r>  -15.3957    1.0000 </r>
       <r>  -15.3933    1.0000 </r>
       <r>  -15.3918    1.0000 </r>
       <r>  -15.3905    1.0000 </r>
       <r>  -15.3899    1.0000 </r>
       <r>  -15.3865    1.0000 </r>
       <r>  -15.3819    1.0000 </r>
       <r>  -15.3801    1.0000 </r>
       <r>  -15.3762    1.0000 </r>
       <r>  -15.3738    1.0000 </r>
       <r>  -15.3632    1.0000 </r>
       <r>  -15.3619    1.0000 </r>
       <r>  -15.3420    1.0000 </r>
       <r>  -15.3386    1.0000 </r>
       <r>  -15.3320    1.0000 </r>
       <r>  -15.3296    1.0000 </r>
       <r>  -15.3128    1.0000 </r>
       <r>  -15.3087    1.0000 </r>
       <r>   -8.0336    1.0000 </r>
       <r>   -7.8473    1.0000 </r>
       <r>   -6.8797    1.0000 </r>
       <r>   -6.6100    1.0000 </r>
       <r>   -1.4284    1.0000 </r>
       <r>   -0.9981    1.0000 </r>
       <r>    0.4386    1.0000 </r>
       <r>    0.4484    1.0000 </r>
       <r>    1.2330    1.0000 </r>
       <r>    2.1124    1.0000 </r>
       <r>    2.3357    1.0000 </r>
       <r>    2.6590    1.0000 </r>
       <r>    2.8575    1.0000 </r>
       <r>    3.1492    1.0000 </r>
       <r>    3.6632    1.0000 </r>
       <r>    3.7665    1.0000 </r>
       <r>    4.0626    1.0000 </r>
       <r>    4.1072    1.0000 </r>
       <r>    5.2601    1.0000 </r>
       <r>    5.3003    1.0000 </r>
       <r>    7.7315    0.0000 </r>
       <r>    8.4430    0.0000 </r>
       <r>    8.6745    0.0000 </r>
       <r>    8.9350    0.0000 </r>
       <r>    9.0951    0.0000 </r>
       <r>    9.4231    0.0000 </r>
       <r>    9.4268    0.0000 </r>
       <r>    9.9612    0.0000 </r>
       <r>   10.5523    0.0000 </r>
       <r>   11.0267    0.0000 </r>
       <r>   11.0295    0.0000 </r>
       <r>   11.3109    0.0000 </r>
       <r>   11.4986    0.0000 </r>
       <r>   11.6141    0.0000 </r>
       <r>   11.8237    0.0000 </r>
       <r>   12.2265    0.0000 </r>
       <r>   12.5739    0.0000 </r>
       <r>   13.5787    0.0000 </r>
       <r>   13.8550    0.0000 </r>
       <r>   14.3742    0.0000 </r>
       <r>   15.2829    0.0000 </r>
       <r>   15.2982    0.0000 </r>
       <r>   15.3391    0.0000 </r>
       <r>   15.4483    0.0000 </r>
      </set>
      <set comment="kpoint 32">
       <r>  -15.4110    1.0000 </r>
       <r>  -15.4033    1.0000 </r>
       <r>  -15.3946    1.0000 </r>
       <r>  -15.3930    1.0000 </r>
       <r>  -15.3923    1.0000 </r>
       <r>  -15.3914    1.0000 </r>
       <r>  -15.3899    1.0000 </r>
       <r>  -15.3869    1.0000 </r>
       <r>  -15.3823    1.0000 </r>
       <r>  -15.3807    1.0000 </r>
       <r>  -15.3750    1.0000 </r>
       <r>  -15.3722    1.0000 </r>
       <r>  -15.3628    1.0000 </r>
       <r>  -15.3616    1.0000 </r>
       <r>  -15.3421    1.0000 </r>
       <r>  -15.3385    1.0000 </r>
       <r>  -15.3323    1.0000 </r>
       <r>  -15.3300    1.0000 </r>
       <r>  -15.3127    1.0000 </r>
       <r>  -15.3089    1.0000 </r>
       <r>   -7.9618    1.0000 </r>
       <r>   -7.7792    1.0000 </r>
       <r>   -6.8642    1.0000 </r>
       <r>   -6.6095    1.0000 </r>
       <r>   -1.6286    1.0000 </r>
       <r>   -1.1539    1.0000 </r>
       <r>    0.0976    1.0000 </r>
       <r>    0.2647    1.0000 </r>
       <r>    1.2998    1.0000 </r>
       <r>    2.0360    1.0000 </r>
       <r>    2.2500    1.0000 </r>
       <r>    2.5828    1.0000 </r>
       <r>    3.0807    1.0000 </r>
       <r>    3.4259    1.0000 </r>
       <r>    3.5916    1.0000 </r>
       <r>    3.7465    1.0000 </r>
       <r>    4.4912    1.0000 </r>
       <r>    4.7367    1.0000 </r>
       <r>    5.1622    1.0000 </r>
       <r>    5.3199    1.0000 </r>
       <r>    7.6577    0.0000 </r>
       <r>    7.9216    0.0000 </r>
       <r>    8.3054    0.0000 </r>
       <r>    8.7508    0.0000 </r>
       <r>    8.9150    0.0000 </r>
       <r>    9.1999    0.0000 </r>
       <r>    9.6507    0.0000 </r>
       <r>    9.9746    0.0000 </r>
       <r>   10.3119    0.0000 </r>
       <r>   10.4880    0.0000 </r>
       <r>   10.8778    0.0000 </r>
       <r>   10.9911    0.0000 </r>
       <r>   11.7610    0.0000 </r>
       <r>   12.0144    0.0000 </r>
       <r>   12.1343    0.0000 </r>
       <r>   12.5142    0.0000 </r>
       <r>   12.9661    0.0000 </r>
       <r>   13.7324    0.0000 </r>
       <r>   14.0712    0.0000 </r>
       <r>   14.6179    0.0000 </r>
       <r>   14.8182    0.0000 </r>
       <r>   15.2131    0.0000 </r>
       <r>   15.5501    0.0000 </r>
       <r>   15.7697    0.0000 </r>
      </set>
      <set comment="kpoint 33">
       <r>  -15.4089    1.0000 </r>
       <r>  -15.4027    1.0000 </r>
       <r>  -15.3961    1.0000 </r>
       <r>  -15.3949    1.0000 </r>
       <r>  -15.3915    1.0000 </r>
       <r>  -15.3905    1.0000 </r>
       <r>  -15.3902    1.0000 </r>
       <r>  -15.3876    1.0000 </r>
       <r>  -15.3829    1.0000 </r>
       <r>  -15.3816    1.0000 </r>
       <r>  -15.3723    1.0000 </r>
       <r>  -15.3686    1.0000 </r>
       <r>  -15.3622    1.0000 </r>
       <r>  -15.3604    1.0000 </r>
       <r>  -15.3419    1.0000 </r>
       <r>  -15.3385    1.0000 </r>
       <r>  -15.3329    1.0000 </r>
       <r>  -15.3308    1.0000 </r>
       <r>  -15.3121    1.0000 </r>
       <r>  -15.3093    1.0000 </r>
       <r>   -7.7602    1.0000 </r>
       <r>   -7.5893    1.0000 </r>
       <r>   -6.8463    1.0000 </r>
       <r>   -6.6318    1.0000 </r>
       <r>   -2.0506    1.0000 </r>
       <r>   -1.5691    1.0000 </r>
       <r>   -0.5142    1.0000 </r>
       <r>   -0.2110    1.0000 </r>
       <r>    1.5044    1.0000 </r>
       <r>    2.0512    1.0000 </r>
       <r>    2.2720    1.0000 </r>
       <r>    2.9149    1.0000 </r>
       <r>    3.0844    1.0000 </r>
       <r>    3.4461    1.0000 </r>
       <r>    4.0513    1.0000 </r>
       <r>    4.2130    1.0000 </r>
       <r>    4.9366    1.0000 </r>
       <r>    5.0689    1.0000 </r>
       <r>    5.1774    1.0000 </r>
       <r>    5.3783    1.0000 </r>
       <r>    7.2690    0.0000 </r>
       <r>    7.4277    0.0000 </r>
       <r>    7.8570    0.0000 </r>
       <r>    8.0311    0.0000 </r>
       <r>    8.6652    0.0000 </r>
       <r>    9.0130    0.0000 </r>
       <r>    9.3441    0.0000 </r>
       <r>    9.5163    0.0000 </r>
       <r>   10.1615    0.0000 </r>
       <r>   10.3090    0.0000 </r>
       <r>   10.8453    0.0000 </r>
       <r>   10.9379    0.0000 </r>
       <r>   12.0106    0.0000 </r>
       <r>   12.0987    0.0000 </r>
       <r>   12.8992    0.0000 </r>
       <r>   12.9868    0.0000 </r>
       <r>   13.4040    0.0000 </r>
       <r>   13.8776    0.0000 </r>
       <r>   14.1708    0.0000 </r>
       <r>   14.7426    0.0000 </r>
       <r>   14.9069    0.0000 </r>
       <r>   15.5217    0.0000 </r>
       <r>   15.8937    0.0000 </r>
       <r>   16.2289    0.0000 </r>
      </set>
      <set comment="kpoint 34">
       <r>  -15.4063    1.0000 </r>
       <r>  -15.4023    1.0000 </r>
       <r>  -15.3992    1.0000 </r>
       <r>  -15.3978    1.0000 </r>
       <r>  -15.3913    1.0000 </r>
       <r>  -15.3911    1.0000 </r>
       <r>  -15.3887    1.0000 </r>
       <r>  -15.3874    1.0000 </r>
       <r>  -15.3832    1.0000 </r>
       <r>  -15.3824    1.0000 </r>
       <r>  -15.3690    1.0000 </r>
       <r>  -15.3661    1.0000 </r>
       <r>  -15.3610    1.0000 </r>
       <r>  -15.3592    1.0000 </r>
       <r>  -15.3409    1.0000 </r>
       <r>  -15.3387    1.0000 </r>
       <r>  -15.3329    1.0000 </r>
       <r>  -15.3317    1.0000 </r>
       <r>  -15.3114    1.0000 </r>
       <r>  -15.3099    1.0000 </r>
       <r>   -7.4773    1.0000 </r>
       <r>   -7.3326    1.0000 </r>
       <r>   -6.8891    1.0000 </r>
       <r>   -6.7296    1.0000 </r>
       <r>   -2.3594    1.0000 </r>
       <r>   -2.0358    1.0000 </r>
       <r>   -0.9743    1.0000 </r>
       <r>   -0.7346    1.0000 </r>
       <r>    1.8756    1.0000 </r>
       <r>    2.3436    1.0000 </r>
       <r>    2.6220    1.0000 </r>
       <r>    3.0258    1.0000 </r>
       <r>    3.3345    1.0000 </r>
       <r>    3.4499    1.0000 </r>
       <r>    3.8586    1.0000 </r>
       <r>    4.3317    1.0000 </r>
       <r>    4.9513    1.0000 </r>
       <r>    5.1408    1.0000 </r>
       <r>    5.2928    1.0000 </r>
       <r>    5.3866    1.0000 </r>
       <r>    7.0881    0.0000 </r>
       <r>    7.3448    0.0000 </r>
       <r>    7.5800    0.0000 </r>
       <r>    7.9296    0.0000 </r>
       <r>    8.2255    0.0000 </r>
       <r>    8.6486    0.0000 </r>
       <r>    8.7330    0.0000 </r>
       <r>    9.0367    0.0000 </r>
       <r>   10.0393    0.0000 </r>
       <r>   10.1922    0.0000 </r>
       <r>   10.8183    0.0000 </r>
       <r>   11.0807    0.0000 </r>
       <r>   12.6026    0.0000 </r>
       <r>   12.8840    0.0000 </r>
       <r>   13.1270    0.0000 </r>
       <r>   13.3903    0.0000 </r>
       <r>   13.9342    0.0000 </r>
       <r>   14.2758    0.0000 </r>
       <r>   14.4515    0.0000 </r>
       <r>   14.6390    0.0000 </r>
       <r>   15.3069    0.0000 </r>
       <r>   15.6875    0.0000 </r>
       <r>   15.9471    0.0000 </r>
       <r>   16.6492    0.0000 </r>
      </set>
      <set comment="kpoint 35">
       <r>  -15.4037    1.0000 </r>
       <r>  -15.4037    1.0000 </r>
       <r>  -15.3997    1.0000 </r>
       <r>  -15.3997    1.0000 </r>
       <r>  -15.3917    1.0000 </r>
       <r>  -15.3917    1.0000 </r>
       <r>  -15.3875    1.0000 </r>
       <r>  -15.3875    1.0000 </r>
       <r>  -15.3830    1.0000 </r>
       <r>  -15.3830    1.0000 </r>
       <r>  -15.3665    1.0000 </r>
       <r>  -15.3665    1.0000 </r>
       <r>  -15.3594    1.0000 </r>
       <r>  -15.3594    1.0000 </r>
       <r>  -15.3395    1.0000 </r>
       <r>  -15.3395    1.0000 </r>
       <r>  -15.3324    1.0000 </r>
       <r>  -15.3324    1.0000 </r>
       <r>  -15.3106    1.0000 </r>
       <r>  -15.3106    1.0000 </r>
       <r>   -7.2332    1.0000 </r>
       <r>   -7.2332    1.0000 </r>
       <r>   -6.8975    1.0000 </r>
       <r>   -6.8975    1.0000 </r>
       <r>   -2.3490    1.0000 </r>
       <r>   -2.3490    1.0000 </r>
       <r>   -1.0478    1.0000 </r>
       <r>   -1.0478    1.0000 </r>
       <r>    2.3453    1.0000 </r>
       <r>    2.3453    1.0000 </r>
       <r>    2.9767    1.0000 </r>
       <r>    2.9767    1.0000 </r>
       <r>    3.3240    1.0000 </r>
       <r>    3.3240    1.0000 </r>
       <r>    3.9628    1.0000 </r>
       <r>    3.9628    1.0000 </r>
       <r>    5.0227    1.0000 </r>
       <r>    5.0227    1.0000 </r>
       <r>    5.3777    1.0000 </r>
       <r>    5.3777    1.0000 </r>
       <r>    7.2407    0.0000 </r>
       <r>    7.2407    0.0000 </r>
       <r>    7.6505    0.0000 </r>
       <r>    7.6505    0.0000 </r>
       <r>    8.2384    0.0000 </r>
       <r>    8.2384    0.0000 </r>
       <r>    8.9022    0.0000 </r>
       <r>    8.9022    0.0000 </r>
       <r>    9.7811    0.0000 </r>
       <r>    9.7811    0.0000 </r>
       <r>   11.0593    0.0000 </r>
       <r>   11.0593    0.0000 </r>
       <r>   12.8180    0.0000 </r>
       <r>   12.8180    0.0000 </r>
       <r>   13.9280    0.0000 </r>
       <r>   13.9280    0.0000 </r>
       <r>   14.3120    0.0000 </r>
       <r>   14.3120    0.0000 </r>
       <r>   15.2157    0.0000 </r>
       <r>   15.2157    0.0000 </r>
       <r>   15.7463    0.0000 </r>
       <r>   15.7463    0.0000 </r>
       <r>   15.9334    0.0000 </r>
       <r>   15.9334    0.0000 </r>
      </set>
      <set comment="kpoint 36">
       <r>  -15.4036    1.0000 </r>
       <r>  -15.4001    1.0000 </r>
       <r>  -15.3941    1.0000 </r>
       <r>  -15.3931    1.0000 </r>
       <r>  -15.3922    1.0000 </r>
       <r>  -15.3907    1.0000 </r>
       <r>  -15.3900    1.0000 </r>
       <r>  -15.3894    1.0000 </r>
       <r>  -15.3860    1.0000 </r>
       <r>  -15.3850    1.0000 </r>
       <r>  -15.3729    1.0000 </r>
       <r>  -15.3699    1.0000 </r>
       <r>  -15.3611    1.0000 </r>
       <r>  -15.3599    1.0000 </r>
       <r>  -15.3387    1.0000 </r>
       <r>  -15.3380    1.0000 </r>
       <r>  -15.3330    1.0000 </r>
       <r>  -15.3319    1.0000 </r>
       <r>  -15.3146    1.0000 </r>
       <r>  -15.3119    1.0000 </r>
       <r>   -7.8316    1.0000 </r>
       <r>   -7.6617    1.0000 </r>
       <r>   -6.8174    1.0000 </r>
       <r>   -6.6028    1.0000 </r>
       <r>   -1.7227    1.0000 </r>
       <r>   -1.3340    1.0000 </r>
       <r>   -0.3459    1.0000 </r>
       <r>   -0.1771    1.0000 </r>
       <r>    1.3753    1.0000 </r>
       <r>    2.3105    1.0000 </r>
       <r>    2.5035    1.0000 </r>
       <r>    2.7806    1.0000 </r>
       <r>    3.1977    1.0000 </r>
       <r>    3.3875    1.0000 </r>
       <r>    3.8032    1.0000 </r>
       <r>    3.9078    1.0000 </r>
       <r>    4.1984    1.0000 </r>
       <r>    4.5010    1.0000 </r>
       <r>    5.2579    1.0000 </r>
       <r>    5.3964    1.0000 </r>
       <r>    7.3181    0.0000 </r>
       <r>    8.0056    0.0000 </r>
       <r>    8.0453    0.0000 </r>
       <r>    8.4920    0.0000 </r>
       <r>    8.6464    0.0000 </r>
       <r>    9.1886    0.0000 </r>
       <r>    9.2807    0.0000 </r>
       <r>    9.8861    0.0000 </r>
       <r>   10.0578    0.0000 </r>
       <r>   10.4590    0.0000 </r>
       <r>   10.6007    0.0000 </r>
       <r>   10.6358    0.0000 </r>
       <r>   11.2820    0.0000 </r>
       <r>   11.4528    0.0000 </r>
       <r>   12.3719    0.0000 </r>
       <r>   12.3830    0.0000 </r>
       <r>   12.9054    0.0000 </r>
       <r>   13.4724    0.0000 </r>
       <r>   14.5354    0.0000 </r>
       <r>   14.7417    0.0000 </r>
       <r>   15.8059    0.0000 </r>
       <r>   15.9464    0.0000 </r>
       <r>   16.0278    0.0000 </r>
       <r>   16.4105    0.0000 </r>
      </set>
      <set comment="kpoint 37">
       <r>  -15.4044    1.0000 </r>
       <r>  -15.4006    1.0000 </r>
       <r>  -15.3957    1.0000 </r>
       <r>  -15.3932    1.0000 </r>
       <r>  -15.3922    1.0000 </r>
       <r>  -15.3905    1.0000 </r>
       <r>  -15.3901    1.0000 </r>
       <r>  -15.3882    1.0000 </r>
       <r>  -15.3864    1.0000 </r>
       <r>  -15.3849    1.0000 </r>
       <r>  -15.3721    1.0000 </r>
       <r>  -15.3687    1.0000 </r>
       <r>  -15.3611    1.0000 </r>
       <r>  -15.3590    1.0000 </r>
       <r>  -15.3387    1.0000 </r>
       <r>  -15.3377    1.0000 </r>
       <r>  -15.3333    1.0000 </r>
       <r>  -15.3324    1.0000 </r>
       <r>  -15.3144    1.0000 </r>
       <r>  -15.3119    1.0000 </r>
       <r>   -7.7630    1.0000 </r>
       <r>   -7.5971    1.0000 </r>
       <r>   -6.8004    1.0000 </r>
       <r>   -6.5972    1.0000 </r>
       <r>   -1.7794    1.0000 </r>
       <r>   -1.3485    1.0000 </r>
       <r>   -0.4098    1.0000 </r>
       <r>   -0.2858    1.0000 </r>
       <r>    1.4344    1.0000 </r>
       <r>    1.8194    1.0000 </r>
       <r>    2.1411    1.0000 </r>
       <r>    2.6492    1.0000 </r>
       <r>    3.0023    1.0000 </r>
       <r>    3.3765    1.0000 </r>
       <r>    3.9265    1.0000 </r>
       <r>    4.0178    1.0000 </r>
       <r>    4.7229    1.0000 </r>
       <r>    4.8823    1.0000 </r>
       <r>    5.2732    1.0000 </r>
       <r>    5.3742    1.0000 </r>
       <r>    7.1239    0.0000 </r>
       <r>    7.3782    0.0000 </r>
       <r>    8.0492    0.0000 </r>
       <r>    8.2591    0.0000 </r>
       <r>    8.7424    0.0000 </r>
       <r>    9.0480    0.0000 </r>
       <r>    9.4612    0.0000 </r>
       <r>    9.6323    0.0000 </r>
       <r>   10.0725    0.0000 </r>
       <r>   10.4232    0.0000 </r>
       <r>   10.6959    0.0000 </r>
       <r>   10.9828    0.0000 </r>
       <r>   11.8426    0.0000 </r>
       <r>   12.2718    0.0000 </r>
       <r>   12.7040    0.0000 </r>
       <r>   12.7227    0.0000 </r>
       <r>   13.1172    0.0000 </r>
       <r>   13.7725    0.0000 </r>
       <r>   14.3598    0.0000 </r>
       <r>   14.6400    0.0000 </r>
       <r>   15.1773    0.0000 </r>
       <r>   15.5750    0.0000 </r>
       <r>   15.7777    0.0000 </r>
       <r>   16.0036    0.0000 </r>
      </set>
      <set comment="kpoint 38">
       <r>  -15.4063    1.0000 </r>
       <r>  -15.4023    1.0000 </r>
       <r>  -15.3994    1.0000 </r>
       <r>  -15.3964    1.0000 </r>
       <r>  -15.3910    1.0000 </r>
       <r>  -15.3901    1.0000 </r>
       <r>  -15.3891    1.0000 </r>
       <r>  -15.3868    1.0000 </r>
       <r>  -15.3854    1.0000 </r>
       <r>  -15.3845    1.0000 </r>
       <r>  -15.3702    1.0000 </r>
       <r>  -15.3666    1.0000 </r>
       <r>  -15.3597    1.0000 </r>
       <r>  -15.3571    1.0000 </r>
       <r>  -15.3384    1.0000 </r>
       <r>  -15.3368    1.0000 </r>
       <r>  -15.3339    1.0000 </r>
       <r>  -15.3336    1.0000 </r>
       <r>  -15.3138    1.0000 </r>
       <r>  -15.3120    1.0000 </r>
       <r>   -7.5724    1.0000 </r>
       <r>   -7.4187    1.0000 </r>
       <r>   -6.7756    1.0000 </r>
       <r>   -6.6027    1.0000 </r>
       <r>   -1.9499    1.0000 </r>
       <r>   -1.4899    1.0000 </r>
       <r>   -0.6425    1.0000 </r>
       <r>   -0.4660    1.0000 </r>
       <r>    1.3808    1.0000 </r>
       <r>    1.5022    1.0000 </r>
       <r>    1.9158    1.0000 </r>
       <r>    2.5323    1.0000 </r>
       <r>    2.5734    1.0000 </r>
       <r>    3.2044    1.0000 </r>
       <r>    4.1335    1.0000 </r>
       <r>    4.3887    1.0000 </r>
       <r>    4.4674    1.0000 </r>
       <r>    4.6193    1.0000 </r>
       <r>    5.2668    1.0000 </r>
       <r>    5.4126    1.0000 </r>
       <r>    7.2698    0.0000 </r>
       <r>    7.6559    0.0000 </r>
       <r>    7.7507    0.0000 </r>
       <r>    8.1837    0.0000 </r>
       <r>    8.4633    0.0000 </r>
       <r>    8.8980    0.0000 </r>
       <r>    9.3371    0.0000 </r>
       <r>    9.9121    0.0000 </r>
       <r>   10.4305    0.0000 </r>
       <r>   10.7835    0.0000 </r>
       <r>   11.0408    0.0000 </r>
       <r>   11.1695    0.0000 </r>
       <r>   12.2179    0.0000 </r>
       <r>   13.0043    0.0000 </r>
       <r>   13.3281    0.0000 </r>
       <r>   13.4027    0.0000 </r>
       <r>   13.6611    0.0000 </r>
       <r>   13.9305    0.0000 </r>
       <r>   14.2051    0.0000 </r>
       <r>   14.6563    0.0000 </r>
       <r>   14.8672    0.0000 </r>
       <r>   15.2702    0.0000 </r>
       <r>   15.9808    0.0000 </r>
       <r>   16.1100    0.0000 </r>
      </set>
      <set comment="kpoint 39">
       <r>  -15.4080    1.0000 </r>
       <r>  -15.4055    1.0000 </r>
       <r>  -15.4018    1.0000 </r>
       <r>  -15.4000    1.0000 </r>
       <r>  -15.3906    1.0000 </r>
       <r>  -15.3896    1.0000 </r>
       <r>  -15.3887    1.0000 </r>
       <r>  -15.3862    1.0000 </r>
       <r>  -15.3840    1.0000 </r>
       <r>  -15.3833    1.0000 </r>
       <r>  -15.3681    1.0000 </r>
       <r>  -15.3658    1.0000 </r>
       <r>  -15.3569    1.0000 </r>
       <r>  -15.3553    1.0000 </r>
       <r>  -15.3373    1.0000 </r>
       <r>  -15.3358    1.0000 </r>
       <r>  -15.3348    1.0000 </r>
       <r>  -15.3344    1.0000 </r>
       <r>  -15.3131    1.0000 </r>
       <r>  -15.3121    1.0000 </r>
       <r>   -7.3106    1.0000 </r>
       <r>   -7.1826    1.0000 </r>
       <r>   -6.8015    1.0000 </r>
       <r>   -6.6700    1.0000 </r>
       <r>   -2.1175    1.0000 </r>
       <r>   -1.8148    1.0000 </r>
       <r>   -0.8414    1.0000 </r>
       <r>   -0.6859    1.0000 </r>
       <r>    1.4168    1.0000 </r>
       <r>    1.5582    1.0000 </r>
       <r>    2.1628    1.0000 </r>
       <r>    2.3130    1.0000 </r>
       <r>    2.5555    1.0000 </r>
       <r>    3.2739    1.0000 </r>
       <r>    3.6999    1.0000 </r>
       <r>    3.8814    1.0000 </r>
       <r>    4.1378    1.0000 </r>
       <r>    4.2132    1.0000 </r>
       <r>    4.9675    1.0000 </r>
       <r>    5.2032    1.0000 </r>
       <r>    7.4398    0.0000 </r>
       <r>    8.0022    0.0000 </r>
       <r>    8.2063    0.0000 </r>
       <r>    8.3762    0.0000 </r>
       <r>    8.9766    0.0000 </r>
       <r>    9.2126    0.0000 </r>
       <r>    9.4267    0.0000 </r>
       <r>    9.9329    0.0000 </r>
       <r>   10.4592    0.0000 </r>
       <r>   10.7842    0.0000 </r>
       <r>   11.1460    0.0000 </r>
       <r>   11.2867    0.0000 </r>
       <r>   12.1979    0.0000 </r>
       <r>   12.6563    0.0000 </r>
       <r>   13.2265    0.0000 </r>
       <r>   13.8125    0.0000 </r>
       <r>   14.0031    0.0000 </r>
       <r>   14.3801    0.0000 </r>
       <r>   14.9395    0.0000 </r>
       <r>   15.1246    0.0000 </r>
       <r>   15.4598    0.0000 </r>
       <r>   15.6058    0.0000 </r>
       <r>   16.5860    0.0000 </r>
       <r>   17.0065    0.0000 </r>
      </set>
      <set comment="kpoint 40">
       <r>  -15.4080    1.0000 </r>
       <r>  -15.4080    1.0000 </r>
       <r>  -15.4020    1.0000 </r>
       <r>  -15.4020    1.0000 </r>
       <r>  -15.3901    1.0000 </r>
       <r>  -15.3901    1.0000 </r>
       <r>  -15.3873    1.0000 </r>
       <r>  -15.3873    1.0000 </r>
       <r>  -15.3829    1.0000 </r>
       <r>  -15.3829    1.0000 </r>
       <r>  -15.3664    1.0000 </r>
       <r>  -15.3664    1.0000 </r>
       <r>  -15.3551    1.0000 </r>
       <r>  -15.3551    1.0000 </r>
       <r>  -15.3359    1.0000 </r>
       <r>  -15.3359    1.0000 </r>
       <r>  -15.3350    1.0000 </r>
       <r>  -15.3350    1.0000 </r>
       <r>  -15.3124    1.0000 </r>
       <r>  -15.3124    1.0000 </r>
       <r>   -7.0918    1.0000 </r>
       <r>   -7.0918    1.0000 </r>
       <r>   -6.8046    1.0000 </r>
       <r>   -6.8046    1.0000 </r>
       <r>   -2.0840    1.0000 </r>
       <r>   -2.0840    1.0000 </r>
       <r>   -0.8613    1.0000 </r>
       <r>   -0.8613    1.0000 </r>
       <r>    1.7784    1.0000 </r>
       <r>    1.7784    1.0000 </r>
       <r>    2.0079    1.0000 </r>
       <r>    2.0079    1.0000 </r>
       <r>    2.9428    1.0000 </r>
       <r>    2.9428    1.0000 </r>
       <r>    3.6542    1.0000 </r>
       <r>    3.6542    1.0000 </r>
       <r>    4.0286    1.0000 </r>
       <r>    4.0286    1.0000 </r>
       <r>    4.8169    1.0000 </r>
       <r>    4.8169    1.0000 </r>
       <r>    7.7748    0.0000 </r>
       <r>    7.7748    0.0000 </r>
       <r>    8.7689    0.0000 </r>
       <r>    8.7689    0.0000 </r>
       <r>    9.0301    0.0000 </r>
       <r>    9.0301    0.0000 </r>
       <r>    9.9009    0.0000 </r>
       <r>    9.9009    0.0000 </r>
       <r>   10.6427    0.0000 </r>
       <r>   10.6427    0.0000 </r>
       <r>   10.9699    0.0000 </r>
       <r>   10.9699    0.0000 </r>
       <r>   12.2894    0.0000 </r>
       <r>   12.2894    0.0000 </r>
       <r>   13.4949    0.0000 </r>
       <r>   13.4949    0.0000 </r>
       <r>   14.6903    0.0000 </r>
       <r>   14.6903    0.0000 </r>
       <r>   15.8816    0.0000 </r>
       <r>   15.8816    0.0000 </r>
       <r>   16.0262    0.0000 </r>
       <r>   16.0262    0.0000 </r>
       <r>   16.6287    0.0000 </r>
       <r>   16.6287    0.0000 </r>
      </set>
      <set comment="kpoint 41">
       <r>  -15.4023    1.0000 </r>
       <r>  -15.4006    1.0000 </r>
       <r>  -15.3972    1.0000 </r>
       <r>  -15.3951    1.0000 </r>
       <r>  -15.3894    1.0000 </r>
       <r>  -15.3894    1.0000 </r>
       <r>  -15.3886    1.0000 </r>
       <r>  -15.3884    1.0000 </r>
       <r>  -15.3863    1.0000 </r>
       <r>  -15.3821    1.0000 </r>
       <r>  -15.3706    1.0000 </r>
       <r>  -15.3676    1.0000 </r>
       <r>  -15.3589    1.0000 </r>
       <r>  -15.3560    1.0000 </r>
       <r>  -15.3417    1.0000 </r>
       <r>  -15.3410    1.0000 </r>
       <r>  -15.3317    1.0000 </r>
       <r>  -15.3283    1.0000 </r>
       <r>  -15.3165    1.0000 </r>
       <r>  -15.3157    1.0000 </r>
       <r>   -7.5262    1.0000 </r>
       <r>   -7.3894    1.0000 </r>
       <r>   -6.7874    1.0000 </r>
       <r>   -6.6649    1.0000 </r>
       <r>   -2.0089    1.0000 </r>
       <r>   -1.6472    1.0000 </r>
       <r>   -1.1492    1.0000 </r>
       <r>   -0.8532    1.0000 </r>
       <r>    1.7238    1.0000 </r>
       <r>    2.6708    1.0000 </r>
       <r>    2.8495    1.0000 </r>
       <r>    3.0854    1.0000 </r>
       <r>    3.2940    1.0000 </r>
       <r>    3.7217    1.0000 </r>
       <r>    3.9675    1.0000 </r>
       <r>    4.0277    1.0000 </r>
       <r>    4.3127    1.0000 </r>
       <r>    4.5043    1.0000 </r>
       <r>    5.3069    1.0000 </r>
       <r>    5.6072    1.0000 </r>
       <r>    6.5990    0.0000 </r>
       <r>    7.1222    0.0000 </r>
       <r>    7.8337    0.0000 </r>
       <r>    7.8707    0.0000 </r>
       <r>    8.3341    0.0000 </r>
       <r>    8.5498    0.0000 </r>
       <r>    8.5548    0.0000 </r>
       <r>    9.0983    0.0000 </r>
       <r>    9.3303    0.0000 </r>
       <r>    9.9435    0.0000 </r>
       <r>   10.0624    0.0000 </r>
       <r>   10.4821    0.0000 </r>
       <r>   12.4139    0.0000 </r>
       <r>   12.7561    0.0000 </r>
       <r>   12.7616    0.0000 </r>
       <r>   13.4075    0.0000 </r>
       <r>   13.8064    0.0000 </r>
       <r>   14.1207    0.0000 </r>
       <r>   14.4915    0.0000 </r>
       <r>   15.1057    0.0000 </r>
       <r>   15.1873    0.0000 </r>
       <r>   15.4066    0.0000 </r>
       <r>   16.3680    0.0000 </r>
       <r>   16.4869    0.0000 </r>
      </set>
      <set comment="kpoint 42">
       <r>  -15.4048    1.0000 </r>
       <r>  -15.4021    1.0000 </r>
       <r>  -15.3995    1.0000 </r>
       <r>  -15.3968    1.0000 </r>
       <r>  -15.3902    1.0000 </r>
       <r>  -15.3889    1.0000 </r>
       <r>  -15.3873    1.0000 </r>
       <r>  -15.3867    1.0000 </r>
       <r>  -15.3853    1.0000 </r>
       <r>  -15.3815    1.0000 </r>
       <r>  -15.3702    1.0000 </r>
       <r>  -15.3672    1.0000 </r>
       <r>  -15.3581    1.0000 </r>
       <r>  -15.3552    1.0000 </r>
       <r>  -15.3414    1.0000 </r>
       <r>  -15.3407    1.0000 </r>
       <r>  -15.3317    1.0000 </r>
       <r>  -15.3286    1.0000 </r>
       <r>  -15.3164    1.0000 </r>
       <r>  -15.3156    1.0000 </r>
       <r>   -7.4646    1.0000 </r>
       <r>   -7.3319    1.0000 </r>
       <r>   -6.7656    1.0000 </r>
       <r>   -6.6485    1.0000 </r>
       <r>   -1.9560    1.0000 </r>
       <r>   -1.5759    1.0000 </r>
       <r>   -1.1014    1.0000 </r>
       <r>   -0.8572    1.0000 </r>
       <r>    1.7127    1.0000 </r>
       <r>    1.9093    1.0000 </r>
       <r>    2.3653    1.0000 </r>
       <r>    2.8231    1.0000 </r>
       <r>    3.1529    1.0000 </r>
       <r>    3.4080    1.0000 </r>
       <r>    3.8743    1.0000 </r>
       <r>    4.2294    1.0000 </r>
       <r>    4.6038    1.0000 </r>
       <r>    4.6552    1.0000 </r>
       <r>    5.0664    1.0000 </r>
       <r>    5.1877    1.0000 </r>
       <r>    7.1376    0.0000 </r>
       <r>    7.2085    0.0000 </r>
       <r>    7.5578    0.0000 </r>
       <r>    7.7691    0.0000 </r>
       <r>    8.5175    0.0000 </r>
       <r>    8.8051    0.0000 </r>
       <r>    8.9371    0.0000 </r>
       <r>    9.3711    0.0000 </r>
       <r>    9.7512    0.0000 </r>
       <r>   10.2046    0.0000 </r>
       <r>   10.5357    0.0000 </r>
       <r>   10.7504    0.0000 </r>
       <r>   12.2659    0.0000 </r>
       <r>   12.8876    0.0000 </r>
       <r>   13.1929    0.0000 </r>
       <r>   13.5469    0.0000 </r>
       <r>   13.8639    0.0000 </r>
       <r>   13.9028    0.0000 </r>
       <r>   14.2914    0.0000 </r>
       <r>   14.9459    0.0000 </r>
       <r>   15.2987    0.0000 </r>
       <r>   15.4485    0.0000 </r>
       <r>   16.5078    0.0000 </r>
       <r>   16.6842    0.0000 </r>
      </set>
      <set comment="kpoint 43">
       <r>  -15.4097    1.0000 </r>
       <r>  -15.4066    1.0000 </r>
       <r>  -15.4037    1.0000 </r>
       <r>  -15.4012    1.0000 </r>
       <r>  -15.3906    1.0000 </r>
       <r>  -15.3893    1.0000 </r>
       <r>  -15.3845    1.0000 </r>
       <r>  -15.3841    1.0000 </r>
       <r>  -15.3830    1.0000 </r>
       <r>  -15.3803    1.0000 </r>
       <r>  -15.3695    1.0000 </r>
       <r>  -15.3667    1.0000 </r>
       <r>  -15.3553    1.0000 </r>
       <r>  -15.3531    1.0000 </r>
       <r>  -15.3404    1.0000 </r>
       <r>  -15.3397    1.0000 </r>
       <r>  -15.3318    1.0000 </r>
       <r>  -15.3293    1.0000 </r>
       <r>  -15.3159    1.0000 </r>
       <r>  -15.3153    1.0000 </r>
       <r>   -7.2966    1.0000 </r>
       <r>   -7.1764    1.0000 </r>
       <r>   -6.7231    1.0000 </r>
       <r>   -6.6202    1.0000 </r>
       <r>   -1.8432    1.0000 </r>
       <r>   -1.4442    1.0000 </r>
       <r>   -0.9775    1.0000 </r>
       <r>   -0.8608    1.0000 </r>
       <r>    1.1575    1.0000 </r>
       <r>    1.3662    1.0000 </r>
       <r>    2.1136    1.0000 </r>
       <r>    2.2375    1.0000 </r>
       <r>    2.4251    1.0000 </r>
       <r>    3.1045    1.0000 </r>
       <r>    3.6056    1.0000 </r>
       <r>    3.8508    1.0000 </r>
       <r>    3.9736    1.0000 </r>
       <r>    4.2980    1.0000 </r>
       <r>    4.7963    1.0000 </r>
       <r>    5.2145    1.0000 </r>
       <r>    7.3061    0.0000 </r>
       <r>    7.8817    0.0000 </r>
       <r>    8.2297    0.0000 </r>
       <r>    8.4258    0.0000 </r>
       <r>    8.7601    0.0000 </r>
       <r>    8.9516    0.0000 </r>
       <r>    9.7413    0.0000 </r>
       <r>   10.0062    0.0000 </r>
       <r>   10.2007    0.0000 </r>
       <r>   10.4798    0.0000 </r>
       <r>   11.4344    0.0000 </r>
       <r>   11.6642    0.0000 </r>
       <r>   12.1650    0.0000 </r>
       <r>   12.6622    0.0000 </r>
       <r>   13.3286    0.0000 </r>
       <r>   13.9482    0.0000 </r>
       <r>   14.1924    0.0000 </r>
       <r>   14.3012    0.0000 </r>
       <r>   14.6458    0.0000 </r>
       <r>   14.8930    0.0000 </r>
       <r>   15.4089    0.0000 </r>
       <r>   16.0045    0.0000 </r>
       <r>   16.1420    0.0000 </r>
       <r>   16.5268    0.0000 </r>
      </set>
      <set comment="kpoint 44">
       <r>  -15.4138    1.0000 </r>
       <r>  -15.4119    1.0000 </r>
       <r>  -15.4072    1.0000 </r>
       <r>  -15.4058    1.0000 </r>
       <r>  -15.3907    1.0000 </r>
       <r>  -15.3898    1.0000 </r>
       <r>  -15.3826    1.0000 </r>
       <r>  -15.3821    1.0000 </r>
       <r>  -15.3808    1.0000 </r>
       <r>  -15.3797    1.0000 </r>
       <r>  -15.3684    1.0000 </r>
       <r>  -15.3667    1.0000 </r>
       <r>  -15.3519    1.0000 </r>
       <r>  -15.3508    1.0000 </r>
       <r>  -15.3391    1.0000 </r>
       <r>  -15.3387    1.0000 </r>
       <r>  -15.3314    1.0000 </r>
       <r>  -15.3300    1.0000 </r>
       <r>  -15.3154    1.0000 </r>
       <r>  -15.3151    1.0000 </r>
       <r>   -7.0760    1.0000 </r>
       <r>   -6.9798    1.0000 </r>
       <r>   -6.7138    1.0000 </r>
       <r>   -6.6307    1.0000 </r>
       <r>   -1.7631    1.0000 </r>
       <r>   -1.5086    1.0000 </r>
       <r>   -0.7909    1.0000 </r>
       <r>   -0.7650    1.0000 </r>
       <r>    0.8611    1.0000 </r>
       <r>    1.0905    1.0000 </r>
       <r>    1.6613    1.0000 </r>
       <r>    1.8938    1.0000 </r>
       <r>    2.1959    1.0000 </r>
       <r>    2.6218    1.0000 </r>
       <r>    2.8410    1.0000 </r>
       <r>    3.4534    1.0000 </r>
       <r>    3.7092    1.0000 </r>
       <r>    4.0719    1.0000 </r>
       <r>    4.4452    1.0000 </r>
       <r>    4.7794    1.0000 </r>
       <r>    7.6051    0.0000 </r>
       <r>    8.2461    0.0000 </r>
       <r>    8.8584    0.0000 </r>
       <r>    9.0678    0.0000 </r>
       <r>    9.1590    0.0000 </r>
       <r>    9.5565    0.0000 </r>
       <r>   10.5486    0.0000 </r>
       <r>   10.6315    0.0000 </r>
       <r>   10.7494    0.0000 </r>
       <r>   10.9138    0.0000 </r>
       <r>   11.9188    0.0000 </r>
       <r>   11.9924    0.0000 </r>
       <r>   12.1294    0.0000 </r>
       <r>   12.3621    0.0000 </r>
       <r>   13.1459    0.0000 </r>
       <r>   13.4820    0.0000 </r>
       <r>   14.9836    0.0000 </r>
       <r>   15.3657    0.0000 </r>
       <r>   15.5171    0.0000 </r>
       <r>   15.5378    0.0000 </r>
       <r>   16.0144    0.0000 </r>
       <r>   16.1831    0.0000 </r>
       <r>   16.4158    0.0000 </r>
       <r>   16.7564    0.0000 </r>
      </set>
      <set comment="kpoint 45">
       <r>  -15.4148    1.0000 </r>
       <r>  -15.4148    1.0000 </r>
       <r>  -15.4082    1.0000 </r>
       <r>  -15.4082    1.0000 </r>
       <r>  -15.3904    1.0000 </r>
       <r>  -15.3904    1.0000 </r>
       <r>  -15.3817    1.0000 </r>
       <r>  -15.3817    1.0000 </r>
       <r>  -15.3798    1.0000 </r>
       <r>  -15.3798    1.0000 </r>
       <r>  -15.3673    1.0000 </r>
       <r>  -15.3673    1.0000 </r>
       <r>  -15.3502    1.0000 </r>
       <r>  -15.3502    1.0000 </r>
       <r>  -15.3384    1.0000 </r>
       <r>  -15.3384    1.0000 </r>
       <r>  -15.3306    1.0000 </r>
       <r>  -15.3306    1.0000 </r>
       <r>  -15.3151    1.0000 </r>
       <r>  -15.3151    1.0000 </r>
       <r>   -6.9050    1.0000 </r>
       <r>   -6.9050    1.0000 </r>
       <r>   -6.7056    1.0000 </r>
       <r>   -6.7056    1.0000 </r>
       <r>   -1.6762    1.0000 </r>
       <r>   -1.6762    1.0000 </r>
       <r>   -0.6883    1.0000 </r>
       <r>   -0.6883    1.0000 </r>
       <r>    1.0748    1.0000 </r>
       <r>    1.0748    1.0000 </r>
       <r>    1.3542    1.0000 </r>
       <r>    1.3542    1.0000 </r>
       <r>    2.3258    1.0000 </r>
       <r>    2.3258    1.0000 </r>
       <r>    2.9339    1.0000 </r>
       <r>    2.9339    1.0000 </r>
       <r>    3.7763    1.0000 </r>
       <r>    3.7763    1.0000 </r>
       <r>    4.5070    1.0000 </r>
       <r>    4.5070    1.0000 </r>
       <r>    7.8600    0.0000 </r>
       <r>    7.8600    0.0000 </r>
       <r>    9.1535    0.0000 </r>
       <r>    9.1535    0.0000 </r>
       <r>   10.1085    0.0000 </r>
       <r>   10.1085    0.0000 </r>
       <r>   10.3210    0.0000 </r>
       <r>   10.3210    0.0000 </r>
       <r>   11.4646    0.0000 </r>
       <r>   11.4646    0.0000 </r>
       <r>   11.8552    0.0000 </r>
       <r>   11.8552    0.0000 </r>
       <r>   12.2773    0.0000 </r>
       <r>   12.2773    0.0000 </r>
       <r>   13.2020    0.0000 </r>
       <r>   13.2020    0.0000 </r>
       <r>   15.1173    0.0000 </r>
       <r>   15.1173    0.0000 </r>
       <r>   16.3750    0.0000 </r>
       <r>   16.3750    0.0000 </r>
       <r>   16.6376    0.0000 </r>
       <r>   16.6376    0.0000 </r>
       <r>   17.1885    0.0000 </r>
       <r>   17.1885    0.0000 </r>
      </set>
      <set comment="kpoint 46">
       <r>  -15.4037    1.0000 </r>
       <r>  -15.4019    1.0000 </r>
       <r>  -15.4010    1.0000 </r>
       <r>  -15.3990    1.0000 </r>
       <r>  -15.3891    1.0000 </r>
       <r>  -15.3886    1.0000 </r>
       <r>  -15.3886    1.0000 </r>
       <r>  -15.3873    1.0000 </r>
       <r>  -15.3777    1.0000 </r>
       <r>  -15.3746    1.0000 </r>
       <r>  -15.3707    1.0000 </r>
       <r>  -15.3704    1.0000 </r>
       <r>  -15.3540    1.0000 </r>
       <r>  -15.3517    1.0000 </r>
       <r>  -15.3478    1.0000 </r>
       <r>  -15.3468    1.0000 </r>
       <r>  -15.3258    1.0000 </r>
       <r>  -15.3235    1.0000 </r>
       <r>  -15.3202    1.0000 </r>
       <r>  -15.3193    1.0000 </r>
       <r>   -7.1733    1.0000 </r>
       <r>   -7.0957    1.0000 </r>
       <r>   -6.8725    1.0000 </r>
       <r>   -6.8588    1.0000 </r>
       <r>   -2.0611    1.0000 </r>
       <r>   -1.7623    1.0000 </r>
       <r>   -1.6971    1.0000 </r>
       <r>   -1.4076    1.0000 </r>
       <r>    2.2407    1.0000 </r>
       <r>    2.7986    1.0000 </r>
       <r>    3.1722    1.0000 </r>
       <r>    3.4224    1.0000 </r>
       <r>    3.4231    1.0000 </r>
       <r>    3.8389    1.0000 </r>
       <r>    3.8538    1.0000 </r>
       <r>    3.8894    1.0000 </r>
       <r>    4.5567    1.0000 </r>
       <r>    4.7372    1.0000 </r>
       <r>    5.1117    1.0000 </r>
       <r>    5.2362    1.0000 </r>
       <r>    6.8291    0.0000 </r>
       <r>    7.0378    0.0000 </r>
       <r>    7.3345    0.0000 </r>
       <r>    7.5328    0.0000 </r>
       <r>    7.8311    0.0000 </r>
       <r>    8.0172    0.0000 </r>
       <r>    8.0195    0.0000 </r>
       <r>    8.3493    0.0000 </r>
       <r>    8.9627    0.0000 </r>
       <r>    9.3803    0.0000 </r>
       <r>   10.2052    0.0000 </r>
       <r>   10.3726    0.0000 </r>
       <r>   13.2215    0.0000 </r>
       <r>   13.5558    0.0000 </r>
       <r>   13.9539    0.0000 </r>
       <r>   14.0106    0.0000 </r>
       <r>   14.4516    0.0000 </r>
       <r>   14.5381    0.0000 </r>
       <r>   14.7344    0.0000 </r>
       <r>   15.1535    0.0000 </r>
       <r>   15.7843    0.0000 </r>
       <r>   15.7995    0.0000 </r>
       <r>   16.0359    0.0000 </r>
       <r>   16.3276    0.0000 </r>
      </set>
      <set comment="kpoint 47">
       <r>  -15.4062    1.0000 </r>
       <r>  -15.4045    1.0000 </r>
       <r>  -15.4028    1.0000 </r>
       <r>  -15.4010    1.0000 </r>
       <r>  -15.3890    1.0000 </r>
       <r>  -15.3888    1.0000 </r>
       <r>  -15.3871    1.0000 </r>
       <r>  -15.3865    1.0000 </r>
       <r>  -15.3768    1.0000 </r>
       <r>  -15.3743    1.0000 </r>
       <r>  -15.3706    1.0000 </r>
       <r>  -15.3701    1.0000 </r>
       <r>  -15.3530    1.0000 </r>
       <r>  -15.3511    1.0000 </r>
       <r>  -15.3469    1.0000 </r>
       <r>  -15.3461    1.0000 </r>
       <r>  -15.3259    1.0000 </r>
       <r>  -15.3238    1.0000 </r>
       <r>  -15.3200    1.0000 </r>
       <r>  -15.3192    1.0000 </r>
       <r>   -7.1238    1.0000 </r>
       <r>   -7.0496    1.0000 </r>
       <r>   -6.8402    1.0000 </r>
       <r>   -6.8260    1.0000 </r>
       <r>   -1.9660    1.0000 </r>
       <r>   -1.6784    1.0000 </r>
       <r>   -1.6029    1.0000 </r>
       <r>   -1.3458    1.0000 </r>
       <r>    2.1547    1.0000 </r>
       <r>    2.2974    1.0000 </r>
       <r>    2.6113    1.0000 </r>
       <r>    2.8727    1.0000 </r>
       <r>    3.0473    1.0000 </r>
       <r>    3.4568    1.0000 </r>
       <r>    3.6405    1.0000 </r>
       <r>    4.0211    1.0000 </r>
       <r>    4.4378    1.0000 </r>
       <r>    4.7298    1.0000 </r>
       <r>    4.7646    1.0000 </r>
       <r>    5.0300    1.0000 </r>
       <r>    7.1125    0.0000 </r>
       <r>    7.1727    0.0000 </r>
       <r>    7.3365    0.0000 </r>
       <r>    7.6012    0.0000 </r>
       <r>    8.4277    0.0000 </r>
       <r>    8.6903    0.0000 </r>
       <r>    8.8630    0.0000 </r>
       <r>    9.2367    0.0000 </r>
       <r>    9.3189    0.0000 </r>
       <r>    9.9270    0.0000 </r>
       <r>   10.2054    0.0000 </r>
       <r>   10.2932    0.0000 </r>
       <r>   12.4589    0.0000 </r>
       <r>   12.8401    0.0000 </r>
       <r>   13.8604    0.0000 </r>
       <r>   14.2667    0.0000 </r>
       <r>   14.6529    0.0000 </r>
       <r>   14.8557    0.0000 </r>
       <r>   14.9609    0.0000 </r>
       <r>   15.5110    0.0000 </r>
       <r>   15.8988    0.0000 </r>
       <r>   16.0112    0.0000 </r>
       <r>   16.4960    0.0000 </r>
       <r>   16.8068    0.0000 </r>
      </set>
      <set comment="kpoint 48">
       <r>  -15.4119    1.0000 </r>
       <r>  -15.4104    1.0000 </r>
       <r>  -15.4073    1.0000 </r>
       <r>  -15.4060    1.0000 </r>
       <r>  -15.3890    1.0000 </r>
       <r>  -15.3883    1.0000 </r>
       <r>  -15.3853    1.0000 </r>
       <r>  -15.3850    1.0000 </r>
       <r>  -15.3751    1.0000 </r>
       <r>  -15.3734    1.0000 </r>
       <r>  -15.3700    1.0000 </r>
       <r>  -15.3693    1.0000 </r>
       <r>  -15.3505    1.0000 </r>
       <r>  -15.3493    1.0000 </r>
       <r>  -15.3447    1.0000 </r>
       <r>  -15.3441    1.0000 </r>
       <r>  -15.3259    1.0000 </r>
       <r>  -15.3243    1.0000 </r>
       <r>  -15.3195    1.0000 </r>
       <r>  -15.3190    1.0000 </r>
       <r>   -6.9943    1.0000 </r>
       <r>   -6.9302    1.0000 </r>
       <r>   -6.7638    1.0000 </r>
       <r>   -6.7477    1.0000 </r>
       <r>   -1.7047    1.0000 </r>
       <r>   -1.4529    1.0000 </r>
       <r>   -1.3425    1.0000 </r>
       <r>   -1.1850    1.0000 </r>
       <r>    1.3642    1.0000 </r>
       <r>    1.6185    1.0000 </r>
       <r>    1.9200    1.0000 </r>
       <r>    2.1101    1.0000 </r>
       <r>    2.4667    1.0000 </r>
       <r>    2.9412    1.0000 </r>
       <r>    3.1277    1.0000 </r>
       <r>    3.5704    1.0000 </r>
       <r>    3.7569    1.0000 </r>
       <r>    4.1349    1.0000 </r>
       <r>    4.3921    1.0000 </r>
       <r>    4.7862    1.0000 </r>
       <r>    7.5349    0.0000 </r>
       <r>    7.9090    0.0000 </r>
       <r>    8.4595    0.0000 </r>
       <r>    8.7466    0.0000 </r>
       <r>    9.0893    0.0000 </r>
       <r>    9.1857    0.0000 </r>
       <r>    9.6475    0.0000 </r>
       <r>    9.7741    0.0000 </r>
       <r>   10.4013    0.0000 </r>
       <r>   10.6447    0.0000 </r>
       <r>   11.0346    0.0000 </r>
       <r>   11.3940    0.0000 </r>
       <r>   12.0873    0.0000 </r>
       <r>   12.2563    0.0000 </r>
       <r>   13.5132    0.0000 </r>
       <r>   13.6153    0.0000 </r>
       <r>   14.9379    0.0000 </r>
       <r>   15.2739    0.0000 </r>
       <r>   15.4251    0.0000 </r>
       <r>   16.0016    0.0000 </r>
       <r>   16.3527    0.0000 </r>
       <r>   16.5260    0.0000 </r>
       <r>   16.9285    0.0000 </r>
       <r>   17.2107    0.0000 </r>
      </set>
      <set comment="kpoint 49">
       <r>  -15.4170    1.0000 </r>
       <r>  -15.4162    1.0000 </r>
       <r>  -15.4117    1.0000 </r>
       <r>  -15.4110    1.0000 </r>
       <r>  -15.3890    1.0000 </r>
       <r>  -15.3883    1.0000 </r>
       <r>  -15.3842    1.0000 </r>
       <r>  -15.3838    1.0000 </r>
       <r>  -15.3735    1.0000 </r>
       <r>  -15.3727    1.0000 </r>
       <r>  -15.3692    1.0000 </r>
       <r>  -15.3686    1.0000 </r>
       <r>  -15.3477    1.0000 </r>
       <r>  -15.3471    1.0000 </r>
       <r>  -15.3423    1.0000 </r>
       <r>  -15.3420    1.0000 </r>
       <r>  -15.3256    1.0000 </r>
       <r>  -15.3247    1.0000 </r>
       <r>  -15.3190    1.0000 </r>
       <r>  -15.3188    1.0000 </r>
       <r>   -6.8398    1.0000 </r>
       <r>   -6.7935    1.0000 </r>
       <r>   -6.6968    1.0000 </r>
       <r>   -6.6776    1.0000 </r>
       <r>   -1.3855    1.0000 </r>
       <r>   -1.2243    1.0000 </r>
       <r>   -1.0138    1.0000 </r>
       <r>   -0.9440    1.0000 </r>
       <r>    0.7869    1.0000 </r>
       <r>    1.1357    1.0000 </r>
       <r>    1.1951    1.0000 </r>
       <r>    1.6192    1.0000 </r>
       <r>    1.8376    1.0000 </r>
       <r>    2.2142    1.0000 </r>
       <r>    2.3621    1.0000 </r>
       <r>    2.8466    1.0000 </r>
       <r>    3.6708    1.0000 </r>
       <r>    3.9840    1.0000 </r>
       <r>    4.3635    1.0000 </r>
       <r>    4.5304    1.0000 </r>
       <r>    7.8504    0.0000 </r>
       <r>    8.1786    0.0000 </r>
       <r>    8.5929    0.0000 </r>
       <r>    8.8927    0.0000 </r>
       <r>    9.9797    0.0000 </r>
       <r>   10.0307    0.0000 </r>
       <r>   10.4543    0.0000 </r>
       <r>   10.5788    0.0000 </r>
       <r>   11.5565    0.0000 </r>
       <r>   11.8166    0.0000 </r>
       <r>   12.1337    0.0000 </r>
       <r>   12.1549    0.0000 </r>
       <r>   12.2456    0.0000 </r>
       <r>   12.4942    0.0000 </r>
       <r>   13.1551    0.0000 </r>
       <r>   13.2842    0.0000 </r>
       <r>   15.1660    0.0000 </r>
       <r>   15.3747    0.0000 </r>
       <r>   16.1631    0.0000 </r>
       <r>   16.3652    0.0000 </r>
       <r>   16.8140    0.0000 </r>
       <r>   16.9296    0.0000 </r>
       <r>   17.1087    0.0000 </r>
       <r>   17.1562    0.0000 </r>
      </set>
      <set comment="kpoint 50">
       <r>  -15.4188    1.0000 </r>
       <r>  -15.4188    1.0000 </r>
       <r>  -15.4133    1.0000 </r>
       <r>  -15.4133    1.0000 </r>
       <r>  -15.3887    1.0000 </r>
       <r>  -15.3887    1.0000 </r>
       <r>  -15.3836    1.0000 </r>
       <r>  -15.3836    1.0000 </r>
       <r>  -15.3726    1.0000 </r>
       <r>  -15.3726    1.0000 </r>
       <r>  -15.3686    1.0000 </r>
       <r>  -15.3686    1.0000 </r>
       <r>  -15.3463    1.0000 </r>
       <r>  -15.3463    1.0000 </r>
       <r>  -15.3413    1.0000 </r>
       <r>  -15.3413    1.0000 </r>
       <r>  -15.3251    1.0000 </r>
       <r>  -15.3251    1.0000 </r>
       <r>  -15.3187    1.0000 </r>
       <r>  -15.3187    1.0000 </r>
       <r>   -6.7419    1.0000 </r>
       <r>   -6.7419    1.0000 </r>
       <r>   -6.6692    1.0000 </r>
       <r>   -6.6692    1.0000 </r>
       <r>   -1.2027    1.0000 </r>
       <r>   -1.2027    1.0000 </r>
       <r>   -0.7949    1.0000 </r>
       <r>   -0.7949    1.0000 </r>
       <r>    0.7425    1.0000 </r>
       <r>    0.7425    1.0000 </r>
       <r>    1.1629    1.0000 </r>
       <r>    1.1629    1.0000 </r>
       <r>    1.7343    1.0000 </r>
       <r>    1.7343    1.0000 </r>
       <r>    2.2699    1.0000 </r>
       <r>    2.2699    1.0000 </r>
       <r>    3.8754    1.0000 </r>
       <r>    3.8754    1.0000 </r>
       <r>    4.4068    1.0000 </r>
       <r>    4.4068    1.0000 </r>
       <r>    8.0389    0.0000 </r>
       <r>    8.0389    0.0000 </r>
       <r>    8.5850    0.0000 </r>
       <r>    8.5850    0.0000 </r>
       <r>   10.6314    0.0000 </r>
       <r>   10.6314    0.0000 </r>
       <r>   10.8099    0.0000 </r>
       <r>   10.8099    0.0000 </r>
       <r>   12.2083    0.0000 </r>
       <r>   12.2083    0.0000 </r>
       <r>   12.4889    0.0000 </r>
       <r>   12.4889    0.0000 </r>
       <r>   12.5995    0.0000 </r>
       <r>   12.5995    0.0000 </r>
       <r>   13.1755    0.0000 </r>
       <r>   13.1755    0.0000 </r>
       <r>   15.4357    0.0000 </r>
       <r>   15.4357    0.0000 </r>
       <r>   16.3641    0.0000 </r>
       <r>   16.3641    0.0000 </r>
       <r>   16.9467    0.0000 </r>
       <r>   16.9467    0.0000 </r>
       <r>   17.1584    0.0000 </r>
       <r>   17.1584    0.0000 </r>
      </set>
     </set>
    </set>
   </array>
  </eigenvalues>
  <separator name="orbital magnetization" >
   <v name="MAGDIPOLOUT">      0.00000000      0.00000000      0.00000000</v>
  </separator>
  <dos>
   <i name="efermi">      5.97032374 </i>
   <total>
    <array>
     <dimension dim="1">gridpoints</dimension>
     <dimension dim="2">spin</dimension>
     <field>energy</field>
     <field>total</field>
     <field>integrated</field>
     <set>
      <set comment="spin 1">
       <r>   -17.0823     0.0000     0.0000 </r>
       <r>   -16.9605     0.0000     0.0000 </r>
       <r>   -16.8387     0.0000     0.0000 </r>
       <r>   -16.7169     0.0000     0.0000 </r>
       <r>   -16.5951     0.0000     0.0000 </r>
       <r>   -16.4733     0.0000     0.0000 </r>
       <r>   -16.3515     0.0000     0.0000 </r>
       <r>   -16.2296     0.0000     0.0000 </r>
       <r>   -16.1078     0.0000     0.0000 </r>
       <r>   -15.9860     0.0000     0.0000 </r>
       <r>   -15.8642     0.0000     0.0000 </r>
       <r>   -15.7424     0.0000     0.0000 </r>
       <r>   -15.6206     0.0000     0.0000 </r>
       <r>   -15.4988     0.0000     0.0000 </r>
       <r>   -15.3770   155.2374    18.9096 </r>
       <r>   -15.2552    65.9038    40.0000 </r>
       <r>   -15.1334     0.0000    40.0000 </r>
       <r>   -15.0115     0.0000    40.0000 </r>
       <r>   -14.8897     0.0000    40.0000 </r>
       <r>   -14.7679     0.0000    40.0000 </r>
       <r>   -14.6461     0.0000    40.0000 </r>
       <r>   -14.5243     0.0000    40.0000 </r>
       <r>   -14.4025     0.0000    40.0000 </r>
       <r>   -14.2807     0.0000    40.0000 </r>
       <r>   -14.1589     0.0000    40.0000 </r>
       <r>   -14.0371     0.0000    40.0000 </r>
       <r>   -13.9152     0.0000    40.0000 </r>
       <r>   -13.7934     0.0000    40.0000 </r>
       <r>   -13.6716     0.0000    40.0000 </r>
       <r>   -13.5498     0.0000    40.0000 </r>
       <r>   -13.4280     0.0000    40.0000 </r>
       <r>   -13.3062     0.0000    40.0000 </r>
       <r>   -13.1844     0.0000    40.0000 </r>
       <r>   -13.0626     0.0000    40.0000 </r>
       <r>   -12.9408     0.0000    40.0000 </r>
       <r>   -12.8190     0.0000    40.0000 </r>
       <r>   -12.6971     0.0000    40.0000 </r>
       <r>   -12.5753     0.0000    40.0000 </r>
       <r>   -12.4535     0.0000    40.0000 </r>
       <r>   -12.3317     0.0000    40.0000 </r>
       <r>   -12.2099     0.0000    40.0000 </r>
       <r>   -12.0881     0.0000    40.0000 </r>
       <r>   -11.9663     0.0000    40.0000 </r>
       <r>   -11.8445     0.0000    40.0000 </r>
       <r>   -11.7227     0.0000    40.0000 </r>
       <r>   -11.6008     0.0000    40.0000 </r>
       <r>   -11.4790     0.0000    40.0000 </r>
       <r>   -11.3572     0.0000    40.0000 </r>
       <r>   -11.2354     0.0000    40.0000 </r>
       <r>   -11.1136     0.0000    40.0000 </r>
       <r>   -10.9918     0.0000    40.0000 </r>
       <r>   -10.8700     0.0000    40.0000 </r>
       <r>   -10.7482     0.0000    40.0000 </r>
       <r>   -10.6264     0.0000    40.0000 </r>
       <r>   -10.5046     0.0000    40.0000 </r>
       <r>   -10.3827     0.0000    40.0000 </r>
       <r>   -10.2609     0.0000    40.0000 </r>
       <r>   -10.1391     0.0000    40.0000 </r>
       <r>   -10.0173     0.0000    40.0000 </r>
       <r>    -9.8955     0.0000    40.0000 </r>
       <r>    -9.7737     0.0000    40.0000 </r>
       <r>    -9.6519     0.0000    40.0000 </r>
       <r>    -9.5301     0.0000    40.0000 </r>
       <r>    -9.4083     0.0000    40.0000 </r>
       <r>    -9.2864     0.0000    40.0000 </r>
       <r>    -9.1646     0.0000    40.0000 </r>
       <r>    -9.0428     0.0000    40.0000 </r>
       <r>    -8.9210     0.0000    40.0000 </r>
       <r>    -8.7992     0.0000    40.0000 </r>
       <r>    -8.6774     0.0000    40.0000 </r>
       <r>    -8.5556     0.0000    40.0000 </r>
       <r>    -8.4338     0.0000    40.0000 </r>
       <r>    -8.3120     0.0000    40.0000 </r>
       <r>    -8.1902     0.0019    40.0002 </r>
       <r>    -8.0683     0.4561    40.0648 </r>
       <r>    -7.9465     0.5987    40.2489 </r>
       <r>    -7.8247     1.6736    40.4724 </r>
       <r>    -7.7029     1.9806    40.7690 </r>
       <r>    -7.5811     2.3207    41.1160 </r>
       <r>    -7.4593     2.8845    41.5551 </r>
       <r>    -7.3375     1.4357    41.8601 </r>
       <r>    -7.2157     2.2793    42.4073 </r>
       <r>    -7.0939     2.2495    42.8851 </r>
       <r>    -6.9720     3.9443    43.6008 </r>
       <r>    -6.8502     7.9944    44.7238 </r>
       <r>    -6.7284     8.4477    46.1494 </r>
       <r>    -6.6066     7.7719    47.4930 </r>
       <r>    -6.4848     1.8920    47.9990 </r>
       <r>    -6.3630     0.0000    48.0000 </r>
       <r>    -6.2412     0.0000    48.0000 </r>
       <r>    -6.1194     0.0000    48.0000 </r>
       <r>    -5.9976     0.0000    48.0000 </r>
       <r>    -5.8758     0.0000    48.0000 </r>
       <r>    -5.7539     0.0000    48.0000 </r>
       <r>    -5.6321     0.0000    48.0000 </r>
       <r>    -5.5103     0.0000    48.0000 </r>
       <r>    -5.3885     0.0000    48.0000 </r>
       <r>    -5.2667     0.0000    48.0000 </r>
       <r>    -5.1449     0.0000    48.0000 </r>
       <r>    -5.0231     0.0000    48.0000 </r>
       <r>    -4.9013     0.0000    48.0000 </r>
       <r>    -4.7795     0.0000    48.0000 </r>
       <r>    -4.6576     0.0000    48.0000 </r>
       <r>    -4.5358     0.0000    48.0000 </r>
       <r>    -4.4140     0.0000    48.0000 </r>
       <r>    -4.2922     0.0000    48.0000 </r>
       <r>    -4.1704     0.0000    48.0000 </r>
       <r>    -4.0486     0.0000    48.0000 </r>
       <r>    -3.9268     0.0000    48.0000 </r>
       <r>    -3.8050     0.0000    48.0000 </r>
       <r>    -3.6832     0.0000    48.0000 </r>
       <r>    -3.5614     0.0000    48.0000 </r>
       <r>    -3.4395     0.0000    48.0000 </r>
       <r>    -3.3177     0.0000    48.0000 </r>
       <r>    -3.1959     0.0000    48.0000 </r>
       <r>    -3.0741     0.0000    48.0000 </r>
       <r>    -2.9523     0.0000    48.0000 </r>
       <r>    -2.8305     0.0000    48.0000 </r>
       <r>    -2.7087     0.0000    48.0000 </r>
       <r>    -2.5869     0.1328    48.0162 </r>
       <r>    -2.4651     0.4566    48.0741 </r>
       <r>    -2.3432     1.3859    48.3170 </r>
       <r>    -2.2214     0.6654    48.4144 </r>
       <r>    -2.0996     2.1774    48.7097 </r>
       <r>    -1.9778     1.8545    49.0963 </r>
       <r>    -1.8560     1.1620    49.4749 </r>
       <r>    -1.7342     1.9581    49.9422 </r>
       <r>    -1.6124     2.5503    50.4403 </r>
       <r>    -1.4906     1.9651    50.8875 </r>
       <r>    -1.3688     2.5004    51.3694 </r>
       <r>    -1.2470     0.6093    51.7131 </r>
       <r>    -1.1251     3.2696    52.2964 </r>
       <r>    -1.0033     2.6200    52.8099 </r>
       <r>    -0.8815     1.5253    53.2506 </r>
       <r>    -0.7597     3.2705    54.0743 </r>
       <r>    -0.6379     2.2196    54.5574 </r>
       <r>    -0.5161     1.6104    54.7980 </r>
       <r>    -0.3943     1.6433    55.0798 </r>
       <r>    -0.2725     1.3705    55.2873 </r>
       <r>    -0.1507     1.2073    55.4711 </r>
       <r>    -0.0288     0.3041    55.5370 </r>
       <r>     0.0930     0.5370    55.6024 </r>
       <r>     0.2148     0.0000    55.6574 </r>
       <r>     0.3366     1.2162    55.8056 </r>
       <r>     0.4584     0.7373    55.8954 </r>
       <r>     0.5802     0.3041    55.9907 </r>
       <r>     0.7020     0.0024    56.0281 </r>
       <r>     0.8238     0.9287    56.2705 </r>
       <r>     0.9456     0.5350    56.4541 </r>
       <r>     1.0674     1.0030    56.6500 </r>
       <r>     1.1893     2.7069    57.1168 </r>
       <r>     1.3111     2.1200    57.4897 </r>
       <r>     1.4329     4.4955    58.0939 </r>
       <r>     1.5547     2.1913    58.4799 </r>
       <r>     1.6765     1.8147    58.8785 </r>
       <r>     1.7983     2.5896    59.3062 </r>
       <r>     1.9201     3.3938    59.9412 </r>
       <r>     2.0419     2.5129    60.3709 </r>
       <r>     2.1637     3.5740    60.9631 </r>
       <r>     2.2856     5.0497    61.7725 </r>
       <r>     2.4074     3.4462    62.5031 </r>
       <r>     2.5292     2.3246    62.9869 </r>
       <r>     2.6510     4.5571    63.7218 </r>
       <r>     2.7728     1.3881    64.0580 </r>
       <r>     2.8946     3.8956    64.7153 </r>
       <r>     3.0164     4.2652    65.5381 </r>
       <r>     3.1382     3.0357    66.0735 </r>
       <r>     3.2600     3.1363    66.6598 </r>
       <r>     3.3818     3.7882    67.4059 </r>
       <r>     3.5037     5.6897    68.4431 </r>
       <r>     3.6255     4.0083    68.9790 </r>
       <r>     3.7473     4.1878    69.8157 </r>
       <r>     3.8691     2.9243    70.4395 </r>
       <r>     3.9909     4.3258    71.2954 </r>
       <r>     4.1127     5.3088    72.2578 </r>
       <r>     4.2345     2.6113    72.9107 </r>
       <r>     4.3563     4.0496    73.5396 </r>
       <r>     4.4781     2.8697    74.2107 </r>
       <r>     4.6000     1.9225    74.8175 </r>
       <r>     4.7218     2.0596    75.2509 </r>
       <r>     4.8436     5.2791    76.1986 </r>
       <r>     4.9654     2.3003    76.5580 </r>
       <r>     5.0872     4.1275    77.2805 </r>
       <r>     5.2090     4.2860    78.0128 </r>
       <r>     5.3308     5.5726    79.0214 </r>
       <r>     5.4526     4.4351    79.6514 </r>
       <r>     5.5744     0.6360    79.7627 </r>
       <r>     5.6963     0.6103    79.8892 </r>
       <r>     5.8181     0.1884    79.9489 </r>
       <r>     5.9399     0.1520    80.0000 </r>
       <r>     6.0617     0.0000    80.0000 </r>
       <r>     6.1835     0.0000    80.0000 </r>
       <r>     6.3053     0.0211    80.0026 </r>
       <r>     6.4271     0.3051    80.0835 </r>
       <r>     6.5489     0.6079    80.1759 </r>
       <r>     6.6707     1.1249    80.3129 </r>
       <r>     6.7925     1.3620    80.4900 </r>
       <r>     6.9144     1.4066    80.7176 </r>
       <r>     7.0362     0.5799    80.8577 </r>
       <r>     7.1580     3.5164    81.4376 </r>
       <r>     7.2798     2.8247    81.9459 </r>
       <r>     7.4016     2.5690    82.5629 </r>
       <r>     7.5234     1.5089    82.9523 </r>
       <r>     7.6452     3.6268    83.6177 </r>
       <r>     7.7670     1.7196    84.1076 </r>
       <r>     7.8888     4.3140    84.8681 </r>
       <r>     8.0107     1.1946    85.2844 </r>
       <r>     8.1325     0.4640    85.6954 </r>
       <r>     8.2543     5.2378    86.3695 </r>
       <r>     8.3761     2.8822    86.8603 </r>
       <r>     8.4979     4.3585    87.5031 </r>
       <r>     8.6197     2.9295    88.1439 </r>
       <r>     8.7415     2.9622    88.6849 </r>
       <r>     8.8633     3.5746    89.5188 </r>
       <r>     8.9851     5.0691    90.5341 </r>
       <r>     9.1069     5.5798    91.4575 </r>
       <r>     9.2288     4.2537    92.0367 </r>
       <r>     9.3506     5.1958    92.7347 </r>
       <r>     9.4724     3.4738    93.3306 </r>
       <r>     9.5942     1.8852    93.6556 </r>
       <r>     9.7160     2.1285    94.1111 </r>
       <r>     9.8378     2.0068    94.5037 </r>
       <r>     9.9596     5.1128    95.2154 </r>
       <r>    10.0814     3.5871    95.8629 </r>
       <r>    10.2032     3.0822    96.3291 </r>
       <r>    10.3251     4.3296    97.0366 </r>
       <r>    10.4469     3.7471    97.6694 </r>
       <r>    10.5687     2.4555    98.4102 </r>
       <r>    10.6905     4.1627    99.2015 </r>
       <r>    10.8123     5.0051    99.9523 </r>
       <r>    10.9341     2.9720   100.6768 </r>
       <r>    11.0559     4.7420   101.5221 </r>
       <r>    11.1777     1.7603   101.8996 </r>
       <r>    11.2995     1.9639   102.2207 </r>
       <r>    11.4213     2.8224   102.7049 </r>
       <r>    11.5432     2.7823   103.2741 </r>
       <r>    11.6650     2.0155   103.6807 </r>
       <r>    11.7868     2.6934   104.1522 </r>
       <r>    11.9086     2.1333   104.6302 </r>
       <r>    12.0304     2.9155   105.0959 </r>
       <r>    12.1522     4.3775   105.6721 </r>
       <r>    12.2740     5.1846   106.4926 </r>
       <r>    12.3958     1.9679   106.9156 </r>
       <r>    12.5176     2.6985   107.3750 </r>
       <r>    12.6395     2.2105   107.7044 </r>
       <r>    12.7613     3.5324   108.4025 </r>
       <r>    12.8831     2.2192   108.8351 </r>
       <r>    13.0049     3.3827   109.5139 </r>
       <r>    13.1267     2.2515   109.8576 </r>
       <r>    13.2485     4.2471   110.6007 </r>
       <r>    13.3703     2.2908   110.9920 </r>
       <r>    13.4921     1.8458   111.5119 </r>
       <r>    13.6139     2.6077   111.9936 </r>
       <r>    13.7357     1.0643   112.2408 </r>
       <r>    13.8576     2.3307   112.6913 </r>
       <r>    13.9794     4.7166   113.5930 </r>
       <r>    14.1012     1.8222   114.0738 </r>
       <r>    14.2230     4.2953   114.7454 </r>
       <r>    14.3448     4.0641   115.2543 </r>
       <r>    14.4666     1.9697   115.7399 </r>
       <r>    14.5884     2.7500   116.1498 </r>
       <r>    14.7102     4.7401   116.8274 </r>
       <r>    14.8320     1.6490   117.2564 </r>
       <r>    14.9539     3.9500   117.9626 </r>
       <r>    15.0757     1.0644   118.2408 </r>
       <r>    15.1975     3.6385   118.8321 </r>
       <r>    15.3193     5.1383   119.6629 </r>
       <r>    15.4411     5.5385   120.4895 </r>
       <r>    15.5629     4.5099   121.2345 </r>
       <r>    15.6847     2.0177   121.6902 </r>
       <r>    15.8065     4.6892   122.4601 </r>
       <r>    15.9283     3.1184   122.9169 </r>
       <r>    16.0501     5.6335   123.8529 </r>
       <r>    16.1720     2.8579   124.2740 </r>
       <r>    16.2938     1.9640   124.6281 </r>
       <r>    16.4156     4.2881   125.2075 </r>
       <r>    16.5374     3.2535   125.7482 </r>
       <r>    16.6592     2.8195   126.2694 </r>
       <r>    16.7810     1.4654   126.6415 </r>
       <r>    16.9028     0.9090   126.9255 </r>
       <r>    17.0246     2.1258   127.3330 </r>
       <r>    17.1464     0.9331   127.4840 </r>
       <r>    17.2683     1.2162   127.8519 </r>
       <r>    17.3901     0.0000   127.8889 </r>
       <r>    17.5119     0.0000   127.8889 </r>
       <r>    17.6337     0.3601   127.9327 </r>
       <r>    17.7555     0.0000   127.9630 </r>
       <r>    17.8773     0.3041   128.0000 </r>
       <r>    17.9991     0.0000   128.0000 </r>
       <r>    18.1209     0.0000   128.0000 </r>
       <r>    18.2427     0.0000   128.0000 </r>
       <r>    18.3645     0.0000   128.0000 </r>
       <r>    18.4864     0.0000   128.0000 </r>
       <r>    18.6082     0.0000   128.0000 </r>
       <r>    18.7300     0.0000   128.0000 </r>
       <r>    18.8518     0.0000   128.0000 </r>
       <r>    18.9736     0.0000   128.0000 </r>
       <r>    19.0954     0.0000   128.0000 </r>
       <r>    19.2172     0.0000   128.0000 </r>
       <r>    19.3390     0.0000   128.0000 </r>
       <r>    19.4608     0.0000   128.0000 </r>
      </set>
     </set>
    </array>
   </total>
  </dos>
 </calculation>
 <structure name="finalpos" >
  <crystal>
   <varray name="basis" >
    <v>       4.34539863       0.00000000       0.00000000 </v>
    <v>       0.00000000       4.11936655       0.00000000 </v>
    <v>       0.00000000       0.00000000      11.35478920 </v>
   </varray>
   <i name="volume">    203.25401695 </i>
   <varray name="rec_basis" >
    <v>       0.23012848       0.00000000       0.00000000 </v>
    <v>       0.00000000       0.24275577       0.00000000 </v>
    <v>       0.00000000       0.00000000       0.08806857 </v>
   </varray>
  </crystal>
  <varray name="positions" >
   <v>       0.09814158       0.25000000       0.11548645 </v>
   <v>       0.40185842       0.25000000       0.61548645 </v>
   <v>       0.59814158       0.75000000       0.38451355 </v>
   <v>       0.90185842       0.75000000       0.88451355 </v>
   <v>       0.02542773       0.25000000       0.35677710 </v>
   <v>       0.47457227       0.25000000       0.85677710 </v>
   <v>       0.52542773       0.75000000       0.14322290 </v>
   <v>       0.97457227       0.75000000       0.64322290 </v>
  </varray>
 </structure>
</modeling>
