<?xml version="1.0" encoding="ISO-8859-1"?>
<modeling>
 <generator>
  <i name="program" type="string">vasp </i>
  <i name="version" type="string">6.2.0  </i>
  <i name="subversion" type="string">18Jan21 (build Mar  1 2021 20:13:55) complex                          parallel </i>
  <i name="platform" type="string">HPECrayEX_GCC </i>
  <i name="date" type="string">2026 03 07 </i>
  <i name="time" type="string">08:10:33 </i>
 </generator>
 <incar>
  <i type="string" name="SYSTEM">Pnma SnSe</i>
  <i type="string" name="PREC">Accurate</i>
  <i type="string" name="ALGO">Normal</i>
  <i type="logical" name="ADDGRID"> T  </i>
  <i type="int" name="NELM">   250</i>
  <i type="int" name="NELMIN">     5</i>
  <i name="EDIFF">      0.00000001</i>
  <i type="int" name="NSW">     0</i>
  <i type="int" name="ISIF">     2</i>
  <i name="ENCUT">    700.00000000</i>
  <i type="logical" name="LREAL"> F  </i>
  <i type="int" name="ISMEAR">     0</i>
  <i name="SIGMA">      0.01000000</i>
  <i type="logical" name="LWAVE"> F  </i>
  <i type="logical" name="LCHARG"> F  </i>
  <i type="logical" name="LASPH"> T  </i>
  <i type="string" name="GGA">PS</i>
  <i type="logical" name="LEPSILON"> T  </i>
  <i type="int" name="IVDW">    11</i>
 </incar>
 <primitive_cell>
  <structure name="primitive_cell" >
   <crystal>
    <varray name="basis" >
     <v>       4.34539863       0.00000000       0.00000000 </v>
     <v>       0.00000000       4.11936655       0.00000000 </v>
     <v>       0.00000000       0.00000000      11.35478920 </v>
    </varray>
    <i name="volume">    203.25401695 </i>
    <varray name="rec_basis" >
     <v>       0.23012848       0.00000000       0.00000000 </v>
     <v>       0.00000000       0.24275577       0.00000000 </v>
     <v>       0.00000000       0.00000000       0.08806857 </v>
    </varray>
   </crystal>
   <varray name="positions" >
    <v>       0.09902309       0.25000000       0.11570512 </v>
    <v>       0.40097691       0.25000000       0.61570512 </v>
    <v>       0.59902309       0.75000000       0.38429488 </v>
    <v>       0.90097691       0.75000000       0.88429488 </v>
    <v>       0.02659283       0.25000000       0.35699926 </v>
    <v>       0.47340717       0.25000000       0.85699926 </v>
    <v>       0.52659283       0.75000000       0.14300074 </v>
    <v>       0.97340717       0.75000000       0.64300074 </v>
   </varray>
  </structure>
  <varray name="primitive_index" >
   <v type="int" >        1 </v>
   <v type="int" >        2 </v>
   <v type="int" >        3 </v>
   <v type="int" >        4 </v>
   <v type="int" >        5 </v>
   <v type="int" >        6 </v>
   <v type="int" >        7 </v>
   <v type="int" >        8 </v>
  </varray>
 </primitive_cell>
 <kpoints>
  <generation param="Gamma">
   <v type="int" name="divisions">       8        9        3 </v>
   <v name="usershift">      0.00000000       0.00000000       0.00000000 </v>
   <v name="genvec1">      0.12500000       0.00000000       0.00000000 </v>
   <v name="genvec2">      0.00000000       0.11111111       0.00000000 </v>
   <v name="genvec3">      0.00000000       0.00000000       0.33333333 </v>
   <v name="shift">      0.00000000       0.00000000       0.00000000 </v>
  </generation>
  <varray name="kpointlist" >
   <v>       0.00000000       0.00000000       0.00000000 </v>
   <v>       0.12500000       0.00000000       0.00000000 </v>
   <v>       0.25000000       0.00000000       0.00000000 </v>
   <v>       0.37500000       0.00000000       0.00000000 </v>
   <v>       0.50000000       0.00000000       0.00000000 </v>
   <v>       0.00000000       0.11111111       0.00000000 </v>
   <v>       0.12500000       0.11111111       0.00000000 </v>
   <v>       0.25000000       0.11111111       0.00000000 </v>
   <v>       0.37500000       0.11111111       0.00000000 </v>
   <v>       0.50000000       0.11111111       0.00000000 </v>
   <v>       0.00000000       0.22222222       0.00000000 </v>
   <v>       0.12500000       0.22222222       0.00000000 </v>
   <v>       0.25000000       0.22222222       0.00000000 </v>
   <v>       0.37500000       0.22222222       0.00000000 </v>
   <v>       0.50000000       0.22222222       0.00000000 </v>
   <v>       0.00000000       0.33333333       0.00000000 </v>
   <v>       0.12500000       0.33333333       0.00000000 </v>
   <v>       0.25000000       0.33333333       0.00000000 </v>
   <v>       0.37500000       0.33333333       0.00000000 </v>
   <v>       0.50000000       0.33333333       0.00000000 </v>
   <v>       0.00000000       0.44444444       0.00000000 </v>
   <v>       0.12500000       0.44444444       0.00000000 </v>
   <v>       0.25000000       0.44444444       0.00000000 </v>
   <v>       0.37500000       0.44444444       0.00000000 </v>
   <v>       0.50000000       0.44444444       0.00000000 </v>
   <v>       0.00000000       0.00000000       0.33333333 </v>
   <v>       0.12500000       0.00000000       0.33333333 </v>
   <v>       0.25000000       0.00000000       0.33333333 </v>
   <v>       0.37500000       0.00000000       0.33333333 </v>
   <v>       0.50000000       0.00000000       0.33333333 </v>
   <v>       0.00000000       0.11111111       0.33333333 </v>
   <v>       0.12500000       0.11111111       0.33333333 </v>
   <v>       0.25000000       0.11111111       0.33333333 </v>
   <v>       0.37500000       0.11111111       0.33333333 </v>
   <v>       0.50000000       0.11111111       0.33333333 </v>
   <v>       0.00000000       0.22222222       0.33333333 </v>
   <v>       0.12500000       0.22222222       0.33333333 </v>
   <v>       0.25000000       0.22222222       0.33333333 </v>
   <v>       0.37500000       0.22222222       0.33333333 </v>
   <v>       0.50000000       0.22222222       0.33333333 </v>
   <v>       0.00000000       0.33333333       0.33333333 </v>
   <v>       0.12500000       0.33333333       0.33333333 </v>
   <v>       0.25000000       0.33333333       0.33333333 </v>
   <v>       0.37500000       0.33333333       0.33333333 </v>
   <v>       0.50000000       0.33333333       0.33333333 </v>
   <v>       0.00000000       0.44444444       0.33333333 </v>
   <v>       0.12500000       0.44444444       0.33333333 </v>
   <v>       0.25000000       0.44444444       0.33333333 </v>
   <v>       0.37500000       0.44444444       0.33333333 </v>
   <v>       0.50000000       0.44444444       0.33333333 </v>
  </varray>
  <varray name="weights" >
   <v>       0.00462963 </v>
   <v>       0.00925926 </v>
   <v>       0.00925926 </v>
   <v>       0.00925926 </v>
   <v>       0.00462963 </v>
   <v>       0.00925926 </v>
   <v>       0.01851852 </v>
   <v>       0.01851852 </v>
   <v>       0.01851852 </v>
   <v>       0.00925926 </v>
   <v>       0.00925926 </v>
   <v>       0.01851852 </v>
   <v>       0.01851852 </v>
   <v>       0.01851852 </v>
   <v>       0.00925926 </v>
   <v>       0.00925926 </v>
   <v>       0.01851852 </v>
   <v>       0.01851852 </v>
   <v>       0.01851852 </v>
   <v>       0.00925926 </v>
   <v>       0.00925926 </v>
   <v>       0.01851852 </v>
   <v>       0.01851852 </v>
   <v>       0.01851852 </v>
   <v>       0.00925926 </v>
   <v>       0.00925926 </v>
   <v>       0.01851852 </v>
   <v>       0.01851852 </v>
   <v>       0.01851852 </v>
   <v>       0.00925926 </v>
   <v>       0.01851852 </v>
   <v>       0.03703704 </v>
   <v>       0.03703704 </v>
   <v>       0.03703704 </v>
   <v>       0.01851852 </v>
   <v>       0.01851852 </v>
   <v>       0.03703704 </v>
   <v>       0.03703704 </v>
   <v>       0.03703704 </v>
   <v>       0.01851852 </v>
   <v>       0.01851852 </v>
   <v>       0.03703704 </v>
   <v>       0.03703704 </v>
   <v>       0.03703704 </v>
   <v>       0.01851852 </v>
   <v>       0.01851852 </v>
   <v>       0.03703704 </v>
   <v>       0.03703704 </v>
   <v>       0.03703704 </v>
   <v>       0.01851852 </v>
  </varray>
 </kpoints>
 <parameters>
  <separator name="general" >
   <i type="string" name="SYSTEM">Pnma SnSe</i>
   <i type="logical" name="LCOMPAT"> F  </i>
  </separator>
  <separator name="electronic" >
   <i type="string" name="PREC">accura</i>
   <i name="ENMAX">    700.00000000</i>
   <i name="ENAUG">    446.84200000</i>
   <i name="EDIFF">      0.00000001</i>
   <i type="int" name="IALGO">    38</i>
   <i type="int" name="IWAVPR">    10</i>
   <i type="int" name="NBANDS">    64</i>
   <i type="int" name="NBANDSLOW">    -1</i>
   <i type="int" name="NBANDSHIGH">    -1</i>
   <i name="NELECT">     80.00000000</i>
   <i type="int" name="TURBO">     0</i>
   <i type="int" name="IRESTART">     0</i>
   <i type="int" name="NREBOOT">     0</i>
   <i type="int" name="NMIN">     0</i>
   <i name="EREF">      0.00000000</i>
   <separator name="electronic smearing" >
    <i type="int" name="ISMEAR">     0</i>
    <i name="SIGMA">      0.01000000</i>
    <i name="KSPACING">      0.50000000</i>
    <i type="logical" name="KGAMMA"> T  </i>
    <i type="logical" name="KBLOWUP"> T  </i>
   </separator>
   <separator name="electronic projectors" >
    <i type="logical" name="LREAL"> F  </i>
    <v name="ROPT">      0.00000000      0.00000000</v>
    <i type="int" name="LMAXPAW">  -100</i>
    <i type="int" name="LMAXMIX">     2</i>
    <i type="logical" name="NLSPLINE"> F  </i>
   </separator>
   <separator name="electronic startup" >
    <i type="int" name="ISTART">     0</i>
    <i type="int" name="ICHARG">     2</i>
    <i type="int" name="INIWAV">     1</i>
   </separator>
   <separator name="electronic spin" >
    <i type="int" name="ISPIN">     1</i>
    <i type="logical" name="LNONCOLLINEAR"> F  </i>
    <v name="MAGMOM">      1.00000000      1.00000000      1.00000000      1.00000000      1.00000000      1.00000000      1.00000000      1.00000000</v>
    <i name="NUPDOWN">     -1.00000000</i>
    <i type="logical" name="LSORBIT"> F  </i>
    <v name="SAXIS">      0.00000000      0.00000000      1.00000000</v>
    <i type="logical" name="LSPIRAL"> F  </i>
    <v name="QSPIRAL">      0.00000000      0.00000000      0.00000000</v>
    <i type="logical" name="LZEROZ"> F  </i>
   </separator>
   <separator name="electronic exchange-correlation" >
    <i type="logical" name="LASPH"> T  </i>
    <i type="logical" name="LMETAGGA"> F  </i>
   </separator>
   <separator name="electronic convergence" >
    <i type="int" name="NELM">   250</i>
    <i type="int" name="NELMDL">    -5</i>
    <i type="int" name="NELMIN">     5</i>
    <i name="ENINI">    700.00000000</i>
    <separator name="electronic convergence detail" >
     <i type="logical" name="LDIAG"> T  </i>
     <i type="logical" name="LSUBROT"> F  </i>
     <i name="WEIMIN">      0.00000000</i>
     <i name="EBREAK">      0.00000000</i>
     <i name="DEPER">      0.30000000</i>
     <i type="int" name="NRMM">     4</i>
     <i name="TIME">      0.40000000</i>
    </separator>
   </separator>
   <separator name="electronic mixer" >
    <i name="AMIX">      0.40000000</i>
    <i name="BMIX">      1.00000000</i>
    <i name="AMIN">      0.10000000</i>
    <i name="AMIX_MAG">      1.60000000</i>
    <i name="BMIX_MAG">      1.00000000</i>
    <separator name="electronic mixer details" >
     <i type="int" name="IMIX">     4</i>
     <i type="logical" name="MIXFIRST"> F  </i>
     <i type="int" name="MAXMIX">   -45</i>
     <i name="WC">    100.00000000</i>
     <i type="int" name="INIMIX">     1</i>
     <i type="int" name="MIXPRE">     1</i>
     <i type="int" name="MREMOVE">     5</i>
    </separator>
   </separator>
   <separator name="electronic dipolcorrection" >
    <i type="logical" name="LDIPOL"> F  </i>
    <i type="logical" name="LMONO"> F  </i>
    <i type="int" name="IDIPOL">     0</i>
    <i name="EPSILON">      1.00000000</i>
    <v name="DIPOL">   -100.00000000   -100.00000000   -100.00000000</v>
    <i name="EFIELD">      0.00000000</i>
   </separator>
  </separator>
  <separator name="grids" >
   <i type="int" name="NGX">    40</i>
   <i type="int" name="NGY">    36</i>
   <i type="int" name="NGZ">    98</i>
   <i type="int" name="NGXF">    80</i>
   <i type="int" name="NGYF">    72</i>
   <i type="int" name="NGZF">   196</i>
   <i type="logical" name="ADDGRID"> T  </i>
  </separator>
  <separator name="ionic" >
   <i type="int" name="NSW">     0</i>
   <i type="int" name="IBRION">    -1</i>
   <i type="int" name="MDALGO">     0</i>
   <i type="int" name="ISIF">     2</i>
   <i name="PSTRESS">      0.00000000</i>
   <i name="EDIFFG">      0.00000010</i>
   <i type="int" name="NFREE">     0</i>
   <i name="POTIM">      0.50000000</i>
   <i name="SMASS">     -3.00000000</i>
   <i name="SCALEE">      1.00000000</i>
  </separator>
  <separator name="ionic md" >
   <i name="TEBEG">      0.00010000</i>
   <i name="TEEND">      0.00010000</i>
   <i type="int" name="NBLOCK">     1</i>
   <i type="int" name="KBLOCK">     1</i>
   <i type="int" name="NPACO">   256</i>
   <i name="APACO">     16.00000000</i>
  </separator>
  <separator name="symmetry" >
   <i type="int" name="ISYM">     2</i>
   <i name="SYMPREC">      0.00001000</i>
  </separator>
  <separator name="dos" >
   <i type="int" name="LORBIT">     0</i>
   <v name="RWIGS">     -1.00000000     -1.00000000</v>
   <i type="int" name="NEDOS">   301</i>
   <i name="EMIN">     10.00000000</i>
   <i name="EMAX">    -10.00000000</i>
   <i name="EFERMI">      0.00000000</i>
  </separator>
  <separator name="writing" >
   <i type="int" name="NWRITE">     2</i>
   <i type="logical" name="LWAVE"> F  </i>
   <i type="logical" name="LDOWNSAMPLE"> F  </i>
   <i type="logical" name="LCHARG"> F  </i>
   <i type="logical" name="LPARD"> F  </i>
   <i type="logical" name="LVTOT"> F  </i>
   <i type="logical" name="LVHAR"> F  </i>
   <i type="logical" name="LELF"> F  </i>
   <i type="logical" name="LOPTICS"> F  </i>
   <v name="STM">      0.00000000      0.00000000      0.00000000      0.00000000      0.00000000      0.00000000      0.00000000</v>
  </separator>
  <separator name="performance" >
   <i type="int" name="NPAR">    32</i>
   <i type="int" name="NSIM">     4</i>
   <i type="int" name="NBLK">    -1</i>
   <i type="logical" name="LPLANE"> T  </i>
   <i type="logical" name="LSCALAPACK"> T  </i>
   <i type="logical" name="LSCAAWARE"> F  </i>
   <i type="logical" name="LSCALU"> F  </i>
   <i type="logical" name="LASYNC"> F  </i>
   <i type="logical" name="LORBITALREAL"> F  </i>
  </separator>
  <separator name="miscellaneous" >
   <i type="int" name="IDIOT">     3</i>
   <i type="int" name="PHON_NSTRUCT">    -1</i>
   <i type="logical" name="LMUSIC"> F  </i>
   <v name="POMASS">    118.71000000     78.96000000</v>
   <v name="DARWINR">      0.00000000      0.00000000</v>
   <v name="DARWINV">      1.00000000      1.00000000</v>
   <i type="logical" name="LCORR"> T  </i>
  </separator>
  <i type="logical" name="GGA_COMPAT"> T  </i>
  <i type="logical" name="LBERRY"> F  </i>
  <i type="int" name="ICORELEVEL">     0</i>
  <i type="logical" name="LDAU"> F  </i>
  <i type="int" name="I_CONSTRAINED_M">     0</i>
  <separator name="electronic exchange-correlation" >
   <i type="string" name="GGA">PS</i>
   <i type="int" name="VOSKOWN">     0</i>
   <i type="logical" name="LHFCALC"> F  </i>
   <i type="string" name="PRECFOCK"></i>
   <i type="logical" name="LSYMGRAD"> F  </i>
   <i type="logical" name="LHFONE"> F  </i>
   <i type="logical" name="LRHFCALC"> F  </i>
   <i type="logical" name="LTHOMAS"> F  </i>
   <i type="logical" name="LMODELHF"> F  </i>
   <i type="logical" name="LFOCKACE"> F  </i>
   <i name="ENCUT4O">     -1.00000000</i>
   <i type="int" name="EXXOEP">     0</i>
   <i type="int" name="FOURORBIT">     0</i>
   <i name="AEXX">      0.00000000</i>
   <i name="HFALPHA">      0.00000000</i>
   <i name="MCALPHA">      0.00000000</i>
   <i name="ALDAX">      1.00000000</i>
   <i name="AGGAX">      1.00000000</i>
   <i name="ALDAC">      1.00000000</i>
   <i name="AGGAC">      1.00000000</i>
   <i type="int" name="NKREDX">     1</i>
   <i type="int" name="NKREDY">     1</i>
   <i type="int" name="NKREDZ">     1</i>
   <i type="logical" name="SHIFTRED"> F  </i>
   <i type="logical" name="ODDONLY"> F  </i>
   <i type="logical" name="EVENONLY"> F  </i>
   <i type="int" name="LMAXFOCK">     0</i>
   <i type="int" name="NMAXFOCKAE">     0</i>
   <i type="logical" name="LFOCKAEDFT"> F  </i>
   <i name="HFSCREEN">      0.00000000</i>
   <i name="HFSCREENC">      0.00000000</i>
   <i type="int" name="NBANDSGWLOW">     0</i>
  </separator>
  <separator name="vdW DFT" >
   <i type="logical" name="LUSE_VDW"> F  </i>
   <i name="Zab_VDW">     -0.84910000</i>
   <i name="PARAM1">      0.12340000</i>
   <i name="PARAM2">      1.00000000</i>
   <i name="PARAM3">      0.00000000</i>
  </separator>
  <separator name="model GW" >
   <i type="int" name="MODEL_GW">     0</i>
   <i name="MODEL_EPS0">     15.24405127</i>
   <i name="MODEL_ALPHA">      1.00000000</i>
  </separator>
  <separator name="linear response parameters" >
   <i type="logical" name="LEPSILON"> T  </i>
   <i type="logical" name="LRPA"> F  </i>
   <i type="logical" name="LNABLA"> F  </i>
   <i type="logical" name="LVEL"> F  </i>
   <i type="int" name="KINTER">     0</i>
   <i name="CSHIFT">      0.10000000</i>
   <i name="OMEGAMAX">     -1.00000000</i>
   <i name="DEG_THRESHOLD">      0.00200000</i>
   <i name="RTIME">     -0.10000000</i>
   <i name="WPLASMAI">      0.00000000</i>
   <v name="DFIELD">      0.00000000      0.00000000      0.00000000</v>
   <v name="WPLASMA">      0.00000000      0.00000000      0.00000000      0.00000000      0.00000000      0.00000000      0.00000000      0.00000000      0.00000000</v>
  </separator>
  <separator name="orbital magnetization" >
   <i type="logical" name="NUCIND"> F  </i>
   <v name="MAGPOS">      0.00000000      0.00000000      0.00000000</v>
   <i type="logical" name="LNICSALL"> T  </i>
   <i type="logical" name="ORBITALMAG"> F  </i>
   <i type="logical" name="LMAGBLOCH"> F  </i>
   <i type="logical" name="LCHIMAG"> F  </i>
   <i type="logical" name="LGAUGE"> T  </i>
   <i type="int" name="MAGATOM">     0</i>
   <v name="MAGDIPOL">      0.00000000      0.00000000      0.00000000</v>
   <v name="AVECCONST">      0.00000000      0.00000000      0.00000000</v>
  </separator>
  <separator name="response functions" >
   <i type="logical" name="LFINITE_TEMPERATURE"> F  </i>
   <i type="logical" name="LADDER"> F  </i>
   <i type="logical" name="LRPAFORCE"> F  </i>
   <i type="logical" name="LFXC"> F  </i>
   <i type="logical" name="LHARTREE"> T  </i>
   <i type="int" name="IBSE">     0</i>
   <v type="int" name="KPOINT">    -1     0     0     0</v>
   <i type="logical" name="LTCTC"> F  </i>
   <i type="logical" name="LTCTE"> F  </i>
   <i type="logical" name="LTETE"> F  </i>
   <i type="logical" name="LTRIPLET"> F  </i>
   <i type="logical" name="LFXCEPS"> F  </i>
   <i type="logical" name="LFXHEG"> F  </i>
   <i type="int" name="NATURALO">     2</i>
   <i type="logical" name="LHOLEGF"> F  </i>
   <i type="logical" name="L2ORDER"> F  </i>
   <i type="logical" name="LDMP1"> F  </i>
   <i type="logical" name="LMP2LT"> F  </i>
   <i type="logical" name="LSMP2LT"> F  </i>
   <i type="logical" name="LGWLF"> F  </i>
   <i name="ENCUTGW">     -2.00000000</i>
   <i name="ENCUTGWSOFT">     -2.00000000</i>
   <i name="ENCUTLF">     -1.00000000</i>
   <i type="logical" name="LESF_SPLINES"> F  </i>
   <i type="int" name="LMAXMP2">    -1</i>
   <i name="SCISSOR">      0.00000000</i>
   <i type="int" name="NOMEGA">     0</i>
   <i type="int" name="NOMEGAR">     0</i>
   <i type="int" name="NBANDSGW">    -1</i>
   <i type="int" name="NBANDSO">    -1</i>
   <i type="int" name="NBANDSV">    -1</i>
   <i type="int" name="NELM">   250</i>
   <i type="int" name="NELMHF">     1</i>
   <i type="int" name="DIM">     3</i>
   <i type="int" name="IESPILON">     4</i>
   <i type="int" name="ANTIRES">     0</i>
   <i name="OMEGAMAX">    -30.00000000</i>
   <i name="OMEGAMIN">    -30.00000000</i>
   <i name="OMEGATL">   -200.00000000</i>
   <i type="int" name="OMEGAGRID">     0</i>
   <i name="CSHIFT">     -0.10000000</i>
   <i type="logical" name="LSELFENERGY"> F  </i>
   <i type="logical" name="LSPECTRAL"> F  </i>
   <i type="logical" name="LSPECTRALGW"> F  </i>
   <i type="logical" name="LSINGLES"> F  </i>
   <i type="logical" name="LFERMIGW"> F  </i>
   <i type="logical" name="ODDONLYGW"> F  </i>
   <i type="logical" name="EVENONLYGW"> F  </i>
   <i type="int" name="NKREDLFX">     1</i>
   <i type="int" name="NKREDLFY">     1</i>
   <i type="int" name="NKREDLFZ">     1</i>
   <i type="int" name="MAXMEM">  2800</i>
   <i type="int" name="TELESCOPE">     0</i>
   <i type="int" name="NTAUPAR">    -1</i>
   <i type="int" name="NOMEGAPAR">    -1</i>
   <i name="DAMP_NEWTON">      0.80000001</i>
   <i name="LAMBDA">      1.00000000</i>
  </separator>
  <separator name="External order field" >
   <i name="OFIELD_KAPPA">      0.00000000</i>
   <v name="OFIELD_K">      0.00000000      0.00000000      0.00000000</v>
   <i name="OFIELD_Q6_NEAR">      0.00000000</i>
   <i name="OFIELD_Q6_FAR">      0.00000000</i>
   <i name="OFIELD_A">      0.00000000</i>
  </separator>
 </parameters>
 <atominfo>
  <atoms>       8 </atoms>
  <types>       2 </types>
  <array name="atoms" >
   <dimension dim="1">ion</dimension>
   <field type="string">element</field>
   <field type="int">atomtype</field>
   <set>
    <rc><c>Sn</c><c>   1</c></rc>
    <rc><c>Sn</c><c>   1</c></rc>
    <rc><c>Sn</c><c>   1</c></rc>
    <rc><c>Sn</c><c>   1</c></rc>
    <rc><c>Se</c><c>   2</c></rc>
    <rc><c>Se</c><c>   2</c></rc>
    <rc><c>Se</c><c>   2</c></rc>
    <rc><c>Se</c><c>   2</c></rc>
   </set>
  </array>
  <array name="atomtypes" >
   <dimension dim="1">type</dimension>
   <field type="int">atomspertype</field>
   <field type="string">element</field>
   <field>mass</field>
   <field>valence</field>
   <field type="string">pseudopotential</field>
   <set>
    <rc><c>   4</c><c>Sn</c><c>    118.71000000</c><c>     14.00000000</c><c>  PAW_PBE Sn_d 06Sep2000                </c></rc>
    <rc><c>   4</c><c>Se</c><c>     78.96000000</c><c>      6.00000000</c><c>  PAW_PBE Se 06Sep2000                  </c></rc>
   </set>
  </array>
 </atominfo>
 <structure name="initialpos" >
  <crystal>
   <varray name="basis" >
    <v>       4.34539863       0.00000000       0.00000000 </v>
    <v>       0.00000000       4.11936655       0.00000000 </v>
    <v>       0.00000000       0.00000000      11.35478920 </v>
   </varray>
   <i name="volume">    203.25401695 </i>
   <varray name="rec_basis" >
    <v>       0.23012848       0.00000000       0.00000000 </v>
    <v>       0.00000000       0.24275577       0.00000000 </v>
    <v>       0.00000000       0.00000000       0.08806857 </v>
   </varray>
  </crystal>
  <varray name="positions" >
   <v>       0.09902309       0.25000000       0.11570512 </v>
   <v>       0.40097691       0.25000000       0.61570512 </v>
   <v>       0.59902309       0.75000000       0.38429488 </v>
   <v>       0.90097691       0.75000000       0.88429488 </v>
   <v>       0.02659283       0.25000000       0.35699926 </v>
   <v>       0.47340717       0.25000000       0.85699926 </v>
   <v>       0.52659283       0.75000000       0.14300074 </v>
   <v>       0.97340717       0.75000000       0.64300074 </v>
  </varray>
 </structure>
 <calculation>
  <scstep>
   <time name="dav">    1.36    0.69</time>
   <time name="total">    1.66    0.95</time>
   <energy>
    <i name="alphaZ">    217.43841536 </i>
    <i name="ewald">  -6083.22379627 </i>
    <i name="hartreedc">  -2321.64152005 </i>
    <i name="XCdc">    230.11154547 </i>
    <i name="pawpsdc">   7112.06264409 </i>
    <i name="pawaedc">  -7207.42447429 </i>
    <i name="eentropy">     -0.00012731 </i>
    <i name="bandstr">     37.37131630 </i>
    <i name="atom">   8598.20158228 </i>
    <i name="e_fr_energy">    582.89558556 </i>
    <i name="e_wo_entrp">    582.89571288 </i>
    <i name="e_0_energy">    582.89564922 </i>
   </energy>
  </scstep>
  <scstep>
   <time name="dav">    1.49    0.75</time>
   <time name="total">    1.49    0.75</time>
   <energy>
    <i name="e_fr_energy">     16.33345320 </i>
    <i name="e_wo_entrp">     16.33355999 </i>
    <i name="e_0_energy">     16.33350660 </i>
   </energy>
  </scstep>
  <scstep>
   <time name="dav">    2.00    1.00</time>
   <time name="total">    2.00    1.00</time>
   <energy>
    <i name="e_fr_energy">    -35.44953904 </i>
    <i name="e_wo_entrp">    -35.44953904 </i>
    <i name="e_0_energy">    -35.44953904 </i>
   </energy>
  </scstep>
  <scstep>
   <time name="dav">    1.80    0.90</time>
   <time name="total">    1.80    0.90</time>
   <energy>
    <i name="e_fr_energy">    -36.55574269 </i>
    <i name="e_wo_entrp">    -36.55574269 </i>
    <i name="e_0_energy">    -36.55574269 </i>
   </energy>
  </scstep>
  <scstep>
   <time name="dav">    2.22    1.11</time>
   <time name="total">    2.48    1.27</time>
   <energy>
    <i name="e_fr_energy">    -36.58358467 </i>
    <i name="e_wo_entrp">    -36.58358467 </i>
    <i name="e_0_energy">    -36.58358467 </i>
   </energy>
  </scstep>
  <scstep>
   <time name="dav">    2.48    1.25</time>
   <time name="total">    2.95    1.61</time>
   <energy>
    <i name="e_fr_energy">    -35.95405974 </i>
    <i name="e_wo_entrp">    -35.95405974 </i>
    <i name="e_0_energy">    -35.95405974 </i>
   </energy>
  </scstep>
  <scstep>
   <time name="dav">    2.04    1.02</time>
   <time name="total">    2.50    1.38</time>
   <energy>
    <i name="e_fr_energy">    -35.91942224 </i>
    <i name="e_wo_entrp">    -35.91942224 </i>
    <i name="e_0_energy">    -35.91942224 </i>
   </energy>
  </scstep>
  <scstep>
   <time name="dav">    1.92    0.96</time>
   <time name="total">    2.38    1.32</time>
   <energy>
    <i name="e_fr_energy">    -35.91440904 </i>
    <i name="e_wo_entrp">    -35.91440904 </i>
    <i name="e_0_energy">    -35.91440904 </i>
   </energy>
  </scstep>
  <scstep>
   <time name="dav">    2.08    1.05</time>
   <time name="total">    2.55    1.40</time>
   <energy>
    <i name="e_fr_energy">    -35.91444493 </i>
    <i name="e_wo_entrp">    -35.91444493 </i>
    <i name="e_0_energy">    -35.91444493 </i>
   </energy>
  </scstep>
  <scstep>
   <time name="dav">    1.95    0.98</time>
   <time name="total">    2.43    1.34</time>
   <energy>
    <i name="e_fr_energy">    -35.91444603 </i>
    <i name="e_wo_entrp">    -35.91444603 </i>
    <i name="e_0_energy">    -35.91444603 </i>
   </energy>
  </scstep>
  <scstep>
   <time name="dav">    2.04    1.02</time>
   <time name="total">    2.53    1.39</time>
   <energy>
    <i name="e_fr_energy">    -35.91445952 </i>
    <i name="e_wo_entrp">    -35.91445952 </i>
    <i name="e_0_energy">    -35.91445952 </i>
   </energy>
  </scstep>
  <scstep>
   <time name="dav">    1.95    1.00</time>
   <time name="total">    2.31    1.36</time>
   <energy>
    <i name="e_fr_energy">    -35.91445779 </i>
    <i name="e_wo_entrp">    -35.91445779 </i>
    <i name="e_0_energy">    -35.91445779 </i>
   </energy>
  </scstep>
  <scstep>
   <time name="dav">    2.10    1.05</time>
   <time name="total">    2.55    1.41</time>
   <energy>
    <i name="e_fr_energy">    -35.91445770 </i>
    <i name="e_wo_entrp">    -35.91445770 </i>
    <i name="e_0_energy">    -35.91445770 </i>
   </energy>
  </scstep>
  <scstep>
   <time name="dav">    1.95    0.98</time>
   <time name="total">    2.42    1.34</time>
   <energy>
    <i name="e_fr_energy">    -35.91445773 </i>
    <i name="e_wo_entrp">    -35.91445773 </i>
    <i name="e_0_energy">    -35.91445773 </i>
   </energy>
  </scstep>
  <scstep>
   <time name="dav">    1.72    0.87</time>
   <time name="total">    2.20    1.22</time>
   <energy>
    <i name="e_fr_energy">    -35.91445767 </i>
    <i name="e_wo_entrp">    -35.91445767 </i>
    <i name="e_0_energy">    -35.91445767 </i>
   </energy>
  </scstep>
  <scstep>
   <time name="dav">    1.41    0.71</time>
   <time name="total">    1.90    1.07</time>
   <energy>
    <i name="e_fr_energy">    -35.91445766 </i>
    <i name="e_wo_entrp">    -35.91445766 </i>
    <i name="e_0_energy">    -35.91445766 </i>
   </energy>
  </scstep>
  <scstep>
   <time name="dav">    1.36    0.69</time>
   <time name="total">    1.61    0.94</time>
   <energy>
    <i name="alphaZ">    217.43841536 </i>
    <i name="ewald">  -6083.22379627 </i>
    <i name="hartreedc">  -2303.42099491 </i>
    <i name="XCdc">    230.43049457 </i>
    <i name="pawpsdc">   8470.95610841 </i>
    <i name="pawaedc">  -8566.85202354 </i>
    <i name="eentropy">     -0.00000000 </i>
    <i name="bandstr">   -599.44424355 </i>
    <i name="atom">   8598.20158228 </i>
    <i name="e_fr_energy">    -35.91445766 </i>
    <i name="e_wo_entrp">    -35.91445766 </i>
    <i name="e_0_energy">    -35.91445766 </i>
   </energy>
  </scstep>
  <structure>
   <crystal>
    <varray name="basis" >
     <v>       4.34539863       0.00000000       0.00000000 </v>
     <v>       0.00000000       4.11936655       0.00000000 </v>
     <v>       0.00000000       0.00000000      11.35478920 </v>
    </varray>
    <i name="volume">    203.25401695 </i>
    <varray name="rec_basis" >
     <v>       0.23012848       0.00000000       0.00000000 </v>
     <v>       0.00000000       0.24275577       0.00000000 </v>
     <v>       0.00000000       0.00000000       0.08806857 </v>
    </varray>
   </crystal>
   <varray name="positions" >
    <v>       0.09902309       0.25000000       0.11570512 </v>
    <v>       0.40097691       0.25000000       0.61570512 </v>
    <v>       0.59902309       0.75000000       0.38429488 </v>
    <v>       0.90097691       0.75000000       0.88429488 </v>
    <v>       0.02659283       0.25000000       0.35699926 </v>
    <v>       0.47340717       0.25000000       0.85699926 </v>
    <v>       0.52659283       0.75000000       0.14300074 </v>
    <v>       0.97340717       0.75000000       0.64300074 </v>
   </varray>
  </structure>
  <varray name="forces" >
   <v>      -0.00741787       0.00000000      -0.00302510 </v>
   <v>       0.00741787       0.00000000      -0.00302510 </v>
   <v>      -0.00741787       0.00000000       0.00302510 </v>
   <v>       0.00741787      -0.00000000       0.00302510 </v>
   <v>      -0.00676088      -0.00000000      -0.00646306 </v>
   <v>       0.00676088       0.00000000      -0.00646306 </v>
   <v>      -0.00676088      -0.00000000       0.00646306 </v>
   <v>       0.00676088       0.00000000       0.00646306 </v>
  </varray>
  <varray name="stress" >
   <v>      -0.11201434       0.00000000       0.00000000 </v>
   <v>       0.00000000       0.06008443       0.00000000 </v>
   <v>       0.00000000       0.00000000      -0.31269533 </v>
  </varray>
  <energy>
   <i name="e_fr_energy">    -37.43183298 </i>
   <i name="e_wo_entrp">    -37.43183298 </i>
   <i name="e_0_energy">    -37.43183298 </i>
  </energy>
  <scstep>
   <time name="total">    0.98    0.49</time>
   <energy>
    <i name="e_fr_energy">   -132.63251768 </i>
    <i name="e_wo_entrp">   -132.63251768 </i>
    <i name="e_0_energy">   -132.63251768 </i>
   </energy>
  </scstep>
  <scstep>
   <time name="total">    1.30    0.66</time>
   <energy>
    <i name="e_fr_energy">   -259.13183319 </i>
    <i name="e_wo_entrp">   -259.13183319 </i>
    <i name="e_0_energy">   -259.13183319 </i>
   </energy>
  </scstep>
  <scstep>
   <time name="total">    1.33    0.70</time>
   <energy>
    <i name="e_fr_energy">   -259.95773361 </i>
    <i name="e_wo_entrp">   -259.95773361 </i>
    <i name="e_0_energy">   -259.95773361 </i>
   </energy>
  </scstep>
  <scstep>
   <time name="total">    1.12    0.60</time>
   <energy>
    <i name="e_fr_energy">   -260.10964219 </i>
    <i name="e_wo_entrp">   -260.10964219 </i>
    <i name="e_0_energy">   -260.10964219 </i>
   </energy>
  </scstep>
  <scstep>
   <time name="total">    1.13    0.60</time>
   <energy>
    <i name="e_fr_energy">   -260.11305694 </i>
    <i name="e_wo_entrp">   -260.11305694 </i>
    <i name="e_0_energy">   -260.11305694 </i>
   </energy>
  </scstep>
  <scstep>
   <time name="total">    1.16    0.60</time>
   <energy>
    <i name="e_fr_energy">   -260.11522129 </i>
    <i name="e_wo_entrp">   -260.11522129 </i>
    <i name="e_0_energy">   -260.11522129 </i>
   </energy>
  </scstep>
  <scstep>
   <time name="total">    1.21    0.61</time>
   <energy>
    <i name="e_fr_energy">   -260.11545058 </i>
    <i name="e_wo_entrp">   -260.11545058 </i>
    <i name="e_0_energy">   -260.11545058 </i>
   </energy>
  </scstep>
  <scstep>
   <time name="total">    1.22    0.61</time>
   <energy>
    <i name="e_fr_energy">   -260.11546852 </i>
    <i name="e_wo_entrp">   -260.11546852 </i>
    <i name="e_0_energy">   -260.11546852 </i>
   </energy>
  </scstep>
  <scstep>
   <time name="total">    1.23    0.61</time>
   <energy>
    <i name="e_fr_energy">   -260.11545869 </i>
    <i name="e_wo_entrp">   -260.11545869 </i>
    <i name="e_0_energy">   -260.11545869 </i>
   </energy>
  </scstep>
  <scstep>
   <time name="total">    1.25    0.63</time>
   <energy>
    <i name="e_fr_energy">   -260.11544093 </i>
    <i name="e_wo_entrp">   -260.11544093 </i>
    <i name="e_0_energy">   -260.11544093 </i>
   </energy>
  </scstep>
  <scstep>
   <time name="total">    1.22    0.62</time>
   <energy>
    <i name="e_fr_energy">   -260.11548338 </i>
    <i name="e_wo_entrp">   -260.11548338 </i>
    <i name="e_0_energy">   -260.11548338 </i>
   </energy>
  </scstep>
  <scstep>
   <time name="total">    1.17    0.59</time>
   <energy>
    <i name="e_fr_energy">   -260.11546262 </i>
    <i name="e_wo_entrp">   -260.11546262 </i>
    <i name="e_0_energy">   -260.11546262 </i>
   </energy>
  </scstep>
  <scstep>
   <time name="total">    1.16    0.58</time>
   <energy>
    <i name="e_fr_energy">   -260.11547494 </i>
    <i name="e_wo_entrp">   -260.11547494 </i>
    <i name="e_0_energy">   -260.11547494 </i>
   </energy>
  </scstep>
  <scstep>
   <time name="total">    0.93    0.47</time>
   <energy>
    <i name="e_fr_energy">   -129.90806888 </i>
    <i name="e_wo_entrp">   -129.90806888 </i>
    <i name="e_0_energy">   -129.90806888 </i>
   </energy>
  </scstep>
  <scstep>
   <time name="total">    1.31    0.68</time>
   <energy>
    <i name="e_fr_energy">   -259.02517608 </i>
    <i name="e_wo_entrp">   -259.02517608 </i>
    <i name="e_0_energy">   -259.02517608 </i>
   </energy>
  </scstep>
  <scstep>
   <time name="total">    1.30    0.69</time>
   <energy>
    <i name="e_fr_energy">   -259.84672603 </i>
    <i name="e_wo_entrp">   -259.84672603 </i>
    <i name="e_0_energy">   -259.84672603 </i>
   </energy>
  </scstep>
  <scstep>
   <time name="total">    1.09    0.57</time>
   <energy>
    <i name="e_fr_energy">   -259.98378978 </i>
    <i name="e_wo_entrp">   -259.98378978 </i>
    <i name="e_0_energy">   -259.98378978 </i>
   </energy>
  </scstep>
  <scstep>
   <time name="total">    1.14    0.59</time>
   <energy>
    <i name="e_fr_energy">   -259.99476286 </i>
    <i name="e_wo_entrp">   -259.99476286 </i>
    <i name="e_0_energy">   -259.99476286 </i>
   </energy>
  </scstep>
  <scstep>
   <time name="total">    1.20    0.60</time>
   <energy>
    <i name="e_fr_energy">   -259.99795652 </i>
    <i name="e_wo_entrp">   -259.99795652 </i>
    <i name="e_0_energy">   -259.99795652 </i>
   </energy>
  </scstep>
  <scstep>
   <time name="total">    1.24    0.62</time>
   <energy>
    <i name="e_fr_energy">   -259.99809665 </i>
    <i name="e_wo_entrp">   -259.99809665 </i>
    <i name="e_0_energy">   -259.99809665 </i>
   </energy>
  </scstep>
  <scstep>
   <time name="total">    1.20    0.60</time>
   <energy>
    <i name="e_fr_energy">   -259.99808557 </i>
    <i name="e_wo_entrp">   -259.99808557 </i>
    <i name="e_0_energy">   -259.99808557 </i>
   </energy>
  </scstep>
  <scstep>
   <time name="total">    1.22    0.61</time>
   <energy>
    <i name="e_fr_energy">   -259.99805191 </i>
    <i name="e_wo_entrp">   -259.99805191 </i>
    <i name="e_0_energy">   -259.99805191 </i>
   </energy>
  </scstep>
  <scstep>
   <time name="total">    1.19    0.60</time>
   <energy>
    <i name="e_fr_energy">   -259.99811312 </i>
    <i name="e_wo_entrp">   -259.99811312 </i>
    <i name="e_0_energy">   -259.99811312 </i>
   </energy>
  </scstep>
  <scstep>
   <time name="total">    1.17    0.58</time>
   <energy>
    <i name="e_fr_energy">   -259.99808913 </i>
    <i name="e_wo_entrp">   -259.99808913 </i>
    <i name="e_0_energy">   -259.99808913 </i>
   </energy>
  </scstep>
  <scstep>
   <time name="total">    1.13    0.57</time>
   <energy>
    <i name="e_fr_energy">   -259.99809142 </i>
    <i name="e_wo_entrp">   -259.99809142 </i>
    <i name="e_0_energy">   -259.99809142 </i>
   </energy>
  </scstep>
  <scstep>
   <time name="total">    1.11    0.56</time>
   <energy>
    <i name="e_fr_energy">   -259.99808324 </i>
    <i name="e_wo_entrp">   -259.99808324 </i>
    <i name="e_0_energy">   -259.99808324 </i>
   </energy>
  </scstep>
  <scstep>
   <time name="total">    0.93    0.47</time>
   <energy>
    <i name="e_fr_energy">   -129.68719364 </i>
    <i name="e_wo_entrp">   -129.68719364 </i>
    <i name="e_0_energy">   -129.68719364 </i>
   </energy>
  </scstep>
  <scstep>
   <time name="total">    1.30    0.68</time>
   <energy>
    <i name="e_fr_energy">   -263.68166370 </i>
    <i name="e_wo_entrp">   -263.68166370 </i>
    <i name="e_0_energy">   -263.68166370 </i>
   </energy>
  </scstep>
  <scstep>
   <time name="total">    1.29    0.69</time>
   <energy>
    <i name="e_fr_energy">   -264.69864173 </i>
    <i name="e_wo_entrp">   -264.69864173 </i>
    <i name="e_0_energy">   -264.69864173 </i>
   </energy>
  </scstep>
  <scstep>
   <time name="total">    1.10    0.58</time>
   <energy>
    <i name="e_fr_energy">   -264.99428490 </i>
    <i name="e_wo_entrp">   -264.99428490 </i>
    <i name="e_0_energy">   -264.99428490 </i>
   </energy>
  </scstep>
  <scstep>
   <time name="total">    1.13    0.61</time>
   <energy>
    <i name="e_fr_energy">   -264.99582951 </i>
    <i name="e_wo_entrp">   -264.99582951 </i>
    <i name="e_0_energy">   -264.99582951 </i>
   </energy>
  </scstep>
  <scstep>
   <time name="total">    1.16    0.61</time>
   <energy>
    <i name="e_fr_energy">   -264.99985526 </i>
    <i name="e_wo_entrp">   -264.99985526 </i>
    <i name="e_0_energy">   -264.99985526 </i>
   </energy>
  </scstep>
  <scstep>
   <time name="total">    1.23    0.62</time>
   <energy>
    <i name="e_fr_energy">   -265.00011152 </i>
    <i name="e_wo_entrp">   -265.00011152 </i>
    <i name="e_0_energy">   -265.00011152 </i>
   </energy>
  </scstep>
  <scstep>
   <time name="total">    1.24    0.62</time>
   <energy>
    <i name="e_fr_energy">   -265.00009752 </i>
    <i name="e_wo_entrp">   -265.00009752 </i>
    <i name="e_0_energy">   -265.00009752 </i>
   </energy>
  </scstep>
  <scstep>
   <time name="total">    1.23    0.62</time>
   <energy>
    <i name="e_fr_energy">   -265.00002610 </i>
    <i name="e_wo_entrp">   -265.00002610 </i>
    <i name="e_0_energy">   -265.00002610 </i>
   </energy>
  </scstep>
  <scstep>
   <time name="total">    1.23    0.62</time>
   <energy>
    <i name="e_fr_energy">   -265.00006280 </i>
    <i name="e_wo_entrp">   -265.00006280 </i>
    <i name="e_0_energy">   -265.00006280 </i>
   </energy>
  </scstep>
  <scstep>
   <time name="total">    1.20    0.60</time>
   <energy>
    <i name="e_fr_energy">   -265.00006818 </i>
    <i name="e_wo_entrp">   -265.00006818 </i>
    <i name="e_0_energy">   -265.00006818 </i>
   </energy>
  </scstep>
  <scstep>
   <time name="total">    1.13    0.57</time>
   <energy>
    <i name="e_fr_energy">   -265.00006392 </i>
    <i name="e_wo_entrp">   -265.00006392 </i>
    <i name="e_0_energy">   -265.00006392 </i>
   </energy>
  </scstep>
  <scstep>
   <time name="total">    1.15    0.58</time>
   <energy>
    <i name="e_fr_energy">   -265.00006664 </i>
    <i name="e_wo_entrp">   -265.00006664 </i>
    <i name="e_0_energy">   -265.00006664 </i>
   </energy>
  </scstep>
  <scstep>
   <time name="total">    1.60    1.09</time>
   <energy>
    <i name="e_fr_energy">     -2.37656077 </i>
    <i name="e_wo_entrp">     -2.37656077 </i>
    <i name="e_0_energy">     -2.37656077 </i>
   </energy>
  </scstep>
  <scstep>
   <time name="total">    2.01    1.25</time>
   <energy>
    <i name="e_fr_energy">    -13.97310951 </i>
    <i name="e_wo_entrp">    -13.97310951 </i>
    <i name="e_0_energy">    -13.97310951 </i>
   </energy>
  </scstep>
  <scstep>
   <time name="total">    2.04    1.27</time>
   <energy>
    <i name="e_fr_energy">    -14.04666078 </i>
    <i name="e_wo_entrp">    -14.04666078 </i>
    <i name="e_0_energy">    -14.04666078 </i>
   </energy>
  </scstep>
  <scstep>
   <time name="total">    2.04    1.27</time>
   <energy>
    <i name="e_fr_energy">    -14.04709423 </i>
    <i name="e_wo_entrp">    -14.04709423 </i>
    <i name="e_0_energy">    -14.04709423 </i>
   </energy>
  </scstep>
  <scstep>
   <time name="total">    2.03    1.27</time>
   <energy>
    <i name="e_fr_energy">    -14.04718464 </i>
    <i name="e_wo_entrp">    -14.04718464 </i>
    <i name="e_0_energy">    -14.04718464 </i>
   </energy>
  </scstep>
  <scstep>
   <time name="total">    2.03    1.25</time>
   <energy>
    <i name="e_fr_energy">    -14.04718862 </i>
    <i name="e_wo_entrp">    -14.04718862 </i>
    <i name="e_0_energy">    -14.04718862 </i>
   </energy>
  </scstep>
  <scstep>
   <time name="total">    2.11    1.27</time>
   <energy>
    <i name="e_fr_energy">    -14.04718990 </i>
    <i name="e_wo_entrp">    -14.04718990 </i>
    <i name="e_0_energy">    -14.04718990 </i>
   </energy>
  </scstep>
  <scstep>
   <time name="total">    2.09    1.26</time>
   <energy>
    <i name="e_fr_energy">    -14.04719000 </i>
    <i name="e_wo_entrp">    -14.04719000 </i>
    <i name="e_0_energy">    -14.04719000 </i>
   </energy>
  </scstep>
  <scstep>
   <time name="total">    2.11    1.27</time>
   <energy>
    <i name="e_fr_energy">    -14.04719003 </i>
    <i name="e_wo_entrp">    -14.04719003 </i>
    <i name="e_0_energy">    -14.04719003 </i>
   </energy>
  </scstep>
  <scstep>
   <time name="total">    2.08    1.25</time>
   <energy>
    <i name="e_fr_energy">    -14.04719003 </i>
    <i name="e_wo_entrp">    -14.04719003 </i>
    <i name="e_0_energy">    -14.04719003 </i>
   </energy>
  </scstep>
  <scstep>
   <time name="total">    1.98    1.20</time>
   <energy>
    <i name="e_fr_energy">    -14.04719002 </i>
    <i name="e_wo_entrp">    -14.04719002 </i>
    <i name="e_0_energy">    -14.04719002 </i>
   </energy>
  </scstep>
  <scstep>
   <time name="total">    1.57    1.07</time>
   <energy>
    <i name="e_fr_energy">     -3.85902737 </i>
    <i name="e_wo_entrp">     -3.85902737 </i>
    <i name="e_0_energy">     -3.85902737 </i>
   </energy>
  </scstep>
  <scstep>
   <time name="total">    2.02    1.25</time>
   <energy>
    <i name="e_fr_energy">    -16.96747084 </i>
    <i name="e_wo_entrp">    -16.96747084 </i>
    <i name="e_0_energy">    -16.96747084 </i>
   </energy>
  </scstep>
  <scstep>
   <time name="total">    2.03    1.26</time>
   <energy>
    <i name="e_fr_energy">    -17.05366639 </i>
    <i name="e_wo_entrp">    -17.05366639 </i>
    <i name="e_0_energy">    -17.05366639 </i>
   </energy>
  </scstep>
  <scstep>
   <time name="total">    2.03    1.26</time>
   <energy>
    <i name="e_fr_energy">    -17.05410241 </i>
    <i name="e_wo_entrp">    -17.05410241 </i>
    <i name="e_0_energy">    -17.05410241 </i>
   </energy>
  </scstep>
  <scstep>
   <time name="total">    2.05    1.27</time>
   <energy>
    <i name="e_fr_energy">    -17.05418024 </i>
    <i name="e_wo_entrp">    -17.05418024 </i>
    <i name="e_0_energy">    -17.05418024 </i>
   </energy>
  </scstep>
  <scstep>
   <time name="total">    2.04    1.27</time>
   <energy>
    <i name="e_fr_energy">    -17.05418352 </i>
    <i name="e_wo_entrp">    -17.05418352 </i>
    <i name="e_0_energy">    -17.05418352 </i>
   </energy>
  </scstep>
  <scstep>
   <time name="total">    2.07    1.29</time>
   <energy>
    <i name="e_fr_energy">    -17.05418483 </i>
    <i name="e_wo_entrp">    -17.05418483 </i>
    <i name="e_0_energy">    -17.05418483 </i>
   </energy>
  </scstep>
  <scstep>
   <time name="total">    2.06    1.25</time>
   <energy>
    <i name="e_fr_energy">    -17.05418493 </i>
    <i name="e_wo_entrp">    -17.05418493 </i>
    <i name="e_0_energy">    -17.05418493 </i>
   </energy>
  </scstep>
  <scstep>
   <time name="total">    2.07    1.25</time>
   <energy>
    <i name="e_fr_energy">    -17.05418495 </i>
    <i name="e_wo_entrp">    -17.05418495 </i>
    <i name="e_0_energy">    -17.05418495 </i>
   </energy>
  </scstep>
  <scstep>
   <time name="total">    2.01    1.22</time>
   <energy>
    <i name="e_fr_energy">    -17.05418495 </i>
    <i name="e_wo_entrp">    -17.05418495 </i>
    <i name="e_0_energy">    -17.05418495 </i>
   </energy>
  </scstep>
  <scstep>
   <time name="total">    1.98    1.20</time>
   <energy>
    <i name="e_fr_energy">    -17.05418495 </i>
    <i name="e_wo_entrp">    -17.05418495 </i>
    <i name="e_0_energy">    -17.05418495 </i>
   </energy>
  </scstep>
  <scstep>
   <time name="total">    1.93    1.18</time>
   <energy>
    <i name="e_fr_energy">    -17.05418495 </i>
    <i name="e_wo_entrp">    -17.05418495 </i>
    <i name="e_0_energy">    -17.05418495 </i>
   </energy>
  </scstep>
  <scstep>
   <time name="total">    1.92    1.17</time>
   <energy>
    <i name="e_fr_energy">    -17.05418495 </i>
    <i name="e_wo_entrp">    -17.05418495 </i>
    <i name="e_0_energy">    -17.05418495 </i>
   </energy>
  </scstep>
  <scstep>
   <time name="total">    1.92    1.17</time>
   <energy>
    <i name="e_fr_energy">    -17.05418495 </i>
    <i name="e_wo_entrp">    -17.05418495 </i>
    <i name="e_0_energy">    -17.05418495 </i>
   </energy>
  </scstep>
  <scstep>
   <time name="total">    1.96    1.19</time>
   <energy>
    <i name="e_fr_energy">    -17.05418495 </i>
    <i name="e_wo_entrp">    -17.05418495 </i>
    <i name="e_0_energy">    -17.05418495 </i>
   </energy>
  </scstep>
  <scstep>
   <time name="total">    1.96    1.19</time>
   <energy>
    <i name="e_fr_energy">    -17.05418495 </i>
    <i name="e_wo_entrp">    -17.05418495 </i>
    <i name="e_0_energy">    -17.05418495 </i>
   </energy>
  </scstep>
  <scstep>
   <time name="total">    1.60    1.09</time>
   <energy>
    <i name="e_fr_energy">     -4.15271765 </i>
    <i name="e_wo_entrp">     -4.15271765 </i>
    <i name="e_0_energy">     -4.15271765 </i>
   </energy>
  </scstep>
  <scstep>
   <time name="total">    2.01    1.25</time>
   <energy>
    <i name="e_fr_energy">    -15.57985062 </i>
    <i name="e_wo_entrp">    -15.57985062 </i>
    <i name="e_0_energy">    -15.57985062 </i>
   </energy>
  </scstep>
  <scstep>
   <time name="total">    2.02    1.25</time>
   <energy>
    <i name="e_fr_energy">    -15.64358138 </i>
    <i name="e_wo_entrp">    -15.64358138 </i>
    <i name="e_0_energy">    -15.64358138 </i>
   </energy>
  </scstep>
  <scstep>
   <time name="total">    2.04    1.27</time>
   <energy>
    <i name="e_fr_energy">    -15.64398737 </i>
    <i name="e_wo_entrp">    -15.64398737 </i>
    <i name="e_0_energy">    -15.64398737 </i>
   </energy>
  </scstep>
  <scstep>
   <time name="total">    2.02    1.25</time>
   <energy>
    <i name="e_fr_energy">    -15.64408667 </i>
    <i name="e_wo_entrp">    -15.64408667 </i>
    <i name="e_0_energy">    -15.64408667 </i>
   </energy>
  </scstep>
  <scstep>
   <time name="total">    2.04    1.27</time>
   <energy>
    <i name="e_fr_energy">    -15.64409046 </i>
    <i name="e_wo_entrp">    -15.64409046 </i>
    <i name="e_0_energy">    -15.64409046 </i>
   </energy>
  </scstep>
  <scstep>
   <time name="total">    2.08    1.27</time>
   <energy>
    <i name="e_fr_energy">    -15.64409214 </i>
    <i name="e_wo_entrp">    -15.64409214 </i>
    <i name="e_0_energy">    -15.64409214 </i>
   </energy>
  </scstep>
  <scstep>
   <time name="total">    2.09    1.26</time>
   <energy>
    <i name="e_fr_energy">    -15.64409224 </i>
    <i name="e_wo_entrp">    -15.64409224 </i>
    <i name="e_0_energy">    -15.64409224 </i>
   </energy>
  </scstep>
  <scstep>
   <time name="total">    2.07    1.25</time>
   <energy>
    <i name="e_fr_energy">    -15.64409227 </i>
    <i name="e_wo_entrp">    -15.64409227 </i>
    <i name="e_0_energy">    -15.64409227 </i>
   </energy>
  </scstep>
  <scstep>
   <time name="total">    2.02    1.22</time>
   <energy>
    <i name="e_fr_energy">    -15.64409228 </i>
    <i name="e_wo_entrp">    -15.64409228 </i>
    <i name="e_0_energy">    -15.64409228 </i>
   </energy>
  </scstep>
  <scstep>
   <time name="total">    2.07    1.25</time>
   <energy>
    <i name="e_fr_energy">    -15.64409228 </i>
    <i name="e_wo_entrp">    -15.64409228 </i>
    <i name="e_0_energy">    -15.64409228 </i>
   </energy>
  </scstep>
  <scstep>
   <time name="total">    1.96    1.19</time>
   <energy>
    <i name="e_fr_energy">    -15.64409227 </i>
    <i name="e_wo_entrp">    -15.64409227 </i>
    <i name="e_0_energy">    -15.64409227 </i>
   </energy>
  </scstep>
  <scstep>
   <time name="total">    1.97    1.20</time>
   <energy>
    <i name="e_fr_energy">    -15.64409227 </i>
    <i name="e_wo_entrp">    -15.64409227 </i>
    <i name="e_0_energy">    -15.64409227 </i>
   </energy>
  </scstep>
  <varray name="dielectric_ipa" >
   <v>      26.01187621       0.00000000       0.00000000 </v>
   <v>      -0.00000000      31.36601233       0.00000000 </v>
   <v>       0.00000000       0.00000000      28.85525609 </v>
  </varray>
  <kpoints>
   <generation param="Gamma">
    <v type="int" name="divisions">       8        9        3 </v>
    <v name="usershift">      0.00000000       0.00000000       0.00000000 </v>
    <v name="genvec1">      0.12500000       0.00000000       0.00000000 </v>
    <v name="genvec2">      0.00000000       0.11111111       0.00000000 </v>
    <v name="genvec3">      0.00000000       0.00000000       0.33333333 </v>
    <v name="shift">      0.00000000       0.00000000       0.00000000 </v>
   </generation>
   <varray name="kpointlist" >
    <v>       0.00000000       0.00000000       0.00000000 </v>
    <v>       0.12500000       0.00000000       0.00000000 </v>
    <v>       0.25000000       0.00000000       0.00000000 </v>
    <v>       0.37500000       0.00000000       0.00000000 </v>
    <v>       0.50000000       0.00000000       0.00000000 </v>
    <v>       0.00000000       0.11111111       0.00000000 </v>
    <v>       0.12500000       0.11111111       0.00000000 </v>
    <v>       0.25000000       0.11111111       0.00000000 </v>
    <v>       0.37500000       0.11111111       0.00000000 </v>
    <v>       0.50000000       0.11111111       0.00000000 </v>
    <v>       0.00000000       0.22222222       0.00000000 </v>
    <v>       0.12500000       0.22222222       0.00000000 </v>
    <v>       0.25000000       0.22222222       0.00000000 </v>
    <v>       0.37500000       0.22222222       0.00000000 </v>
    <v>       0.50000000       0.22222222       0.00000000 </v>
    <v>       0.00000000       0.33333333       0.00000000 </v>
    <v>       0.12500000       0.33333333       0.00000000 </v>
    <v>       0.25000000       0.33333333       0.00000000 </v>
    <v>       0.37500000       0.33333333       0.00000000 </v>
    <v>       0.50000000       0.33333333       0.00000000 </v>
    <v>       0.00000000       0.44444444       0.00000000 </v>
    <v>       0.12500000       0.44444444       0.00000000 </v>
    <v>       0.25000000       0.44444444       0.00000000 </v>
    <v>       0.37500000       0.44444444       0.00000000 </v>
    <v>       0.50000000       0.44444444       0.00000000 </v>
    <v>       0.00000000       0.00000000       0.33333333 </v>
    <v>       0.12500000       0.00000000       0.33333333 </v>
    <v>       0.25000000       0.00000000       0.33333333 </v>
    <v>       0.37500000       0.00000000       0.33333333 </v>
    <v>       0.50000000       0.00000000       0.33333333 </v>
    <v>       0.00000000       0.11111111       0.33333333 </v>
    <v>       0.12500000       0.11111111       0.33333333 </v>
    <v>       0.25000000       0.11111111       0.33333333 </v>
    <v>       0.37500000       0.11111111       0.33333333 </v>
    <v>       0.50000000       0.11111111       0.33333333 </v>
    <v>       0.00000000       0.22222222       0.33333333 </v>
    <v>       0.12500000       0.22222222       0.33333333 </v>
    <v>       0.25000000       0.22222222       0.33333333 </v>
    <v>       0.37500000       0.22222222       0.33333333 </v>
    <v>       0.50000000       0.22222222       0.33333333 </v>
    <v>       0.00000000       0.33333333       0.33333333 </v>
    <v>       0.12500000       0.33333333       0.33333333 </v>
    <v>       0.25000000       0.33333333       0.33333333 </v>
    <v>       0.37500000       0.33333333       0.33333333 </v>
    <v>       0.50000000       0.33333333       0.33333333 </v>
    <v>       0.00000000       0.44444444       0.33333333 </v>
    <v>       0.12500000       0.44444444       0.33333333 </v>
    <v>       0.25000000       0.44444444       0.33333333 </v>
    <v>       0.37500000       0.44444444       0.33333333 </v>
    <v>       0.50000000       0.44444444       0.33333333 </v>
   </varray>
   <varray name="weights" >
    <v>       0.00462963 </v>
    <v>       0.00925926 </v>
    <v>       0.00925926 </v>
    <v>       0.00925926 </v>
    <v>       0.00462963 </v>
    <v>       0.00925926 </v>
    <v>       0.01851852 </v>
    <v>       0.01851852 </v>
    <v>       0.01851852 </v>
    <v>       0.00925926 </v>
    <v>       0.00925926 </v>
    <v>       0.01851852 </v>
    <v>       0.01851852 </v>
    <v>       0.01851852 </v>
    <v>       0.00925926 </v>
    <v>       0.00925926 </v>
    <v>       0.01851852 </v>
    <v>       0.01851852 </v>
    <v>       0.01851852 </v>
    <v>       0.00925926 </v>
    <v>       0.00925926 </v>
    <v>       0.01851852 </v>
    <v>       0.01851852 </v>
    <v>       0.01851852 </v>
    <v>       0.00925926 </v>
    <v>       0.00925926 </v>
    <v>       0.01851852 </v>
    <v>       0.01851852 </v>
    <v>       0.01851852 </v>
    <v>       0.00925926 </v>
    <v>       0.01851852 </v>
    <v>       0.03703704 </v>
    <v>       0.03703704 </v>
    <v>       0.03703704 </v>
    <v>       0.01851852 </v>
    <v>       0.01851852 </v>
    <v>       0.03703704 </v>
    <v>       0.03703704 </v>
    <v>       0.03703704 </v>
    <v>       0.01851852 </v>
    <v>       0.01851852 </v>
    <v>       0.03703704 </v>
    <v>       0.03703704 </v>
    <v>       0.03703704 </v>
    <v>       0.01851852 </v>
    <v>       0.01851852 </v>
    <v>       0.03703704 </v>
    <v>       0.03703704 </v>
    <v>       0.03703704 </v>
    <v>       0.01851852 </v>
   </varray>
  </kpoints>
  <scstep>
   <time name="total">    1.58    1.08</time>
   <energy>
    <i name="e_fr_energy">     -2.37656076 </i>
    <i name="e_wo_entrp">     -2.37656076 </i>
    <i name="e_0_energy">     -2.37656076 </i>
   </energy>
  </scstep>
  <scstep>
   <time name="total">    2.27    1.39</time>
   <energy>
    <i name="e_fr_energy">    -13.97310951 </i>
    <i name="e_wo_entrp">    -13.97310951 </i>
    <i name="e_0_energy">    -13.97310951 </i>
   </energy>
  </scstep>
  <scstep>
   <time name="total">    2.18    1.41</time>
   <energy>
    <i name="e_fr_energy">    -13.47368274 </i>
    <i name="e_wo_entrp">    -13.47368274 </i>
    <i name="e_0_energy">    -13.47368274 </i>
   </energy>
  </scstep>
  <scstep>
   <time name="total">    2.17    1.40</time>
   <energy>
    <i name="e_fr_energy">    -13.64990894 </i>
    <i name="e_wo_entrp">    -13.64990894 </i>
    <i name="e_0_energy">    -13.64990894 </i>
   </energy>
  </scstep>
  <scstep>
   <time name="total">    2.19    1.40</time>
   <energy>
    <i name="e_fr_energy">    -13.86165844 </i>
    <i name="e_wo_entrp">    -13.86165844 </i>
    <i name="e_0_energy">    -13.86165844 </i>
   </energy>
  </scstep>
  <scstep>
   <time name="total">    2.24    1.41</time>
   <energy>
    <i name="e_fr_energy">    -13.91176451 </i>
    <i name="e_wo_entrp">    -13.91176451 </i>
    <i name="e_0_energy">    -13.91176451 </i>
   </energy>
  </scstep>
  <scstep>
   <time name="total">    2.26    1.42</time>
   <energy>
    <i name="e_fr_energy">    -13.92629030 </i>
    <i name="e_wo_entrp">    -13.92629030 </i>
    <i name="e_0_energy">    -13.92629030 </i>
   </energy>
  </scstep>
  <scstep>
   <time name="total">    2.24    1.41</time>
   <energy>
    <i name="e_fr_energy">    -13.92349467 </i>
    <i name="e_wo_entrp">    -13.92349467 </i>
    <i name="e_0_energy">    -13.92349467 </i>
   </energy>
  </scstep>
  <scstep>
   <time name="total">    2.34    1.45</time>
   <energy>
    <i name="e_fr_energy">    -13.93040951 </i>
    <i name="e_wo_entrp">    -13.93040951 </i>
    <i name="e_0_energy">    -13.93040951 </i>
   </energy>
  </scstep>
  <scstep>
   <time name="total">    2.26    1.42</time>
   <energy>
    <i name="e_fr_energy">    -13.92510684 </i>
    <i name="e_wo_entrp">    -13.92510684 </i>
    <i name="e_0_energy">    -13.92510684 </i>
   </energy>
  </scstep>
  <scstep>
   <time name="total">    2.25    1.41</time>
   <energy>
    <i name="e_fr_energy">    -13.92856850 </i>
    <i name="e_wo_entrp">    -13.92856850 </i>
    <i name="e_0_energy">    -13.92856850 </i>
   </energy>
  </scstep>
  <scstep>
   <time name="total">    2.26    1.41</time>
   <energy>
    <i name="e_fr_energy">    -13.92746523 </i>
    <i name="e_wo_entrp">    -13.92746523 </i>
    <i name="e_0_energy">    -13.92746523 </i>
   </energy>
  </scstep>
  <scstep>
   <time name="total">    2.25    1.41</time>
   <energy>
    <i name="e_fr_energy">    -13.92748365 </i>
    <i name="e_wo_entrp">    -13.92748365 </i>
    <i name="e_0_energy">    -13.92748365 </i>
   </energy>
  </scstep>
  <scstep>
   <time name="total">    2.18    1.38</time>
   <energy>
    <i name="e_fr_energy">    -13.93003853 </i>
    <i name="e_wo_entrp">    -13.93003853 </i>
    <i name="e_0_energy">    -13.93003853 </i>
   </energy>
  </scstep>
  <scstep>
   <time name="total">    2.18    1.37</time>
   <energy>
    <i name="e_fr_energy">    -13.92672927 </i>
    <i name="e_wo_entrp">    -13.92672927 </i>
    <i name="e_0_energy">    -13.92672927 </i>
   </energy>
  </scstep>
  <scstep>
   <time name="total">    2.15    1.36</time>
   <energy>
    <i name="e_fr_energy">    -13.93062071 </i>
    <i name="e_wo_entrp">    -13.93062071 </i>
    <i name="e_0_energy">    -13.93062071 </i>
   </energy>
  </scstep>
  <scstep>
   <time name="total">    2.14    1.35</time>
   <energy>
    <i name="e_fr_energy">    -13.92994872 </i>
    <i name="e_wo_entrp">    -13.92994872 </i>
    <i name="e_0_energy">    -13.92994872 </i>
   </energy>
  </scstep>
  <scstep>
   <time name="total">    2.09    1.33</time>
   <energy>
    <i name="e_fr_energy">    -13.92844261 </i>
    <i name="e_wo_entrp">    -13.92844261 </i>
    <i name="e_0_energy">    -13.92844261 </i>
   </energy>
  </scstep>
  <scstep>
   <time name="total">    2.11    1.34</time>
   <energy>
    <i name="e_fr_energy">    -13.92828831 </i>
    <i name="e_wo_entrp">    -13.92828831 </i>
    <i name="e_0_energy">    -13.92828831 </i>
   </energy>
  </scstep>
  <scstep>
   <time name="total">    2.10    1.33</time>
   <energy>
    <i name="e_fr_energy">    -13.92873187 </i>
    <i name="e_wo_entrp">    -13.92873187 </i>
    <i name="e_0_energy">    -13.92873187 </i>
   </energy>
  </scstep>
  <scstep>
   <time name="total">    2.11    1.34</time>
   <energy>
    <i name="e_fr_energy">    -13.92784292 </i>
    <i name="e_wo_entrp">    -13.92784292 </i>
    <i name="e_0_energy">    -13.92784292 </i>
   </energy>
  </scstep>
  <scstep>
   <time name="total">    2.11    1.34</time>
   <energy>
    <i name="e_fr_energy">    -13.92720117 </i>
    <i name="e_wo_entrp">    -13.92720117 </i>
    <i name="e_0_energy">    -13.92720117 </i>
   </energy>
  </scstep>
  <scstep>
   <time name="total">    2.12    1.34</time>
   <energy>
    <i name="e_fr_energy">    -13.92829031 </i>
    <i name="e_wo_entrp">    -13.92829031 </i>
    <i name="e_0_energy">    -13.92829031 </i>
   </energy>
  </scstep>
  <scstep>
   <time name="total">    2.14    1.35</time>
   <energy>
    <i name="e_fr_energy">    -13.92848010 </i>
    <i name="e_wo_entrp">    -13.92848010 </i>
    <i name="e_0_energy">    -13.92848010 </i>
   </energy>
  </scstep>
  <scstep>
   <time name="total">    2.12    1.35</time>
   <energy>
    <i name="e_fr_energy">    -13.92760861 </i>
    <i name="e_wo_entrp">    -13.92760861 </i>
    <i name="e_0_energy">    -13.92760861 </i>
   </energy>
  </scstep>
  <scstep>
   <time name="total">    2.14    1.35</time>
   <energy>
    <i name="e_fr_energy">    -13.92791628 </i>
    <i name="e_wo_entrp">    -13.92791628 </i>
    <i name="e_0_energy">    -13.92791628 </i>
   </energy>
  </scstep>
  <scstep>
   <time name="total">    2.14    1.35</time>
   <energy>
    <i name="e_fr_energy">    -13.92978058 </i>
    <i name="e_wo_entrp">    -13.92978058 </i>
    <i name="e_0_energy">    -13.92978058 </i>
   </energy>
  </scstep>
  <scstep>
   <time name="total">    2.13    1.35</time>
   <energy>
    <i name="e_fr_energy">    -13.93175068 </i>
    <i name="e_wo_entrp">    -13.93175068 </i>
    <i name="e_0_energy">    -13.93175068 </i>
   </energy>
  </scstep>
  <scstep>
   <time name="total">    2.13    1.35</time>
   <energy>
    <i name="e_fr_energy">    -13.92835169 </i>
    <i name="e_wo_entrp">    -13.92835169 </i>
    <i name="e_0_energy">    -13.92835169 </i>
   </energy>
  </scstep>
  <scstep>
   <time name="total">    2.14    1.36</time>
   <energy>
    <i name="e_fr_energy">    -13.92650801 </i>
    <i name="e_wo_entrp">    -13.92650801 </i>
    <i name="e_0_energy">    -13.92650801 </i>
   </energy>
  </scstep>
  <scstep>
   <time name="total">    2.16    1.37</time>
   <energy>
    <i name="e_fr_energy">    -13.92879060 </i>
    <i name="e_wo_entrp">    -13.92879060 </i>
    <i name="e_0_energy">    -13.92879060 </i>
   </energy>
  </scstep>
  <scstep>
   <time name="total">    2.14    1.35</time>
   <energy>
    <i name="e_fr_energy">    -13.93088211 </i>
    <i name="e_wo_entrp">    -13.93088211 </i>
    <i name="e_0_energy">    -13.93088211 </i>
   </energy>
  </scstep>
  <scstep>
   <time name="total">    2.18    1.38</time>
   <energy>
    <i name="e_fr_energy">    -13.92726784 </i>
    <i name="e_wo_entrp">    -13.92726784 </i>
    <i name="e_0_energy">    -13.92726784 </i>
   </energy>
  </scstep>
  <scstep>
   <time name="total">    2.14    1.36</time>
   <energy>
    <i name="e_fr_energy">    -13.93133224 </i>
    <i name="e_wo_entrp">    -13.93133224 </i>
    <i name="e_0_energy">    -13.93133224 </i>
   </energy>
  </scstep>
  <scstep>
   <time name="total">    2.15    1.36</time>
   <energy>
    <i name="e_fr_energy">    -13.92888672 </i>
    <i name="e_wo_entrp">    -13.92888672 </i>
    <i name="e_0_energy">    -13.92888672 </i>
   </energy>
  </scstep>
  <scstep>
   <time name="total">    2.18    1.38</time>
   <energy>
    <i name="e_fr_energy">    -13.92940141 </i>
    <i name="e_wo_entrp">    -13.92940141 </i>
    <i name="e_0_energy">    -13.92940141 </i>
   </energy>
  </scstep>
  <scstep>
   <time name="total">    2.15    1.36</time>
   <energy>
    <i name="e_fr_energy">    -13.92821279 </i>
    <i name="e_wo_entrp">    -13.92821279 </i>
    <i name="e_0_energy">    -13.92821279 </i>
   </energy>
  </scstep>
  <scstep>
   <time name="total">    2.15    1.36</time>
   <energy>
    <i name="e_fr_energy">    -13.92736800 </i>
    <i name="e_wo_entrp">    -13.92736800 </i>
    <i name="e_0_energy">    -13.92736800 </i>
   </energy>
  </scstep>
  <scstep>
   <time name="total">    2.18    1.38</time>
   <energy>
    <i name="e_fr_energy">    -13.92954366 </i>
    <i name="e_wo_entrp">    -13.92954366 </i>
    <i name="e_0_energy">    -13.92954366 </i>
   </energy>
  </scstep>
  <scstep>
   <time name="total">    2.18    1.38</time>
   <energy>
    <i name="e_fr_energy">    -13.92919958 </i>
    <i name="e_wo_entrp">    -13.92919958 </i>
    <i name="e_0_energy">    -13.92919958 </i>
   </energy>
  </scstep>
  <scstep>
   <time name="total">    2.19    1.38</time>
   <energy>
    <i name="e_fr_energy">    -13.92712195 </i>
    <i name="e_wo_entrp">    -13.92712195 </i>
    <i name="e_0_energy">    -13.92712195 </i>
   </energy>
  </scstep>
  <scstep>
   <time name="total">    2.16    1.37</time>
   <energy>
    <i name="e_fr_energy">    -13.92835250 </i>
    <i name="e_wo_entrp">    -13.92835250 </i>
    <i name="e_0_energy">    -13.92835250 </i>
   </energy>
  </scstep>
  <scstep>
   <time name="total">    2.18    1.38</time>
   <energy>
    <i name="e_fr_energy">    -13.92914969 </i>
    <i name="e_wo_entrp">    -13.92914969 </i>
    <i name="e_0_energy">    -13.92914969 </i>
   </energy>
  </scstep>
  <scstep>
   <time name="total">    2.17    1.37</time>
   <energy>
    <i name="e_fr_energy">    -13.92914313 </i>
    <i name="e_wo_entrp">    -13.92914313 </i>
    <i name="e_0_energy">    -13.92914313 </i>
   </energy>
  </scstep>
  <scstep>
   <time name="total">    2.17    1.37</time>
   <energy>
    <i name="e_fr_energy">    -13.92788391 </i>
    <i name="e_wo_entrp">    -13.92788391 </i>
    <i name="e_0_energy">    -13.92788391 </i>
   </energy>
  </scstep>
  <scstep>
   <time name="total">    2.19    1.38</time>
   <energy>
    <i name="e_fr_energy">    -13.92875466 </i>
    <i name="e_wo_entrp">    -13.92875466 </i>
    <i name="e_0_energy">    -13.92875466 </i>
   </energy>
  </scstep>
  <scstep>
   <time name="total">    2.17    1.37</time>
   <energy>
    <i name="e_fr_energy">    -13.92923169 </i>
    <i name="e_wo_entrp">    -13.92923169 </i>
    <i name="e_0_energy">    -13.92923169 </i>
   </energy>
  </scstep>
  <scstep>
   <time name="total">    2.19    1.38</time>
   <energy>
    <i name="e_fr_energy">    -13.92668223 </i>
    <i name="e_wo_entrp">    -13.92668223 </i>
    <i name="e_0_energy">    -13.92668223 </i>
   </energy>
  </scstep>
  <scstep>
   <time name="total">    2.18    1.38</time>
   <energy>
    <i name="e_fr_energy">    -13.92951980 </i>
    <i name="e_wo_entrp">    -13.92951980 </i>
    <i name="e_0_energy">    -13.92951980 </i>
   </energy>
  </scstep>
  <scstep>
   <time name="total">    2.16    1.37</time>
   <energy>
    <i name="e_fr_energy">    -13.93096635 </i>
    <i name="e_wo_entrp">    -13.93096635 </i>
    <i name="e_0_energy">    -13.93096635 </i>
   </energy>
  </scstep>
  <scstep>
   <time name="total">    2.19    1.38</time>
   <energy>
    <i name="e_fr_energy">    -13.92977638 </i>
    <i name="e_wo_entrp">    -13.92977638 </i>
    <i name="e_0_energy">    -13.92977638 </i>
   </energy>
  </scstep>
  <scstep>
   <time name="total">    2.23    1.40</time>
   <energy>
    <i name="e_fr_energy">    -13.92734621 </i>
    <i name="e_wo_entrp">    -13.92734621 </i>
    <i name="e_0_energy">    -13.92734621 </i>
   </energy>
  </scstep>
  <scstep>
   <time name="total">    2.18    1.38</time>
   <energy>
    <i name="e_fr_energy">    -13.92627699 </i>
    <i name="e_wo_entrp">    -13.92627699 </i>
    <i name="e_0_energy">    -13.92627699 </i>
   </energy>
  </scstep>
  <scstep>
   <time name="total">    2.20    1.39</time>
   <energy>
    <i name="e_fr_energy">    -13.93082704 </i>
    <i name="e_wo_entrp">    -13.93082704 </i>
    <i name="e_0_energy">    -13.93082704 </i>
   </energy>
  </scstep>
  <kpoints>
   <generation param="Gamma">
    <v type="int" name="divisions">       8        9        3 </v>
    <v name="usershift">      0.00000000       0.00000000       0.00000000 </v>
    <v name="genvec1">      0.12500000       0.00000000       0.00000000 </v>
    <v name="genvec2">      0.00000000       0.11111111       0.00000000 </v>
    <v name="genvec3">      0.00000000       0.00000000       0.33333333 </v>
    <v name="shift">      0.00000000       0.00000000       0.00000000 </v>
   </generation>
   <varray name="kpointlist" >
    <v>       0.00000000       0.00000000       0.00000000 </v>
    <v>       0.12500000       0.00000000       0.00000000 </v>
    <v>       0.25000000       0.00000000       0.00000000 </v>
    <v>       0.37500000       0.00000000       0.00000000 </v>
    <v>       0.50000000       0.00000000       0.00000000 </v>
    <v>       0.00000000       0.11111111       0.00000000 </v>
    <v>       0.12500000       0.11111111       0.00000000 </v>
    <v>       0.25000000       0.11111111       0.00000000 </v>
    <v>       0.37500000       0.11111111       0.00000000 </v>
    <v>       0.50000000       0.11111111       0.00000000 </v>
    <v>       0.00000000       0.22222222       0.00000000 </v>
    <v>       0.12500000       0.22222222       0.00000000 </v>
    <v>       0.25000000       0.22222222       0.00000000 </v>
    <v>       0.37500000       0.22222222       0.00000000 </v>
    <v>       0.50000000       0.22222222       0.00000000 </v>
    <v>       0.00000000       0.33333333       0.00000000 </v>
    <v>       0.12500000       0.33333333       0.00000000 </v>
    <v>       0.25000000       0.33333333       0.00000000 </v>
    <v>       0.37500000       0.33333333       0.00000000 </v>
    <v>       0.50000000       0.33333333       0.00000000 </v>
    <v>       0.00000000       0.44444444       0.00000000 </v>
    <v>       0.12500000       0.44444444       0.00000000 </v>
    <v>       0.25000000       0.44444444       0.00000000 </v>
    <v>       0.37500000       0.44444444       0.00000000 </v>
    <v>       0.50000000       0.44444444       0.00000000 </v>
    <v>       0.00000000       0.00000000       0.33333333 </v>
    <v>       0.12500000       0.00000000       0.33333333 </v>
    <v>       0.25000000       0.00000000       0.33333333 </v>
    <v>       0.37500000       0.00000000       0.33333333 </v>
    <v>       0.50000000       0.00000000       0.33333333 </v>
    <v>       0.00000000       0.11111111       0.33333333 </v>
    <v>       0.12500000       0.11111111       0.33333333 </v>
    <v>       0.25000000       0.11111111       0.33333333 </v>
    <v>       0.37500000       0.11111111       0.33333333 </v>
    <v>       0.50000000       0.11111111       0.33333333 </v>
    <v>       0.00000000       0.22222222       0.33333333 </v>
    <v>       0.12500000       0.22222222       0.33333333 </v>
    <v>       0.25000000       0.22222222       0.33333333 </v>
    <v>       0.37500000       0.22222222       0.33333333 </v>
    <v>       0.50000000       0.22222222       0.33333333 </v>
    <v>       0.00000000       0.33333333       0.33333333 </v>
    <v>       0.12500000       0.33333333       0.33333333 </v>
    <v>       0.25000000       0.33333333       0.33333333 </v>
    <v>       0.37500000       0.33333333       0.33333333 </v>
    <v>       0.50000000       0.33333333       0.33333333 </v>
    <v>       0.00000000       0.44444444       0.33333333 </v>
    <v>       0.12500000       0.44444444       0.33333333 </v>
    <v>       0.25000000       0.44444444       0.33333333 </v>
    <v>       0.37500000       0.44444444       0.33333333 </v>
    <v>       0.50000000       0.44444444       0.33333333 </v>
   </varray>
   <varray name="weights" >
    <v>       0.00462963 </v>
    <v>       0.00925926 </v>
    <v>       0.00925926 </v>
    <v>       0.00925926 </v>
    <v>       0.00462963 </v>
    <v>       0.00925926 </v>
    <v>       0.01851852 </v>
    <v>       0.01851852 </v>
    <v>       0.01851852 </v>
    <v>       0.00925926 </v>
    <v>       0.00925926 </v>
    <v>       0.01851852 </v>
    <v>       0.01851852 </v>
    <v>       0.01851852 </v>
    <v>       0.00925926 </v>
    <v>       0.00925926 </v>
    <v>       0.01851852 </v>
    <v>       0.01851852 </v>
    <v>       0.01851852 </v>
    <v>       0.00925926 </v>
    <v>       0.00925926 </v>
    <v>       0.01851852 </v>
    <v>       0.01851852 </v>
    <v>       0.01851852 </v>
    <v>       0.00925926 </v>
    <v>       0.00925926 </v>
    <v>       0.01851852 </v>
    <v>       0.01851852 </v>
    <v>       0.01851852 </v>
    <v>       0.00925926 </v>
    <v>       0.01851852 </v>
    <v>       0.03703704 </v>
    <v>       0.03703704 </v>
    <v>       0.03703704 </v>
    <v>       0.01851852 </v>
    <v>       0.01851852 </v>
    <v>       0.03703704 </v>
    <v>       0.03703704 </v>
    <v>       0.03703704 </v>
    <v>       0.01851852 </v>
    <v>       0.01851852 </v>
    <v>       0.03703704 </v>
    <v>       0.03703704 </v>
    <v>       0.03703704 </v>
    <v>       0.01851852 </v>
    <v>       0.01851852 </v>
    <v>       0.03703704 </v>
    <v>       0.03703704 </v>
    <v>       0.03703704 </v>
    <v>       0.01851852 </v>
   </varray>
  </kpoints>
  <scstep>
   <time name="total">    1.55    1.05</time>
   <energy>
    <i name="e_fr_energy">     -3.85902737 </i>
    <i name="e_wo_entrp">     -3.85902737 </i>
    <i name="e_0_energy">     -3.85902737 </i>
   </energy>
  </scstep>
  <scstep>
   <time name="total">    2.26    1.38</time>
   <energy>
    <i name="e_fr_energy">    -16.96747084 </i>
    <i name="e_wo_entrp">    -16.96747084 </i>
    <i name="e_0_energy">    -16.96747084 </i>
   </energy>
  </scstep>
  <scstep>
   <time name="total">    2.10    1.35</time>
   <energy>
    <i name="e_fr_energy">    -16.68723457 </i>
    <i name="e_wo_entrp">    -16.68723457 </i>
    <i name="e_0_energy">    -16.68723457 </i>
   </energy>
  </scstep>
  <scstep>
   <time name="total">    2.12    1.35</time>
   <energy>
    <i name="e_fr_energy">    -17.13339931 </i>
    <i name="e_wo_entrp">    -17.13339931 </i>
    <i name="e_0_energy">    -17.13339931 </i>
   </energy>
  </scstep>
  <scstep>
   <time name="total">    2.15    1.38</time>
   <energy>
    <i name="e_fr_energy">    -17.25654613 </i>
    <i name="e_wo_entrp">    -17.25654613 </i>
    <i name="e_0_energy">    -17.25654613 </i>
   </energy>
  </scstep>
  <scstep>
   <time name="total">    2.21    1.38</time>
   <energy>
    <i name="e_fr_energy">    -17.27546087 </i>
    <i name="e_wo_entrp">    -17.27546087 </i>
    <i name="e_0_energy">    -17.27546087 </i>
   </energy>
  </scstep>
  <scstep>
   <time name="total">    2.21    1.38</time>
   <energy>
    <i name="e_fr_energy">    -17.27291561 </i>
    <i name="e_wo_entrp">    -17.27291561 </i>
    <i name="e_0_energy">    -17.27291561 </i>
   </energy>
  </scstep>
  <scstep>
   <time name="total">    2.27    1.41</time>
   <energy>
    <i name="e_fr_energy">    -17.27746639 </i>
    <i name="e_wo_entrp">    -17.27746639 </i>
    <i name="e_0_energy">    -17.27746639 </i>
   </energy>
  </scstep>
  <scstep>
   <time name="total">    2.23    1.39</time>
   <energy>
    <i name="e_fr_energy">    -17.27468259 </i>
    <i name="e_wo_entrp">    -17.27468259 </i>
    <i name="e_0_energy">    -17.27468259 </i>
   </energy>
  </scstep>
  <scstep>
   <time name="total">    2.26    1.40</time>
   <energy>
    <i name="e_fr_energy">    -17.27773844 </i>
    <i name="e_wo_entrp">    -17.27773844 </i>
    <i name="e_0_energy">    -17.27773844 </i>
   </energy>
  </scstep>
  <scstep>
   <time name="total">    2.26    1.40</time>
   <energy>
    <i name="e_fr_energy">    -17.27522177 </i>
    <i name="e_wo_entrp">    -17.27522177 </i>
    <i name="e_0_energy">    -17.27522177 </i>
   </energy>
  </scstep>
  <scstep>
   <time name="total">    2.29    1.42</time>
   <energy>
    <i name="e_fr_energy">    -17.27633054 </i>
    <i name="e_wo_entrp">    -17.27633054 </i>
    <i name="e_0_energy">    -17.27633054 </i>
   </energy>
  </scstep>
  <scstep>
   <time name="total">    2.26    1.41</time>
   <energy>
    <i name="e_fr_energy">    -17.27645724 </i>
    <i name="e_wo_entrp">    -17.27645724 </i>
    <i name="e_0_energy">    -17.27645724 </i>
   </energy>
  </scstep>
  <scstep>
   <time name="total">    2.13    1.34</time>
   <energy>
    <i name="e_fr_energy">    -17.27680518 </i>
    <i name="e_wo_entrp">    -17.27680518 </i>
    <i name="e_0_energy">    -17.27680518 </i>
   </energy>
  </scstep>
  <scstep>
   <time name="total">    2.08    1.31</time>
   <energy>
    <i name="e_fr_energy">    -17.27681438 </i>
    <i name="e_wo_entrp">    -17.27681438 </i>
    <i name="e_0_energy">    -17.27681438 </i>
   </energy>
  </scstep>
  <scstep>
   <time name="total">    2.12    1.34</time>
   <energy>
    <i name="e_fr_energy">    -17.27686281 </i>
    <i name="e_wo_entrp">    -17.27686281 </i>
    <i name="e_0_energy">    -17.27686281 </i>
   </energy>
  </scstep>
  <scstep>
   <time name="total">    2.12    1.34</time>
   <energy>
    <i name="e_fr_energy">    -17.27712791 </i>
    <i name="e_wo_entrp">    -17.27712791 </i>
    <i name="e_0_energy">    -17.27712791 </i>
   </energy>
  </scstep>
  <scstep>
   <time name="total">    2.10    1.32</time>
   <energy>
    <i name="e_fr_energy">    -17.27711817 </i>
    <i name="e_wo_entrp">    -17.27711817 </i>
    <i name="e_0_energy">    -17.27711817 </i>
   </energy>
  </scstep>
  <scstep>
   <time name="total">    2.10    1.32</time>
   <energy>
    <i name="e_fr_energy">    -17.27723553 </i>
    <i name="e_wo_entrp">    -17.27723553 </i>
    <i name="e_0_energy">    -17.27723553 </i>
   </energy>
  </scstep>
  <scstep>
   <time name="total">    2.10    1.32</time>
   <energy>
    <i name="e_fr_energy">    -17.27748022 </i>
    <i name="e_wo_entrp">    -17.27748022 </i>
    <i name="e_0_energy">    -17.27748022 </i>
   </energy>
  </scstep>
  <scstep>
   <time name="total">    2.10    1.32</time>
   <energy>
    <i name="e_fr_energy">    -17.27626301 </i>
    <i name="e_wo_entrp">    -17.27626301 </i>
    <i name="e_0_energy">    -17.27626301 </i>
   </energy>
  </scstep>
  <scstep>
   <time name="total">    2.09    1.32</time>
   <energy>
    <i name="e_fr_energy">    -17.27669642 </i>
    <i name="e_wo_entrp">    -17.27669642 </i>
    <i name="e_0_energy">    -17.27669642 </i>
   </energy>
  </scstep>
  <scstep>
   <time name="total">    2.10    1.32</time>
   <energy>
    <i name="e_fr_energy">    -17.27653569 </i>
    <i name="e_wo_entrp">    -17.27653569 </i>
    <i name="e_0_energy">    -17.27653569 </i>
   </energy>
  </scstep>
  <scstep>
   <time name="total">    2.09    1.32</time>
   <energy>
    <i name="e_fr_energy">    -17.27749191 </i>
    <i name="e_wo_entrp">    -17.27749191 </i>
    <i name="e_0_energy">    -17.27749191 </i>
   </energy>
  </scstep>
  <scstep>
   <time name="total">    2.10    1.32</time>
   <energy>
    <i name="e_fr_energy">    -17.27743769 </i>
    <i name="e_wo_entrp">    -17.27743769 </i>
    <i name="e_0_energy">    -17.27743769 </i>
   </energy>
  </scstep>
  <scstep>
   <time name="total">    2.10    1.32</time>
   <energy>
    <i name="e_fr_energy">    -17.27720107 </i>
    <i name="e_wo_entrp">    -17.27720107 </i>
    <i name="e_0_energy">    -17.27720107 </i>
   </energy>
  </scstep>
  <scstep>
   <time name="total">    2.10    1.32</time>
   <energy>
    <i name="e_fr_energy">    -17.27705575 </i>
    <i name="e_wo_entrp">    -17.27705575 </i>
    <i name="e_0_energy">    -17.27705575 </i>
   </energy>
  </scstep>
  <scstep>
   <time name="total">    2.08    1.31</time>
   <energy>
    <i name="e_fr_energy">    -17.27699941 </i>
    <i name="e_wo_entrp">    -17.27699941 </i>
    <i name="e_0_energy">    -17.27699941 </i>
   </energy>
  </scstep>
  <scstep>
   <time name="total">    2.12    1.33</time>
   <energy>
    <i name="e_fr_energy">    -17.27659342 </i>
    <i name="e_wo_entrp">    -17.27659342 </i>
    <i name="e_0_energy">    -17.27659342 </i>
   </energy>
  </scstep>
  <kpoints>
   <generation param="Gamma">
    <v type="int" name="divisions">       8        9        3 </v>
    <v name="usershift">      0.00000000       0.00000000       0.00000000 </v>
    <v name="genvec1">      0.12500000       0.00000000       0.00000000 </v>
    <v name="genvec2">      0.00000000       0.11111111       0.00000000 </v>
    <v name="genvec3">      0.00000000       0.00000000       0.33333333 </v>
    <v name="shift">      0.00000000       0.00000000       0.00000000 </v>
   </generation>
   <varray name="kpointlist" >
    <v>       0.00000000       0.00000000       0.00000000 </v>
    <v>       0.12500000       0.00000000       0.00000000 </v>
    <v>       0.25000000       0.00000000       0.00000000 </v>
    <v>       0.37500000       0.00000000       0.00000000 </v>
    <v>       0.50000000       0.00000000       0.00000000 </v>
    <v>       0.00000000       0.11111111       0.00000000 </v>
    <v>       0.12500000       0.11111111       0.00000000 </v>
    <v>       0.25000000       0.11111111       0.00000000 </v>
    <v>       0.37500000       0.11111111       0.00000000 </v>
    <v>       0.50000000       0.11111111       0.00000000 </v>
    <v>       0.00000000       0.22222222       0.00000000 </v>
    <v>       0.12500000       0.22222222       0.00000000 </v>
    <v>       0.25000000       0.22222222       0.00000000 </v>
    <v>       0.37500000       0.22222222       0.00000000 </v>
    <v>       0.50000000       0.22222222       0.00000000 </v>
    <v>       0.00000000       0.33333333       0.00000000 </v>
    <v>       0.12500000       0.33333333       0.00000000 </v>
    <v>       0.25000000       0.33333333       0.00000000 </v>
    <v>       0.37500000       0.33333333       0.00000000 </v>
    <v>       0.50000000       0.33333333       0.00000000 </v>
    <v>       0.00000000       0.44444444       0.00000000 </v>
    <v>       0.12500000       0.44444444       0.00000000 </v>
    <v>       0.25000000       0.44444444       0.00000000 </v>
    <v>       0.37500000       0.44444444       0.00000000 </v>
    <v>       0.50000000       0.44444444       0.00000000 </v>
    <v>       0.00000000       0.00000000       0.33333333 </v>
    <v>       0.12500000       0.00000000       0.33333333 </v>
    <v>       0.25000000       0.00000000       0.33333333 </v>
    <v>       0.37500000       0.00000000       0.33333333 </v>
    <v>       0.50000000       0.00000000       0.33333333 </v>
    <v>       0.00000000       0.11111111       0.33333333 </v>
    <v>       0.12500000       0.11111111       0.33333333 </v>
    <v>       0.25000000       0.11111111       0.33333333 </v>
    <v>       0.37500000       0.11111111       0.33333333 </v>
    <v>       0.50000000       0.11111111       0.33333333 </v>
    <v>       0.00000000       0.22222222       0.33333333 </v>
    <v>       0.12500000       0.22222222       0.33333333 </v>
    <v>       0.25000000       0.22222222       0.33333333 </v>
    <v>       0.37500000       0.22222222       0.33333333 </v>
    <v>       0.50000000       0.22222222       0.33333333 </v>
    <v>       0.00000000       0.33333333       0.33333333 </v>
    <v>       0.12500000       0.33333333       0.33333333 </v>
    <v>       0.25000000       0.33333333       0.33333333 </v>
    <v>       0.37500000       0.33333333       0.33333333 </v>
    <v>       0.50000000       0.33333333       0.33333333 </v>
    <v>       0.00000000       0.44444444       0.33333333 </v>
    <v>       0.12500000       0.44444444       0.33333333 </v>
    <v>       0.25000000       0.44444444       0.33333333 </v>
    <v>       0.37500000       0.44444444       0.33333333 </v>
    <v>       0.50000000       0.44444444       0.33333333 </v>
   </varray>
   <varray name="weights" >
    <v>       0.00462963 </v>
    <v>       0.00925926 </v>
    <v>       0.00925926 </v>
    <v>       0.00925926 </v>
    <v>       0.00462963 </v>
    <v>       0.00925926 </v>
    <v>       0.01851852 </v>
    <v>       0.01851852 </v>
    <v>       0.01851852 </v>
    <v>       0.00925926 </v>
    <v>       0.00925926 </v>
    <v>       0.01851852 </v>
    <v>       0.01851852 </v>
    <v>       0.01851852 </v>
    <v>       0.00925926 </v>
    <v>       0.00925926 </v>
    <v>       0.01851852 </v>
    <v>       0.01851852 </v>
    <v>       0.01851852 </v>
    <v>       0.00925926 </v>
    <v>       0.00925926 </v>
    <v>       0.01851852 </v>
    <v>       0.01851852 </v>
    <v>       0.01851852 </v>
    <v>       0.00925926 </v>
    <v>       0.00925926 </v>
    <v>       0.01851852 </v>
    <v>       0.01851852 </v>
    <v>       0.01851852 </v>
    <v>       0.00925926 </v>
    <v>       0.01851852 </v>
    <v>       0.03703704 </v>
    <v>       0.03703704 </v>
    <v>       0.03703704 </v>
    <v>       0.01851852 </v>
    <v>       0.01851852 </v>
    <v>       0.03703704 </v>
    <v>       0.03703704 </v>
    <v>       0.03703704 </v>
    <v>       0.01851852 </v>
    <v>       0.01851852 </v>
    <v>       0.03703704 </v>
    <v>       0.03703704 </v>
    <v>       0.03703704 </v>
    <v>       0.01851852 </v>
    <v>       0.01851852 </v>
    <v>       0.03703704 </v>
    <v>       0.03703704 </v>
    <v>       0.03703704 </v>
    <v>       0.01851852 </v>
   </varray>
  </kpoints>
  <scstep>
   <time name="total">    1.59    1.07</time>
   <energy>
    <i name="e_fr_energy">     -4.15271765 </i>
    <i name="e_wo_entrp">     -4.15271765 </i>
    <i name="e_0_energy">     -4.15271765 </i>
   </energy>
  </scstep>
  <scstep>
   <time name="total">    2.27    1.40</time>
   <energy>
    <i name="e_fr_energy">    -15.57985062 </i>
    <i name="e_wo_entrp">    -15.57985062 </i>
    <i name="e_0_energy">    -15.57985062 </i>
   </energy>
  </scstep>
  <scstep>
   <time name="total">    2.14    1.37</time>
   <energy>
    <i name="e_fr_energy">    -15.18291735 </i>
    <i name="e_wo_entrp">    -15.18291735 </i>
    <i name="e_0_energy">    -15.18291735 </i>
   </energy>
  </scstep>
  <scstep>
   <time name="total">    2.14    1.37</time>
   <energy>
    <i name="e_fr_energy">    -15.38179796 </i>
    <i name="e_wo_entrp">    -15.38179796 </i>
    <i name="e_0_energy">    -15.38179796 </i>
   </energy>
  </scstep>
  <scstep>
   <time name="total">    2.17    1.36</time>
   <energy>
    <i name="e_fr_energy">    -15.52998127 </i>
    <i name="e_wo_entrp">    -15.52998127 </i>
    <i name="e_0_energy">    -15.52998127 </i>
   </energy>
  </scstep>
  <scstep>
   <time name="total">    2.22    1.38</time>
   <energy>
    <i name="e_fr_energy">    -15.59295120 </i>
    <i name="e_wo_entrp">    -15.59295120 </i>
    <i name="e_0_energy">    -15.59295120 </i>
   </energy>
  </scstep>
  <scstep>
   <time name="total">    2.26    1.40</time>
   <energy>
    <i name="e_fr_energy">    -15.59097856 </i>
    <i name="e_wo_entrp">    -15.59097856 </i>
    <i name="e_0_energy">    -15.59097856 </i>
   </energy>
  </scstep>
  <scstep>
   <time name="total">    2.21    1.38</time>
   <energy>
    <i name="e_fr_energy">    -15.59640122 </i>
    <i name="e_wo_entrp">    -15.59640122 </i>
    <i name="e_0_energy">    -15.59640122 </i>
   </energy>
  </scstep>
  <scstep>
   <time name="total">    2.24    1.40</time>
   <energy>
    <i name="e_fr_energy">    -15.59627253 </i>
    <i name="e_wo_entrp">    -15.59627253 </i>
    <i name="e_0_energy">    -15.59627253 </i>
   </energy>
  </scstep>
  <scstep>
   <time name="total">    2.23    1.39</time>
   <energy>
    <i name="e_fr_energy">    -15.59565762 </i>
    <i name="e_wo_entrp">    -15.59565762 </i>
    <i name="e_0_energy">    -15.59565762 </i>
   </energy>
  </scstep>
  <scstep>
   <time name="total">    2.22    1.39</time>
   <energy>
    <i name="e_fr_energy">    -15.59465162 </i>
    <i name="e_wo_entrp">    -15.59465162 </i>
    <i name="e_0_energy">    -15.59465162 </i>
   </energy>
  </scstep>
  <scstep>
   <time name="total">    2.25    1.40</time>
   <energy>
    <i name="e_fr_energy">    -15.59820593 </i>
    <i name="e_wo_entrp">    -15.59820593 </i>
    <i name="e_0_energy">    -15.59820593 </i>
   </energy>
  </scstep>
  <scstep>
   <time name="total">    2.23    1.39</time>
   <energy>
    <i name="e_fr_energy">    -15.59383507 </i>
    <i name="e_wo_entrp">    -15.59383507 </i>
    <i name="e_0_energy">    -15.59383507 </i>
   </energy>
  </scstep>
  <scstep>
   <time name="total">    2.20    1.38</time>
   <energy>
    <i name="e_fr_energy">    -15.59791358 </i>
    <i name="e_wo_entrp">    -15.59791358 </i>
    <i name="e_0_energy">    -15.59791358 </i>
   </energy>
  </scstep>
  <scstep>
   <time name="total">    2.14    1.35</time>
   <energy>
    <i name="e_fr_energy">    -15.59287876 </i>
    <i name="e_wo_entrp">    -15.59287876 </i>
    <i name="e_0_energy">    -15.59287876 </i>
   </energy>
  </scstep>
  <scstep>
   <time name="total">    2.10    1.33</time>
   <energy>
    <i name="e_fr_energy">    -15.59804261 </i>
    <i name="e_wo_entrp">    -15.59804261 </i>
    <i name="e_0_energy">    -15.59804261 </i>
   </energy>
  </scstep>
  <scstep>
   <time name="total">    2.12    1.33</time>
   <energy>
    <i name="e_fr_energy">    -15.59454253 </i>
    <i name="e_wo_entrp">    -15.59454253 </i>
    <i name="e_0_energy">    -15.59454253 </i>
   </energy>
  </scstep>
  <scstep>
   <time name="total">    2.11    1.33</time>
   <energy>
    <i name="e_fr_energy">    -15.59689624 </i>
    <i name="e_wo_entrp">    -15.59689624 </i>
    <i name="e_0_energy">    -15.59689624 </i>
   </energy>
  </scstep>
  <scstep>
   <time name="total">    2.12    1.33</time>
   <energy>
    <i name="e_fr_energy">    -15.59437938 </i>
    <i name="e_wo_entrp">    -15.59437938 </i>
    <i name="e_0_energy">    -15.59437938 </i>
   </energy>
  </scstep>
  <scstep>
   <time name="total">    2.11    1.33</time>
   <energy>
    <i name="e_fr_energy">    -15.59552901 </i>
    <i name="e_wo_entrp">    -15.59552901 </i>
    <i name="e_0_energy">    -15.59552901 </i>
   </energy>
  </scstep>
  <scstep>
   <time name="total">    2.11    1.33</time>
   <energy>
    <i name="e_fr_energy">    -15.59376224 </i>
    <i name="e_wo_entrp">    -15.59376224 </i>
    <i name="e_0_energy">    -15.59376224 </i>
   </energy>
  </scstep>
  <scstep>
   <time name="total">    2.11    1.33</time>
   <energy>
    <i name="e_fr_energy">    -15.59700720 </i>
    <i name="e_wo_entrp">    -15.59700720 </i>
    <i name="e_0_energy">    -15.59700720 </i>
   </energy>
  </scstep>
  <scstep>
   <time name="total">    2.12    1.34</time>
   <energy>
    <i name="e_fr_energy">    -15.59560939 </i>
    <i name="e_wo_entrp">    -15.59560939 </i>
    <i name="e_0_energy">    -15.59560939 </i>
   </energy>
  </scstep>
  <scstep>
   <time name="total">    2.11    1.33</time>
   <energy>
    <i name="e_fr_energy">    -15.59460968 </i>
    <i name="e_wo_entrp">    -15.59460968 </i>
    <i name="e_0_energy">    -15.59460968 </i>
   </energy>
  </scstep>
  <scstep>
   <time name="total">    2.14    1.35</time>
   <energy>
    <i name="e_fr_energy">    -15.59491703 </i>
    <i name="e_wo_entrp">    -15.59491703 </i>
    <i name="e_0_energy">    -15.59491703 </i>
   </energy>
  </scstep>
  <kpoints>
   <generation param="Gamma">
    <v type="int" name="divisions">       8        9        3 </v>
    <v name="usershift">      0.00000000       0.00000000       0.00000000 </v>
    <v name="genvec1">      0.12500000       0.00000000       0.00000000 </v>
    <v name="genvec2">      0.00000000       0.11111111       0.00000000 </v>
    <v name="genvec3">      0.00000000       0.00000000       0.33333333 </v>
    <v name="shift">      0.00000000       0.00000000       0.00000000 </v>
   </generation>
   <varray name="kpointlist" >
    <v>       0.00000000       0.00000000       0.00000000 </v>
    <v>       0.12500000       0.00000000       0.00000000 </v>
    <v>       0.25000000       0.00000000       0.00000000 </v>
    <v>       0.37500000       0.00000000       0.00000000 </v>
    <v>       0.50000000       0.00000000       0.00000000 </v>
    <v>       0.00000000       0.11111111       0.00000000 </v>
    <v>       0.12500000       0.11111111       0.00000000 </v>
    <v>       0.25000000       0.11111111       0.00000000 </v>
    <v>       0.37500000       0.11111111       0.00000000 </v>
    <v>       0.50000000       0.11111111       0.00000000 </v>
    <v>       0.00000000       0.22222222       0.00000000 </v>
    <v>       0.12500000       0.22222222       0.00000000 </v>
    <v>       0.25000000       0.22222222       0.00000000 </v>
    <v>       0.37500000       0.22222222       0.00000000 </v>
    <v>       0.50000000       0.22222222       0.00000000 </v>
    <v>       0.00000000       0.33333333       0.00000000 </v>
    <v>       0.12500000       0.33333333       0.00000000 </v>
    <v>       0.25000000       0.33333333       0.00000000 </v>
    <v>       0.37500000       0.33333333       0.00000000 </v>
    <v>       0.50000000       0.33333333       0.00000000 </v>
    <v>       0.00000000       0.44444444       0.00000000 </v>
    <v>       0.12500000       0.44444444       0.00000000 </v>
    <v>       0.25000000       0.44444444       0.00000000 </v>
    <v>       0.37500000       0.44444444       0.00000000 </v>
    <v>       0.50000000       0.44444444       0.00000000 </v>
    <v>       0.00000000       0.00000000       0.33333333 </v>
    <v>       0.12500000       0.00000000       0.33333333 </v>
    <v>       0.25000000       0.00000000       0.33333333 </v>
    <v>       0.37500000       0.00000000       0.33333333 </v>
    <v>       0.50000000       0.00000000       0.33333333 </v>
    <v>       0.00000000       0.11111111       0.33333333 </v>
    <v>       0.12500000       0.11111111       0.33333333 </v>
    <v>       0.25000000       0.11111111       0.33333333 </v>
    <v>       0.37500000       0.11111111       0.33333333 </v>
    <v>       0.50000000       0.11111111       0.33333333 </v>
    <v>       0.00000000       0.22222222       0.33333333 </v>
    <v>       0.12500000       0.22222222       0.33333333 </v>
    <v>       0.25000000       0.22222222       0.33333333 </v>
    <v>       0.37500000       0.22222222       0.33333333 </v>
    <v>       0.50000000       0.22222222       0.33333333 </v>
    <v>       0.00000000       0.33333333       0.33333333 </v>
    <v>       0.12500000       0.33333333       0.33333333 </v>
    <v>       0.25000000       0.33333333       0.33333333 </v>
    <v>       0.37500000       0.33333333       0.33333333 </v>
    <v>       0.50000000       0.33333333       0.33333333 </v>
    <v>       0.00000000       0.44444444       0.33333333 </v>
    <v>       0.12500000       0.44444444       0.33333333 </v>
    <v>       0.25000000       0.44444444       0.33333333 </v>
    <v>       0.37500000       0.44444444       0.33333333 </v>
    <v>       0.50000000       0.44444444       0.33333333 </v>
   </varray>
   <varray name="weights" >
    <v>       0.00462963 </v>
    <v>       0.00925926 </v>
    <v>       0.00925926 </v>
    <v>       0.00925926 </v>
    <v>       0.00462963 </v>
    <v>       0.00925926 </v>
    <v>       0.01851852 </v>
    <v>       0.01851852 </v>
    <v>       0.01851852 </v>
    <v>       0.00925926 </v>
    <v>       0.00925926 </v>
    <v>       0.01851852 </v>
    <v>       0.01851852 </v>
    <v>       0.01851852 </v>
    <v>       0.00925926 </v>
    <v>       0.00925926 </v>
    <v>       0.01851852 </v>
    <v>       0.01851852 </v>
    <v>       0.01851852 </v>
    <v>       0.00925926 </v>
    <v>       0.00925926 </v>
    <v>       0.01851852 </v>
    <v>       0.01851852 </v>
    <v>       0.01851852 </v>
    <v>       0.00925926 </v>
    <v>       0.00925926 </v>
    <v>       0.01851852 </v>
    <v>       0.01851852 </v>
    <v>       0.01851852 </v>
    <v>       0.00925926 </v>
    <v>       0.01851852 </v>
    <v>       0.03703704 </v>
    <v>       0.03703704 </v>
    <v>       0.03703704 </v>
    <v>       0.01851852 </v>
    <v>       0.01851852 </v>
    <v>       0.03703704 </v>
    <v>       0.03703704 </v>
    <v>       0.03703704 </v>
    <v>       0.01851852 </v>
    <v>       0.01851852 </v>
    <v>       0.03703704 </v>
    <v>       0.03703704 </v>
    <v>       0.03703704 </v>
    <v>       0.01851852 </v>
    <v>       0.01851852 </v>
    <v>       0.03703704 </v>
    <v>       0.03703704 </v>
    <v>       0.03703704 </v>
    <v>       0.01851852 </v>
   </varray>
  </kpoints>
  <varray name="dielectric_dft" >
   <v>      24.55559913       0.00000000       0.00000000 </v>
   <v>      -0.00000000      30.13519706       0.00000000 </v>
   <v>       0.00000000       0.00000000      27.65814212 </v>
  </varray>
  <varray name="epsilon" >
   <v>      24.55559913       0.00000000       0.00000000 </v>
   <v>      -0.00000000      30.13519706       0.00000000 </v>
   <v>       0.00000000       0.00000000      27.65814212 </v>
  </varray>
  <kpoints>
   <generation param="Gamma">
    <v type="int" name="divisions">       8        9        3 </v>
    <v name="usershift">      0.00000000       0.00000000       0.00000000 </v>
    <v name="genvec1">      0.12500000       0.00000000       0.00000000 </v>
    <v name="genvec2">      0.00000000       0.11111111       0.00000000 </v>
    <v name="genvec3">      0.00000000       0.00000000       0.33333333 </v>
    <v name="shift">      0.00000000       0.00000000       0.00000000 </v>
   </generation>
   <varray name="kpointlist" >
    <v>       0.00000000       0.00000000       0.00000000 </v>
    <v>       0.12500000       0.00000000       0.00000000 </v>
    <v>       0.25000000       0.00000000       0.00000000 </v>
    <v>       0.37500000       0.00000000       0.00000000 </v>
    <v>       0.50000000       0.00000000       0.00000000 </v>
    <v>       0.00000000       0.11111111       0.00000000 </v>
    <v>       0.12500000       0.11111111       0.00000000 </v>
    <v>       0.25000000       0.11111111       0.00000000 </v>
    <v>       0.37500000       0.11111111       0.00000000 </v>
    <v>       0.50000000       0.11111111       0.00000000 </v>
    <v>       0.00000000       0.22222222       0.00000000 </v>
    <v>       0.12500000       0.22222222       0.00000000 </v>
    <v>       0.25000000       0.22222222       0.00000000 </v>
    <v>       0.37500000       0.22222222       0.00000000 </v>
    <v>       0.50000000       0.22222222       0.00000000 </v>
    <v>       0.00000000       0.33333333       0.00000000 </v>
    <v>       0.12500000       0.33333333       0.00000000 </v>
    <v>       0.25000000       0.33333333       0.00000000 </v>
    <v>       0.37500000       0.33333333       0.00000000 </v>
    <v>       0.50000000       0.33333333       0.00000000 </v>
    <v>       0.00000000       0.44444444       0.00000000 </v>
    <v>       0.12500000       0.44444444       0.00000000 </v>
    <v>       0.25000000       0.44444444       0.00000000 </v>
    <v>       0.37500000       0.44444444       0.00000000 </v>
    <v>       0.50000000       0.44444444       0.00000000 </v>
    <v>       0.00000000       0.00000000       0.33333333 </v>
    <v>       0.12500000       0.00000000       0.33333333 </v>
    <v>       0.25000000       0.00000000       0.33333333 </v>
    <v>       0.37500000       0.00000000       0.33333333 </v>
    <v>       0.50000000       0.00000000       0.33333333 </v>
    <v>       0.00000000       0.11111111       0.33333333 </v>
    <v>       0.12500000       0.11111111       0.33333333 </v>
    <v>       0.25000000       0.11111111       0.33333333 </v>
    <v>       0.37500000       0.11111111       0.33333333 </v>
    <v>       0.50000000       0.11111111       0.33333333 </v>
    <v>       0.00000000       0.22222222       0.33333333 </v>
    <v>       0.12500000       0.22222222       0.33333333 </v>
    <v>       0.25000000       0.22222222       0.33333333 </v>
    <v>       0.37500000       0.22222222       0.33333333 </v>
    <v>       0.50000000       0.22222222       0.33333333 </v>
    <v>       0.00000000       0.33333333       0.33333333 </v>
    <v>       0.12500000       0.33333333       0.33333333 </v>
    <v>       0.25000000       0.33333333       0.33333333 </v>
    <v>       0.37500000       0.33333333       0.33333333 </v>
    <v>       0.50000000       0.33333333       0.33333333 </v>
    <v>       0.00000000       0.44444444       0.33333333 </v>
    <v>       0.12500000       0.44444444       0.33333333 </v>
    <v>       0.25000000       0.44444444       0.33333333 </v>
    <v>       0.37500000       0.44444444       0.33333333 </v>
    <v>       0.50000000       0.44444444       0.33333333 </v>
   </varray>
   <varray name="weights" >
    <v>       0.00462963 </v>
    <v>       0.00925926 </v>
    <v>       0.00925926 </v>
    <v>       0.00925926 </v>
    <v>       0.00462963 </v>
    <v>       0.00925926 </v>
    <v>       0.01851852 </v>
    <v>       0.01851852 </v>
    <v>       0.01851852 </v>
    <v>       0.00925926 </v>
    <v>       0.00925926 </v>
    <v>       0.01851852 </v>
    <v>       0.01851852 </v>
    <v>       0.01851852 </v>
    <v>       0.00925926 </v>
    <v>       0.00925926 </v>
    <v>       0.01851852 </v>
    <v>       0.01851852 </v>
    <v>       0.01851852 </v>
    <v>       0.00925926 </v>
    <v>       0.00925926 </v>
    <v>       0.01851852 </v>
    <v>       0.01851852 </v>
    <v>       0.01851852 </v>
    <v>       0.00925926 </v>
    <v>       0.00925926 </v>
    <v>       0.01851852 </v>
    <v>       0.01851852 </v>
    <v>       0.01851852 </v>
    <v>       0.00925926 </v>
    <v>       0.01851852 </v>
    <v>       0.03703704 </v>
    <v>       0.03703704 </v>
    <v>       0.03703704 </v>
    <v>       0.01851852 </v>
    <v>       0.01851852 </v>
    <v>       0.03703704 </v>
    <v>       0.03703704 </v>
    <v>       0.03703704 </v>
    <v>       0.01851852 </v>
    <v>       0.01851852 </v>
    <v>       0.03703704 </v>
    <v>       0.03703704 </v>
    <v>       0.03703704 </v>
    <v>       0.01851852 </v>
    <v>       0.01851852 </v>
    <v>       0.03703704 </v>
    <v>       0.03703704 </v>
    <v>       0.03703704 </v>
    <v>       0.01851852 </v>
   </varray>
  </kpoints>
  <array name="born_charges" >
   <dimension dim="1">ion</dimension>
   <set>
    <v>       4.00938302      -0.00000000      -0.59211306 </v>
    <v>       0.00000000       4.56482685       0.00000000 </v>
    <v>       0.07589218       0.00000000       4.22458262 </v>
   </set>
   <set>
    <v>       4.00938302      -0.00000000       0.59211306 </v>
    <v>       0.00000000       4.56482685       0.00000000 </v>
    <v>      -0.07589218       0.00000000       4.22458262 </v>
   </set>
   <set>
    <v>       4.00938302      -0.00000000       0.59211306 </v>
    <v>       0.00000000       4.56482685       0.00000000 </v>
    <v>      -0.07589218       0.00000000       4.22458262 </v>
   </set>
   <set>
    <v>       4.00938302      -0.00000000      -0.59211306 </v>
    <v>       0.00000000       4.56482685       0.00000000 </v>
    <v>       0.07589218       0.00000000       4.22458262 </v>
   </set>
   <set>
    <v>      -4.00938302       0.00000000       0.57586191 </v>
    <v>       0.00000000      -4.56482685       0.00000000 </v>
    <v>       0.68565632       0.00000000      -4.22458262 </v>
   </set>
   <set>
    <v>      -4.00938302       0.00000000      -0.57586191 </v>
    <v>       0.00000000      -4.56482685       0.00000000 </v>
    <v>      -0.68565632       0.00000000      -4.22458262 </v>
   </set>
   <set>
    <v>      -4.00938302       0.00000000      -0.57586191 </v>
    <v>       0.00000000      -4.56482685       0.00000000 </v>
    <v>      -0.68565632       0.00000000      -4.22458262 </v>
   </set>
   <set>
    <v>      -4.00938302       0.00000000       0.57586191 </v>
    <v>       0.00000000      -4.56482685       0.00000000 </v>
    <v>       0.68565632       0.00000000      -4.22458262 </v>
   </set>
  </array>
  <time name="totalsc">  444.82  275.88</time>
  <eigenvalues>
   <array>
    <dimension dim="1">band</dimension>
    <dimension dim="2">kpoint</dimension>
    <dimension dim="3">spin</dimension>
    <field>eigene</field>
    <field>occ</field>
    <set>
     <set comment="spin 1">
      <set comment="kpoint 1">
       <r>  -15.4172    1.0000 </r>
       <r>  -15.3980    1.0000 </r>
       <r>  -15.3969    1.0000 </r>
       <r>  -15.3910    1.0000 </r>
       <r>  -15.3901    1.0000 </r>
       <r>  -15.3889    1.0000 </r>
       <r>  -15.3853    1.0000 </r>
       <r>  -15.3812    1.0000 </r>
       <r>  -15.3811    1.0000 </r>
       <r>  -15.3789    1.0000 </r>
       <r>  -15.3754    1.0000 </r>
       <r>  -15.3746    1.0000 </r>
       <r>  -15.3640    1.0000 </r>
       <r>  -15.3594    1.0000 </r>
       <r>  -15.3440    1.0000 </r>
       <r>  -15.3346    1.0000 </r>
       <r>  -15.3337    1.0000 </r>
       <r>  -15.3261    1.0000 </r>
       <r>  -15.3139    1.0000 </r>
       <r>  -15.3045    1.0000 </r>
       <r>   -8.1768    1.0000 </r>
       <r>   -7.7607    1.0000 </r>
       <r>   -7.1093    1.0000 </r>
       <r>   -6.5004    1.0000 </r>
       <r>   -1.4413    1.0000 </r>
       <r>   -0.2017    1.0000 </r>
       <r>    0.0462    1.0000 </r>
       <r>    0.8383    1.0000 </r>
       <r>    0.9622    1.0000 </r>
       <r>    2.3042    1.0000 </r>
       <r>    2.3267    1.0000 </r>
       <r>    2.4373    1.0000 </r>
       <r>    2.8993    1.0000 </r>
       <r>    2.9113    1.0000 </r>
       <r>    3.4119    1.0000 </r>
       <r>    3.9077    1.0000 </r>
       <r>    4.2211    1.0000 </r>
       <r>    4.5885    1.0000 </r>
       <r>    5.1234    1.0000 </r>
       <r>    5.2812    1.0000 </r>
       <r>    6.3392    0.0000 </r>
       <r>    8.7882    0.0000 </r>
       <r>    8.8947    0.0000 </r>
       <r>    8.9332    0.0000 </r>
       <r>    9.1813    0.0000 </r>
       <r>    9.3765    0.0000 </r>
       <r>   10.0989    0.0000 </r>
       <r>   10.4272    0.0000 </r>
       <r>   10.5196    0.0000 </r>
       <r>   10.7494    0.0000 </r>
       <r>   11.3465    0.0000 </r>
       <r>   11.8029    0.0000 </r>
       <r>   12.0212    0.0000 </r>
       <r>   12.0703    0.0000 </r>
       <r>   12.1391    0.0000 </r>
       <r>   12.6161    0.0000 </r>
       <r>   12.6550    0.0000 </r>
       <r>   13.5695    0.0000 </r>
       <r>   14.3908    0.0000 </r>
       <r>   14.4062    0.0000 </r>
       <r>   14.5484    0.0000 </r>
       <r>   14.6898    0.0000 </r>
       <r>   15.0259    0.0000 </r>
       <r>   15.0390    0.0000 </r>
      </set>
      <set comment="kpoint 2">
       <r>  -15.4159    1.0000 </r>
       <r>  -15.3982    1.0000 </r>
       <r>  -15.3956    1.0000 </r>
       <r>  -15.3904    1.0000 </r>
       <r>  -15.3902    1.0000 </r>
       <r>  -15.3902    1.0000 </r>
       <r>  -15.3858    1.0000 </r>
       <r>  -15.3817    1.0000 </r>
       <r>  -15.3800    1.0000 </r>
       <r>  -15.3790    1.0000 </r>
       <r>  -15.3762    1.0000 </r>
       <r>  -15.3724    1.0000 </r>
       <r>  -15.3629    1.0000 </r>
       <r>  -15.3597    1.0000 </r>
       <r>  -15.3442    1.0000 </r>
       <r>  -15.3345    1.0000 </r>
       <r>  -15.3341    1.0000 </r>
       <r>  -15.3265    1.0000 </r>
       <r>  -15.3135    1.0000 </r>
       <r>  -15.3049    1.0000 </r>
       <r>   -8.1026    1.0000 </r>
       <r>   -7.6933    1.0000 </r>
       <r>   -7.0865    1.0000 </r>
       <r>   -6.5092    1.0000 </r>
       <r>   -1.7304    1.0000 </r>
       <r>   -0.3984    1.0000 </r>
       <r>   -0.2259    1.0000 </r>
       <r>    0.4661    1.0000 </r>
       <r>    0.8465    1.0000 </r>
       <r>    2.3521    1.0000 </r>
       <r>    2.4383    1.0000 </r>
       <r>    2.8581    1.0000 </r>
       <r>    3.0121    1.0000 </r>
       <r>    3.4386    1.0000 </r>
       <r>    3.4960    1.0000 </r>
       <r>    3.9810    1.0000 </r>
       <r>    4.2714    1.0000 </r>
       <r>    4.9215    1.0000 </r>
       <r>    4.9608    1.0000 </r>
       <r>    5.3343    1.0000 </r>
       <r>    6.3459    0.0000 </r>
       <r>    8.2092    0.0000 </r>
       <r>    8.8628    0.0000 </r>
       <r>    8.9973    0.0000 </r>
       <r>    9.0763    0.0000 </r>
       <r>    9.1646    0.0000 </r>
       <r>    9.9730    0.0000 </r>
       <r>   10.2561    0.0000 </r>
       <r>   10.2886    0.0000 </r>
       <r>   10.3888    0.0000 </r>
       <r>   11.2766    0.0000 </r>
       <r>   11.2801    0.0000 </r>
       <r>   11.5518    0.0000 </r>
       <r>   12.0105    0.0000 </r>
       <r>   12.0822    0.0000 </r>
       <r>   12.5983    0.0000 </r>
       <r>   13.0570    0.0000 </r>
       <r>   13.6410    0.0000 </r>
       <r>   13.9900    0.0000 </r>
       <r>   14.5772    0.0000 </r>
       <r>   14.8819    0.0000 </r>
       <r>   15.3477    0.0000 </r>
       <r>   15.4024    0.0000 </r>
       <r>   15.6525    0.0000 </r>
      </set>
      <set comment="kpoint 3">
       <r>  -15.4126    1.0000 </r>
       <r>  -15.3989    1.0000 </r>
       <r>  -15.3930    1.0000 </r>
       <r>  -15.3930    1.0000 </r>
       <r>  -15.3924    1.0000 </r>
       <r>  -15.3886    1.0000 </r>
       <r>  -15.3859    1.0000 </r>
       <r>  -15.3830    1.0000 </r>
       <r>  -15.3793    1.0000 </r>
       <r>  -15.3784    1.0000 </r>
       <r>  -15.3762    1.0000 </r>
       <r>  -15.3675    1.0000 </r>
       <r>  -15.3620    1.0000 </r>
       <r>  -15.3592    1.0000 </r>
       <r>  -15.3440    1.0000 </r>
       <r>  -15.3361    1.0000 </r>
       <r>  -15.3329    1.0000 </r>
       <r>  -15.3276    1.0000 </r>
       <r>  -15.3125    1.0000 </r>
       <r>  -15.3059    1.0000 </r>
       <r>   -7.8931    1.0000 </r>
       <r>   -7.5030    1.0000 </r>
       <r>   -7.0518    1.0000 </r>
       <r>   -6.5573    1.0000 </r>
       <r>   -2.2608    1.0000 </r>
       <r>   -1.1134    1.0000 </r>
       <r>   -0.8017    1.0000 </r>
       <r>    0.0241    1.0000 </r>
       <r>    0.8736    1.0000 </r>
       <r>    2.6451    1.0000 </r>
       <r>    2.7582    1.0000 </r>
       <r>    3.2977    1.0000 </r>
       <r>    3.4857    1.0000 </r>
       <r>    3.7043    1.0000 </r>
       <r>    3.8871    1.0000 </r>
       <r>    4.3709    1.0000 </r>
       <r>    4.6339    1.0000 </r>
       <r>    4.7559    1.0000 </r>
       <r>    5.2740    1.0000 </r>
       <r>    5.5836    1.0000 </r>
       <r>    6.6615    0.0000 </r>
       <r>    7.1911    0.0000 </r>
       <r>    7.9244    0.0000 </r>
       <r>    8.1063    0.0000 </r>
       <r>    8.8655    0.0000 </r>
       <r>    8.9474    0.0000 </r>
       <r>    9.3344    0.0000 </r>
       <r>    9.4386    0.0000 </r>
       <r>   10.3136    0.0000 </r>
       <r>   10.5745    0.0000 </r>
       <r>   10.6001    0.0000 </r>
       <r>   11.1400    0.0000 </r>
       <r>   11.2410    0.0000 </r>
       <r>   12.2607    0.0000 </r>
       <r>   12.6770    0.0000 </r>
       <r>   12.6780    0.0000 </r>
       <r>   13.3253    0.0000 </r>
       <r>   13.5414    0.0000 </r>
       <r>   14.1255    0.0000 </r>
       <r>   14.7179    0.0000 </r>
       <r>   15.1937    0.0000 </r>
       <r>   15.5516    0.0000 </r>
       <r>   15.9321    0.0000 </r>
       <r>   16.3030    0.0000 </r>
      </set>
      <set comment="kpoint 4">
       <r>  -15.4082    1.0000 </r>
       <r>  -15.4008    1.0000 </r>
       <r>  -15.3956    1.0000 </r>
       <r>  -15.3950    1.0000 </r>
       <r>  -15.3905    1.0000 </r>
       <r>  -15.3878    1.0000 </r>
       <r>  -15.3850    1.0000 </r>
       <r>  -15.3843    1.0000 </r>
       <r>  -15.3805    1.0000 </r>
       <r>  -15.3800    1.0000 </r>
       <r>  -15.3709    1.0000 </r>
       <r>  -15.3635    1.0000 </r>
       <r>  -15.3625    1.0000 </r>
       <r>  -15.3581    1.0000 </r>
       <r>  -15.3426    1.0000 </r>
       <r>  -15.3380    1.0000 </r>
       <r>  -15.3313    1.0000 </r>
       <r>  -15.3287    1.0000 </r>
       <r>  -15.3109    1.0000 </r>
       <r>  -15.3074    1.0000 </r>
       <r>   -7.5928    1.0000 </r>
       <r>   -7.2267    1.0000 </r>
       <r>   -7.0951    1.0000 </r>
       <r>   -6.6913    1.0000 </r>
       <r>   -2.5906    1.0000 </r>
       <r>   -1.9574    1.0000 </r>
       <r>   -1.0564    1.0000 </r>
       <r>   -0.5729    1.0000 </r>
       <r>    1.3278    1.0000 </r>
       <r>    2.5384    1.0000 </r>
       <r>    3.2283    1.0000 </r>
       <r>    3.7092    1.0000 </r>
       <r>    3.8643    1.0000 </r>
       <r>    4.0910    1.0000 </r>
       <r>    4.1773    1.0000 </r>
       <r>    4.3656    1.0000 </r>
       <r>    4.7105    1.0000 </r>
       <r>    5.1568    1.0000 </r>
       <r>    5.6711    1.0000 </r>
       <r>    5.8862    1.0000 </r>
       <r>    6.6660    0.0000 </r>
       <r>    7.0739    0.0000 </r>
       <r>    7.2455    0.0000 </r>
       <r>    7.3114    0.0000 </r>
       <r>    7.9199    0.0000 </r>
       <r>    8.0174    0.0000 </r>
       <r>    8.6645    0.0000 </r>
       <r>    8.8880    0.0000 </r>
       <r>    9.3090    0.0000 </r>
       <r>    9.5972    0.0000 </r>
       <r>   11.4644    0.0000 </r>
       <r>   11.7424    0.0000 </r>
       <r>   12.4138    0.0000 </r>
       <r>   12.6818    0.0000 </r>
       <r>   13.1053    0.0000 </r>
       <r>   13.6047    0.0000 </r>
       <r>   13.6515    0.0000 </r>
       <r>   14.1632    0.0000 </r>
       <r>   14.3016    0.0000 </r>
       <r>   14.6497    0.0000 </r>
       <r>   14.7469    0.0000 </r>
       <r>   15.7184    0.0000 </r>
       <r>   16.5478    0.0000 </r>
       <r>   16.6411    0.0000 </r>
      </set>
      <set comment="kpoint 5">
       <r>  -15.4040    1.0000 </r>
       <r>  -15.4040    1.0000 </r>
       <r>  -15.3964    1.0000 </r>
       <r>  -15.3964    1.0000 </r>
       <r>  -15.3886    1.0000 </r>
       <r>  -15.3886    1.0000 </r>
       <r>  -15.3848    1.0000 </r>
       <r>  -15.3848    1.0000 </r>
       <r>  -15.3809    1.0000 </r>
       <r>  -15.3809    1.0000 </r>
       <r>  -15.3664    1.0000 </r>
       <r>  -15.3664    1.0000 </r>
       <r>  -15.3592    1.0000 </r>
       <r>  -15.3592    1.0000 </r>
       <r>  -15.3402    1.0000 </r>
       <r>  -15.3402    1.0000 </r>
       <r>  -15.3299    1.0000 </r>
       <r>  -15.3299    1.0000 </r>
       <r>  -15.3092    1.0000 </r>
       <r>  -15.3092    1.0000 </r>
       <r>   -7.2895    1.0000 </r>
       <r>   -7.2895    1.0000 </r>
       <r>   -6.9298    1.0000 </r>
       <r>   -6.9298    1.0000 </r>
       <r>   -2.4927    1.0000 </r>
       <r>   -2.4927    1.0000 </r>
       <r>   -0.9788    1.0000 </r>
       <r>   -0.9788    1.0000 </r>
       <r>    1.9499    1.0000 </r>
       <r>    1.9499    1.0000 </r>
       <r>    3.6930    1.0000 </r>
       <r>    3.6930    1.0000 </r>
       <r>    4.1214    1.0000 </r>
       <r>    4.1214    1.0000 </r>
       <r>    4.4396    1.0000 </r>
       <r>    4.4396    1.0000 </r>
       <r>    5.0372    1.0000 </r>
       <r>    5.0372    1.0000 </r>
       <r>    5.6400    1.0000 </r>
       <r>    5.6400    1.0000 </r>
       <r>    7.0702    0.0000 </r>
       <r>    7.0702    0.0000 </r>
       <r>    7.2477    0.0000 </r>
       <r>    7.2477    0.0000 </r>
       <r>    7.5466    0.0000 </r>
       <r>    7.5466    0.0000 </r>
       <r>    8.3493    0.0000 </r>
       <r>    8.3493    0.0000 </r>
       <r>    8.9542    0.0000 </r>
       <r>    8.9542    0.0000 </r>
       <r>   11.8975    0.0000 </r>
       <r>   11.8975    0.0000 </r>
       <r>   13.1262    0.0000 </r>
       <r>   13.1262    0.0000 </r>
       <r>   13.7906    0.0000 </r>
       <r>   13.7906    0.0000 </r>
       <r>   13.9020    0.0000 </r>
       <r>   13.9020    0.0000 </r>
       <r>   15.1004    0.0000 </r>
       <r>   15.1004    0.0000 </r>
       <r>   15.6181    0.0000 </r>
       <r>   15.6181    0.0000 </r>
       <r>   16.0028    0.0000 </r>
       <r>   16.0028    0.0000 </r>
      </set>
      <set comment="kpoint 6">
       <r>  -15.4135    1.0000 </r>
       <r>  -15.3953    1.0000 </r>
       <r>  -15.3952    1.0000 </r>
       <r>  -15.3905    1.0000 </r>
       <r>  -15.3903    1.0000 </r>
       <r>  -15.3897    1.0000 </r>
       <r>  -15.3896    1.0000 </r>
       <r>  -15.3836    1.0000 </r>
       <r>  -15.3805    1.0000 </r>
       <r>  -15.3780    1.0000 </r>
       <r>  -15.3779    1.0000 </r>
       <r>  -15.3720    1.0000 </r>
       <r>  -15.3619    1.0000 </r>
       <r>  -15.3596    1.0000 </r>
       <r>  -15.3425    1.0000 </r>
       <r>  -15.3351    1.0000 </r>
       <r>  -15.3326    1.0000 </r>
       <r>  -15.3275    1.0000 </r>
       <r>  -15.3144    1.0000 </r>
       <r>  -15.3061    1.0000 </r>
       <r>   -8.1050    1.0000 </r>
       <r>   -7.7000    1.0000 </r>
       <r>   -7.0707    1.0000 </r>
       <r>   -6.4985    1.0000 </r>
       <r>   -1.5571    1.0000 </r>
       <r>   -0.4551    1.0000 </r>
       <r>    0.0395    1.0000 </r>
       <r>    0.4118    1.0000 </r>
       <r>    0.8735    1.0000 </r>
       <r>    2.2232    1.0000 </r>
       <r>    2.5167    1.0000 </r>
       <r>    2.6293    1.0000 </r>
       <r>    2.8982    1.0000 </r>
       <r>    2.9788    1.0000 </r>
       <r>    3.6151    1.0000 </r>
       <r>    3.9446    1.0000 </r>
       <r>    4.2354    1.0000 </r>
       <r>    4.8308    1.0000 </r>
       <r>    5.1435    1.0000 </r>
       <r>    5.2214    1.0000 </r>
       <r>    6.4531    0.0000 </r>
       <r>    8.3275    0.0000 </r>
       <r>    8.8411    0.0000 </r>
       <r>    9.0759    0.0000 </r>
       <r>    9.1916    0.0000 </r>
       <r>    9.3171    0.0000 </r>
       <r>    9.7818    0.0000 </r>
       <r>   10.1664    0.0000 </r>
       <r>   10.2654    0.0000 </r>
       <r>   10.6540    0.0000 </r>
       <r>   11.0834    0.0000 </r>
       <r>   11.3817    0.0000 </r>
       <r>   11.7639    0.0000 </r>
       <r>   11.7673    0.0000 </r>
       <r>   12.2622    0.0000 </r>
       <r>   12.3471    0.0000 </r>
       <r>   12.6142    0.0000 </r>
       <r>   13.9170    0.0000 </r>
       <r>   14.1346    0.0000 </r>
       <r>   14.5010    0.0000 </r>
       <r>   15.1173    0.0000 </r>
       <r>   15.2102    0.0000 </r>
       <r>   15.2550    0.0000 </r>
       <r>   15.4127    0.0000 </r>
      </set>
      <set comment="kpoint 7">
       <r>  -15.4125    1.0000 </r>
       <r>  -15.3954    1.0000 </r>
       <r>  -15.3943    1.0000 </r>
       <r>  -15.3915    1.0000 </r>
       <r>  -15.3909    1.0000 </r>
       <r>  -15.3894    1.0000 </r>
       <r>  -15.3889    1.0000 </r>
       <r>  -15.3842    1.0000 </r>
       <r>  -15.3806    1.0000 </r>
       <r>  -15.3801    1.0000 </r>
       <r>  -15.3757    1.0000 </r>
       <r>  -15.3703    1.0000 </r>
       <r>  -15.3615    1.0000 </r>
       <r>  -15.3592    1.0000 </r>
       <r>  -15.3426    1.0000 </r>
       <r>  -15.3347    1.0000 </r>
       <r>  -15.3333    1.0000 </r>
       <r>  -15.3278    1.0000 </r>
       <r>  -15.3140    1.0000 </r>
       <r>  -15.3064    1.0000 </r>
       <r>   -8.0317    1.0000 </r>
       <r>   -7.6338    1.0000 </r>
       <r>   -7.0479    1.0000 </r>
       <r>   -6.5052    1.0000 </r>
       <r>   -1.7777    1.0000 </r>
       <r>   -0.5477    1.0000 </r>
       <r>   -0.2660    1.0000 </r>
       <r>    0.2791    1.0000 </r>
       <r>    0.7956    1.0000 </r>
       <r>    2.0046    1.0000 </r>
       <r>    2.1684    1.0000 </r>
       <r>    3.1817    1.0000 </r>
       <r>    3.2146    1.0000 </r>
       <r>    3.3408    1.0000 </r>
       <r>    3.4146    1.0000 </r>
       <r>    4.0409    1.0000 </r>
       <r>    4.5026    1.0000 </r>
       <r>    4.9922    1.0000 </r>
       <r>    5.2325    1.0000 </r>
       <r>    5.3034    1.0000 </r>
       <r>    6.4747    0.0000 </r>
       <r>    7.8132    0.0000 </r>
       <r>    8.4258    0.0000 </r>
       <r>    8.7412    0.0000 </r>
       <r>    9.0011    0.0000 </r>
       <r>    9.3046    0.0000 </r>
       <r>    9.6041    0.0000 </r>
       <r>    9.9670    0.0000 </r>
       <r>   10.2673    0.0000 </r>
       <r>   10.8778    0.0000 </r>
       <r>   10.9836    0.0000 </r>
       <r>   11.3328    0.0000 </r>
       <r>   11.5799    0.0000 </r>
       <r>   12.1017    0.0000 </r>
       <r>   12.3286    0.0000 </r>
       <r>   12.6810    0.0000 </r>
       <r>   12.9433    0.0000 </r>
       <r>   13.9503    0.0000 </r>
       <r>   14.1988    0.0000 </r>
       <r>   14.5142    0.0000 </r>
       <r>   14.8223    0.0000 </r>
       <r>   15.0265    0.0000 </r>
       <r>   15.2572    0.0000 </r>
       <r>   15.5602    0.0000 </r>
      </set>
      <set comment="kpoint 8">
       <r>  -15.4099    1.0000 </r>
       <r>  -15.3963    1.0000 </r>
       <r>  -15.3944    1.0000 </r>
       <r>  -15.3939    1.0000 </r>
       <r>  -15.3916    1.0000 </r>
       <r>  -15.3878    1.0000 </r>
       <r>  -15.3876    1.0000 </r>
       <r>  -15.3855    1.0000 </r>
       <r>  -15.3822    1.0000 </r>
       <r>  -15.3810    1.0000 </r>
       <r>  -15.3728    1.0000 </r>
       <r>  -15.3657    1.0000 </r>
       <r>  -15.3616    1.0000 </r>
       <r>  -15.3577    1.0000 </r>
       <r>  -15.3424    1.0000 </r>
       <r>  -15.3349    1.0000 </r>
       <r>  -15.3335    1.0000 </r>
       <r>  -15.3287    1.0000 </r>
       <r>  -15.3131    1.0000 </r>
       <r>  -15.3072    1.0000 </r>
       <r>   -7.8253    1.0000 </r>
       <r>   -7.4473    1.0000 </r>
       <r>   -7.0125    1.0000 </r>
       <r>   -6.5464    1.0000 </r>
       <r>   -2.2179    1.0000 </r>
       <r>   -1.0826    1.0000 </r>
       <r>   -0.7995    1.0000 </r>
       <r>   -0.0658    1.0000 </r>
       <r>    0.9526    1.0000 </r>
       <r>    1.9976    1.0000 </r>
       <r>    2.1617    1.0000 </r>
       <r>    3.1932    1.0000 </r>
       <r>    3.5701    1.0000 </r>
       <r>    3.6333    1.0000 </r>
       <r>    4.0220    1.0000 </r>
       <r>    4.0746    1.0000 </r>
       <r>    4.8455    1.0000 </r>
       <r>    5.1083    1.0000 </r>
       <r>    5.3349    1.0000 </r>
       <r>    5.5449    1.0000 </r>
       <r>    6.7773    0.0000 </r>
       <r>    7.2787    0.0000 </r>
       <r>    7.5223    0.0000 </r>
       <r>    7.6853    0.0000 </r>
       <r>    8.8744    0.0000 </r>
       <r>    8.9552    0.0000 </r>
       <r>    9.2949    0.0000 </r>
       <r>    9.8526    0.0000 </r>
       <r>   10.3590    0.0000 </r>
       <r>   10.5774    0.0000 </r>
       <r>   10.9555    0.0000 </r>
       <r>   11.4014    0.0000 </r>
       <r>   11.7761    0.0000 </r>
       <r>   11.9634    0.0000 </r>
       <r>   12.7484    0.0000 </r>
       <r>   13.0514    0.0000 </r>
       <r>   13.5403    0.0000 </r>
       <r>   13.9734    0.0000 </r>
       <r>   14.0309    0.0000 </r>
       <r>   14.4083    0.0000 </r>
       <r>   14.8126    0.0000 </r>
       <r>   15.5608    0.0000 </r>
       <r>   15.7485    0.0000 </r>
       <r>   16.2281    0.0000 </r>
      </set>
      <set comment="kpoint 9">
       <r>  -15.4064    1.0000 </r>
       <r>  -15.3994    1.0000 </r>
       <r>  -15.3961    1.0000 </r>
       <r>  -15.3958    1.0000 </r>
       <r>  -15.3909    1.0000 </r>
       <r>  -15.3889    1.0000 </r>
       <r>  -15.3863    1.0000 </r>
       <r>  -15.3853    1.0000 </r>
       <r>  -15.3830    1.0000 </r>
       <r>  -15.3815    1.0000 </r>
       <r>  -15.3689    1.0000 </r>
       <r>  -15.3628    1.0000 </r>
       <r>  -15.3608    1.0000 </r>
       <r>  -15.3566    1.0000 </r>
       <r>  -15.3410    1.0000 </r>
       <r>  -15.3367    1.0000 </r>
       <r>  -15.3320    1.0000 </r>
       <r>  -15.3297    1.0000 </r>
       <r>  -15.3117    1.0000 </r>
       <r>  -15.3085    1.0000 </r>
       <r>   -7.5313    1.0000 </r>
       <r>   -7.1786    1.0000 </r>
       <r>   -7.0517    1.0000 </r>
       <r>   -6.6688    1.0000 </r>
       <r>   -2.5039    1.0000 </r>
       <r>   -1.8814    1.0000 </r>
       <r>   -0.9917    1.0000 </r>
       <r>   -0.5561    1.0000 </r>
       <r>    1.3945    1.0000 </r>
       <r>    2.2252    1.0000 </r>
       <r>    2.4313    1.0000 </r>
       <r>    3.2909    1.0000 </r>
       <r>    3.3871    1.0000 </r>
       <r>    3.6469    1.0000 </r>
       <r>    4.1226    1.0000 </r>
       <r>    4.4473    1.0000 </r>
       <r>    5.0221    1.0000 </r>
       <r>    5.1298    1.0000 </r>
       <r>    5.4247    1.0000 </r>
       <r>    5.5124    1.0000 </r>
       <r>    6.9275    0.0000 </r>
       <r>    7.0934    0.0000 </r>
       <r>    7.1681    0.0000 </r>
       <r>    7.4843    0.0000 </r>
       <r>    8.3526    0.0000 </r>
       <r>    8.4847    0.0000 </r>
       <r>    8.7736    0.0000 </r>
       <r>    9.4873    0.0000 </r>
       <r>    9.9304    0.0000 </r>
       <r>   10.2525    0.0000 </r>
       <r>   11.3712    0.0000 </r>
       <r>   11.6151    0.0000 </r>
       <r>   11.9634    0.0000 </r>
       <r>   12.7356    0.0000 </r>
       <r>   12.8924    0.0000 </r>
       <r>   13.2014    0.0000 </r>
       <r>   14.0667    0.0000 </r>
       <r>   14.3491    0.0000 </r>
       <r>   14.3872    0.0000 </r>
       <r>   14.8447    0.0000 </r>
       <r>   15.3287    0.0000 </r>
       <r>   15.6877    0.0000 </r>
       <r>   16.7892    0.0000 </r>
       <r>   16.8863    0.0000 </r>
      </set>
      <set comment="kpoint 10">
       <r>  -15.4029    1.0000 </r>
       <r>  -15.4029    1.0000 </r>
       <r>  -15.3967    1.0000 </r>
       <r>  -15.3967    1.0000 </r>
       <r>  -15.3902    1.0000 </r>
       <r>  -15.3902    1.0000 </r>
       <r>  -15.3857    1.0000 </r>
       <r>  -15.3857    1.0000 </r>
       <r>  -15.3822    1.0000 </r>
       <r>  -15.3822    1.0000 </r>
       <r>  -15.3652    1.0000 </r>
       <r>  -15.3652    1.0000 </r>
       <r>  -15.3576    1.0000 </r>
       <r>  -15.3576    1.0000 </r>
       <r>  -15.3387    1.0000 </r>
       <r>  -15.3387    1.0000 </r>
       <r>  -15.3307    1.0000 </r>
       <r>  -15.3307    1.0000 </r>
       <r>  -15.3101    1.0000 </r>
       <r>  -15.3101    1.0000 </r>
       <r>   -7.2374    1.0000 </r>
       <r>   -7.2374    1.0000 </r>
       <r>   -6.8934    1.0000 </r>
       <r>   -6.8934    1.0000 </r>
       <r>   -2.3989    1.0000 </r>
       <r>   -2.3989    1.0000 </r>
       <r>   -0.9155    1.0000 </r>
       <r>   -0.9155    1.0000 </r>
       <r>    1.9450    1.0000 </r>
       <r>    1.9450    1.0000 </r>
       <r>    2.9902    1.0000 </r>
       <r>    2.9902    1.0000 </r>
       <r>    3.4185    1.0000 </r>
       <r>    3.4185    1.0000 </r>
       <r>    4.2850    1.0000 </r>
       <r>    4.2850    1.0000 </r>
       <r>    5.2368    1.0000 </r>
       <r>    5.2368    1.0000 </r>
       <r>    5.4099    1.0000 </r>
       <r>    5.4099    1.0000 </r>
       <r>    6.8748    0.0000 </r>
       <r>    6.8748    0.0000 </r>
       <r>    7.3067    0.0000 </r>
       <r>    7.3067    0.0000 </r>
       <r>    8.5194    0.0000 </r>
       <r>    8.5194    0.0000 </r>
       <r>    8.8530    0.0000 </r>
       <r>    8.8530    0.0000 </r>
       <r>    9.6755    0.0000 </r>
       <r>    9.6755    0.0000 </r>
       <r>   11.7446    0.0000 </r>
       <r>   11.7446    0.0000 </r>
       <r>   12.2266    0.0000 </r>
       <r>   12.2266    0.0000 </r>
       <r>   13.7512    0.0000 </r>
       <r>   13.7512    0.0000 </r>
       <r>   14.5151    0.0000 </r>
       <r>   14.5151    0.0000 </r>
       <r>   15.4170    0.0000 </r>
       <r>   15.4170    0.0000 </r>
       <r>   15.7102    0.0000 </r>
       <r>   15.7102    0.0000 </r>
       <r>   16.2068    0.0000 </r>
       <r>   16.2068    0.0000 </r>
      </set>
      <set comment="kpoint 11">
       <r>  -15.4038    1.0000 </r>
       <r>  -15.3958    1.0000 </r>
       <r>  -15.3934    1.0000 </r>
       <r>  -15.3917    1.0000 </r>
       <r>  -15.3915    1.0000 </r>
       <r>  -15.3911    1.0000 </r>
       <r>  -15.3868    1.0000 </r>
       <r>  -15.3864    1.0000 </r>
       <r>  -15.3828    1.0000 </r>
       <r>  -15.3825    1.0000 </r>
       <r>  -15.3744    1.0000 </r>
       <r>  -15.3672    1.0000 </r>
       <r>  -15.3605    1.0000 </r>
       <r>  -15.3579    1.0000 </r>
       <r>  -15.3383    1.0000 </r>
       <r>  -15.3372    1.0000 </r>
       <r>  -15.3320    1.0000 </r>
       <r>  -15.3296    1.0000 </r>
       <r>  -15.3152    1.0000 </r>
       <r>  -15.3098    1.0000 </r>
       <r>   -7.8974    1.0000 </r>
       <r>   -7.5295    1.0000 </r>
       <r>   -6.9752    1.0000 </r>
       <r>   -6.5176    1.0000 </r>
       <r>   -1.8472    1.0000 </r>
       <r>   -0.9704    1.0000 </r>
       <r>   -0.4450    1.0000 </r>
       <r>   -0.1868    1.0000 </r>
       <r>    0.8815    1.0000 </r>
       <r>    2.4050    1.0000 </r>
       <r>    2.7512    1.0000 </r>
       <r>    2.9202    1.0000 </r>
       <r>    2.9803    1.0000 </r>
       <r>    3.2034    1.0000 </r>
       <r>    3.9302    1.0000 </r>
       <r>    4.0753    1.0000 </r>
       <r>    4.3106    1.0000 </r>
       <r>    5.0360    1.0000 </r>
       <r>    5.1675    1.0000 </r>
       <r>    5.4417    1.0000 </r>
       <r>    6.7217    0.0000 </r>
       <r>    7.0754    0.0000 </r>
       <r>    8.3985    0.0000 </r>
       <r>    8.5213    0.0000 </r>
       <r>    8.6161    0.0000 </r>
       <r>    9.1697    0.0000 </r>
       <r>    9.2855    0.0000 </r>
       <r>    9.7677    0.0000 </r>
       <r>   10.4334    0.0000 </r>
       <r>   10.5952    0.0000 </r>
       <r>   10.6921    0.0000 </r>
       <r>   10.8705    0.0000 </r>
       <r>   11.4610    0.0000 </r>
       <r>   11.5039    0.0000 </r>
       <r>   12.1322    0.0000 </r>
       <r>   12.6607    0.0000 </r>
       <r>   13.1620    0.0000 </r>
       <r>   13.4889    0.0000 </r>
       <r>   14.7075    0.0000 </r>
       <r>   14.7874    0.0000 </r>
       <r>   15.3744    0.0000 </r>
       <r>   15.3983    0.0000 </r>
       <r>   15.5762    0.0000 </r>
       <r>   16.1361    0.0000 </r>
      </set>
      <set comment="kpoint 12">
       <r>  -15.4045    1.0000 </r>
       <r>  -15.3958    1.0000 </r>
       <r>  -15.3951    1.0000 </r>
       <r>  -15.3923    1.0000 </r>
       <r>  -15.3911    1.0000 </r>
       <r>  -15.3905    1.0000 </r>
       <r>  -15.3868    1.0000 </r>
       <r>  -15.3859    1.0000 </r>
       <r>  -15.3837    1.0000 </r>
       <r>  -15.3827    1.0000 </r>
       <r>  -15.3732    1.0000 </r>
       <r>  -15.3655    1.0000 </r>
       <r>  -15.3612    1.0000 </r>
       <r>  -15.3566    1.0000 </r>
       <r>  -15.3386    1.0000 </r>
       <r>  -15.3366    1.0000 </r>
       <r>  -15.3321    1.0000 </r>
       <r>  -15.3302    1.0000 </r>
       <r>  -15.3150    1.0000 </r>
       <r>  -15.3100    1.0000 </r>
       <r>   -7.8273    1.0000 </r>
       <r>   -7.4671    1.0000 </r>
       <r>   -6.9522    1.0000 </r>
       <r>   -6.5170    1.0000 </r>
       <r>   -1.9223    1.0000 </r>
       <r>   -0.9265    1.0000 </r>
       <r>   -0.5439    1.0000 </r>
       <r>   -0.2840    1.0000 </r>
       <r>    0.9483    1.0000 </r>
       <r>    1.7322    1.0000 </r>
       <r>    2.0547    1.0000 </r>
       <r>    2.9259    1.0000 </r>
       <r>    3.3621    1.0000 </r>
       <r>    3.6198    1.0000 </r>
       <r>    3.7008    1.0000 </r>
       <r>    4.0785    1.0000 </r>
       <r>    4.7745    1.0000 </r>
       <r>    5.0749    1.0000 </r>
       <r>    5.2265    1.0000 </r>
       <r>    5.4642    1.0000 </r>
       <r>    6.7561    0.0000 </r>
       <r>    7.1383    0.0000 </r>
       <r>    7.6704    0.0000 </r>
       <r>    7.8066    0.0000 </r>
       <r>    8.9415    0.0000 </r>
       <r>    9.0355    0.0000 </r>
       <r>    9.6444    0.0000 </r>
       <r>    9.9094    0.0000 </r>
       <r>   10.4714    0.0000 </r>
       <r>   10.5625    0.0000 </r>
       <r>   10.7450    0.0000 </r>
       <r>   11.3928    0.0000 </r>
       <r>   11.4358    0.0000 </r>
       <r>   12.4138    0.0000 </r>
       <r>   12.4519    0.0000 </r>
       <r>   12.9213    0.0000 </r>
       <r>   13.3507    0.0000 </r>
       <r>   13.8765    0.0000 </r>
       <r>   13.9868    0.0000 </r>
       <r>   14.3543    0.0000 </r>
       <r>   14.7791    0.0000 </r>
       <r>   15.5326    0.0000 </r>
       <r>   15.7097    0.0000 </r>
       <r>   15.9691    0.0000 </r>
      </set>
      <set comment="kpoint 13">
       <r>  -15.4064    1.0000 </r>
       <r>  -15.3994    1.0000 </r>
       <r>  -15.3953    1.0000 </r>
       <r>  -15.3941    1.0000 </r>
       <r>  -15.3916    1.0000 </r>
       <r>  -15.3898    1.0000 </r>
       <r>  -15.3877    1.0000 </r>
       <r>  -15.3847    1.0000 </r>
       <r>  -15.3834    1.0000 </r>
       <r>  -15.3826    1.0000 </r>
       <r>  -15.3704    1.0000 </r>
       <r>  -15.3617    1.0000 </r>
       <r>  -15.3613    1.0000 </r>
       <r>  -15.3545    1.0000 </r>
       <r>  -15.3384    1.0000 </r>
       <r>  -15.3354    1.0000 </r>
       <r>  -15.3324    1.0000 </r>
       <r>  -15.3315    1.0000 </r>
       <r>  -15.3142    1.0000 </r>
       <r>  -15.3104    1.0000 </r>
       <r>   -7.6317    1.0000 </r>
       <r>   -7.2931    1.0000 </r>
       <r>   -6.9134    1.0000 </r>
       <r>   -6.5358    1.0000 </r>
       <r>   -2.1137    1.0000 </r>
       <r>   -1.0386    1.0000 </r>
       <r>   -0.8565    1.0000 </r>
       <r>   -0.3847    1.0000 </r>
       <r>    1.1869    1.0000 </r>
       <r>    1.3004    1.0000 </r>
       <r>    1.5622    1.0000 </r>
       <r>    2.6962    1.0000 </r>
       <r>    2.8152    1.0000 </r>
       <r>    3.7870    1.0000 </r>
       <r>    3.9181    1.0000 </r>
       <r>    4.2908    1.0000 </r>
       <r>    4.6975    1.0000 </r>
       <r>    4.9449    1.0000 </r>
       <r>    5.0638    1.0000 </r>
       <r>    5.3160    1.0000 </r>
       <r>    6.7276    0.0000 </r>
       <r>    7.1896    0.0000 </r>
       <r>    7.8356    0.0000 </r>
       <r>    8.2775    0.0000 </r>
       <r>    8.5105    0.0000 </r>
       <r>    8.9705    0.0000 </r>
       <r>    9.3113    0.0000 </r>
       <r>   10.3452    0.0000 </r>
       <r>   10.8316    0.0000 </r>
       <r>   10.9555    0.0000 </r>
       <r>   11.0266    0.0000 </r>
       <r>   11.4280    0.0000 </r>
       <r>   11.6762    0.0000 </r>
       <r>   12.7414    0.0000 </r>
       <r>   12.9916    0.0000 </r>
       <r>   13.2297    0.0000 </r>
       <r>   13.8121    0.0000 </r>
       <r>   13.8889    0.0000 </r>
       <r>   14.1894    0.0000 </r>
       <r>   14.7154    0.0000 </r>
       <r>   15.1797    0.0000 </r>
       <r>   15.3709    0.0000 </r>
       <r>   16.0622    0.0000 </r>
       <r>   16.1612    0.0000 </r>
      </set>
      <set comment="kpoint 14">
       <r>  -15.4079    1.0000 </r>
       <r>  -15.4042    1.0000 </r>
       <r>  -15.3963    1.0000 </r>
       <r>  -15.3958    1.0000 </r>
       <r>  -15.3922    1.0000 </r>
       <r>  -15.3891    1.0000 </r>
       <r>  -15.3889    1.0000 </r>
       <r>  -15.3862    1.0000 </r>
       <r>  -15.3812    1.0000 </r>
       <r>  -15.3808    1.0000 </r>
       <r>  -15.3671    1.0000 </r>
       <r>  -15.3624    1.0000 </r>
       <r>  -15.3568    1.0000 </r>
       <r>  -15.3534    1.0000 </r>
       <r>  -15.3371    1.0000 </r>
       <r>  -15.3340    1.0000 </r>
       <r>  -15.3333    1.0000 </r>
       <r>  -15.3323    1.0000 </r>
       <r>  -15.3132    1.0000 </r>
       <r>  -15.3111    1.0000 </r>
       <r>   -7.3589    1.0000 </r>
       <r>   -7.0489    1.0000 </r>
       <r>   -6.9384    1.0000 </r>
       <r>   -6.6208    1.0000 </r>
       <r>   -2.2543    1.0000 </r>
       <r>   -1.6711    1.0000 </r>
       <r>   -0.8355    1.0000 </r>
       <r>   -0.5625    1.0000 </r>
       <r>    1.3684    1.0000 </r>
       <r>    1.5569    1.0000 </r>
       <r>    1.5893    1.0000 </r>
       <r>    2.5110    1.0000 </r>
       <r>    2.6355    1.0000 </r>
       <r>    3.2995    1.0000 </r>
       <r>    3.4364    1.0000 </r>
       <r>    4.0697    1.0000 </r>
       <r>    4.3434    1.0000 </r>
       <r>    4.8186    1.0000 </r>
       <r>    4.8334    1.0000 </r>
       <r>    5.3153    1.0000 </r>
       <r>    6.5272    0.0000 </r>
       <r>    7.7977    0.0000 </r>
       <r>    7.9346    0.0000 </r>
       <r>    8.8399    0.0000 </r>
       <r>    8.9960    0.0000 </r>
       <r>    9.3143    0.0000 </r>
       <r>    9.5362    0.0000 </r>
       <r>   10.5188    0.0000 </r>
       <r>   10.6272    0.0000 </r>
       <r>   11.0216    0.0000 </r>
       <r>   11.0929    0.0000 </r>
       <r>   11.5354    0.0000 </r>
       <r>   11.5747    0.0000 </r>
       <r>   11.8909    0.0000 </r>
       <r>   12.9377    0.0000 </r>
       <r>   13.7505    0.0000 </r>
       <r>   14.0166    0.0000 </r>
       <r>   14.5195    0.0000 </r>
       <r>   15.0426    0.0000 </r>
       <r>   15.6984    0.0000 </r>
       <r>   15.8555    0.0000 </r>
       <r>   16.2463    0.0000 </r>
       <r>   16.4173    0.0000 </r>
       <r>   16.8756    0.0000 </r>
      </set>
      <set comment="kpoint 15">
       <r>  -15.4074    1.0000 </r>
       <r>  -15.4074    1.0000 </r>
       <r>  -15.3970    1.0000 </r>
       <r>  -15.3970    1.0000 </r>
       <r>  -15.3905    1.0000 </r>
       <r>  -15.3905    1.0000 </r>
       <r>  -15.3879    1.0000 </r>
       <r>  -15.3879    1.0000 </r>
       <r>  -15.3801    1.0000 </r>
       <r>  -15.3801    1.0000 </r>
       <r>  -15.3642    1.0000 </r>
       <r>  -15.3642    1.0000 </r>
       <r>  -15.3540    1.0000 </r>
       <r>  -15.3540    1.0000 </r>
       <r>  -15.3350    1.0000 </r>
       <r>  -15.3350    1.0000 </r>
       <r>  -15.3329    1.0000 </r>
       <r>  -15.3329    1.0000 </r>
       <r>  -15.3121    1.0000 </r>
       <r>  -15.3121    1.0000 </r>
       <r>   -7.0955    1.0000 </r>
       <r>   -7.0955    1.0000 </r>
       <r>   -6.8014    1.0000 </r>
       <r>   -6.8014    1.0000 </r>
       <r>   -2.1247    1.0000 </r>
       <r>   -2.1247    1.0000 </r>
       <r>   -0.7578    1.0000 </r>
       <r>   -0.7578    1.0000 </r>
       <r>    1.7020    1.0000 </r>
       <r>    1.7020    1.0000 </r>
       <r>    1.9805    1.0000 </r>
       <r>    1.9805    1.0000 </r>
       <r>    2.7673    1.0000 </r>
       <r>    2.7673    1.0000 </r>
       <r>    3.4956    1.0000 </r>
       <r>    3.4956    1.0000 </r>
       <r>    4.5142    1.0000 </r>
       <r>    4.5142    1.0000 </r>
       <r>    5.0082    1.0000 </r>
       <r>    5.0082    1.0000 </r>
       <r>    7.0722    0.0000 </r>
       <r>    7.0722    0.0000 </r>
       <r>    8.6272    0.0000 </r>
       <r>    8.6272    0.0000 </r>
       <r>    9.6262    0.0000 </r>
       <r>    9.6262    0.0000 </r>
       <r>   10.1926    0.0000 </r>
       <r>   10.1926    0.0000 </r>
       <r>   10.5537    0.0000 </r>
       <r>   10.5537    0.0000 </r>
       <r>   11.2426    0.0000 </r>
       <r>   11.2426    0.0000 </r>
       <r>   11.6053    0.0000 </r>
       <r>   11.6053    0.0000 </r>
       <r>   13.2201    0.0000 </r>
       <r>   13.2201    0.0000 </r>
       <r>   15.2755    0.0000 </r>
       <r>   15.2755    0.0000 </r>
       <r>   15.7326    0.0000 </r>
       <r>   15.7326    0.0000 </r>
       <r>   16.0908    0.0000 </r>
       <r>   16.0908    0.0000 </r>
       <r>   17.0437    0.0000 </r>
       <r>   17.0437    0.0000 </r>
      </set>
      <set comment="kpoint 16">
       <r>  -15.4008    1.0000 </r>
       <r>  -15.3971    1.0000 </r>
       <r>  -15.3965    1.0000 </r>
       <r>  -15.3935    1.0000 </r>
       <r>  -15.3899    1.0000 </r>
       <r>  -15.3885    1.0000 </r>
       <r>  -15.3870    1.0000 </r>
       <r>  -15.3867    1.0000 </r>
       <r>  -15.3845    1.0000 </r>
       <r>  -15.3771    1.0000 </r>
       <r>  -15.3717    1.0000 </r>
       <r>  -15.3634    1.0000 </r>
       <r>  -15.3608    1.0000 </r>
       <r>  -15.3535    1.0000 </r>
       <r>  -15.3408    1.0000 </r>
       <r>  -15.3391    1.0000 </r>
       <r>  -15.3325    1.0000 </r>
       <r>  -15.3256    1.0000 </r>
       <r>  -15.3160    1.0000 </r>
       <r>  -15.3144    1.0000 </r>
       <r>   -7.5805    1.0000 </r>
       <r>   -7.2871    1.0000 </r>
       <r>   -6.8861    1.0000 </r>
       <r>   -6.6206    1.0000 </r>
       <r>   -2.1383    1.0000 </r>
       <r>   -1.3749    1.0000 </r>
       <r>   -1.2921    1.0000 </r>
       <r>   -0.7026    1.0000 </r>
       <r>    1.2294    1.0000 </r>
       <r>    2.7154    1.0000 </r>
       <r>    2.9593    1.0000 </r>
       <r>    3.1554    1.0000 </r>
       <r>    3.2483    1.0000 </r>
       <r>    3.4984    1.0000 </r>
       <r>    4.1035    1.0000 </r>
       <r>    4.2180    1.0000 </r>
       <r>    4.5871    1.0000 </r>
       <r>    4.9754    1.0000 </r>
       <r>    5.1124    1.0000 </r>
       <r>    5.7618    1.0000 </r>
       <r>    6.3125    0.0000 </r>
       <r>    7.0796    0.0000 </r>
       <r>    7.5278    0.0000 </r>
       <r>    7.6164    0.0000 </r>
       <r>    7.8398    0.0000 </r>
       <r>    8.3491    0.0000 </r>
       <r>    8.4151    0.0000 </r>
       <r>    9.2770    0.0000 </r>
       <r>    9.6774    0.0000 </r>
       <r>    9.8772    0.0000 </r>
       <r>   10.7331    0.0000 </r>
       <r>   11.1014    0.0000 </r>
       <r>   12.1113    0.0000 </r>
       <r>   12.6844    0.0000 </r>
       <r>   12.8398    0.0000 </r>
       <r>   13.1282    0.0000 </r>
       <r>   13.9942    0.0000 </r>
       <r>   14.1213    0.0000 </r>
       <r>   14.1647    0.0000 </r>
       <r>   14.6611    0.0000 </r>
       <r>   15.3713    0.0000 </r>
       <r>   15.4955    0.0000 </r>
       <r>   15.8731    0.0000 </r>
       <r>   16.4858    0.0000 </r>
      </set>
      <set comment="kpoint 17">
       <r>  -15.4040    1.0000 </r>
       <r>  -15.4000    1.0000 </r>
       <r>  -15.3969    1.0000 </r>
       <r>  -15.3948    1.0000 </r>
       <r>  -15.3895    1.0000 </r>
       <r>  -15.3878    1.0000 </r>
       <r>  -15.3868    1.0000 </r>
       <r>  -15.3849    1.0000 </r>
       <r>  -15.3837    1.0000 </r>
       <r>  -15.3773    1.0000 </r>
       <r>  -15.3711    1.0000 </r>
       <r>  -15.3635    1.0000 </r>
       <r>  -15.3594    1.0000 </r>
       <r>  -15.3527    1.0000 </r>
       <r>  -15.3403    1.0000 </r>
       <r>  -15.3387    1.0000 </r>
       <r>  -15.3326    1.0000 </r>
       <r>  -15.3261    1.0000 </r>
       <r>  -15.3159    1.0000 </r>
       <r>  -15.3143    1.0000 </r>
       <r>   -7.5173    1.0000 </r>
       <r>   -7.2320    1.0000 </r>
       <r>   -6.8609    1.0000 </r>
       <r>   -6.6062    1.0000 </r>
       <r>   -2.0954    1.0000 </r>
       <r>   -1.2818    1.0000 </r>
       <r>   -1.2315    1.0000 </r>
       <r>   -0.7391    1.0000 </r>
       <r>    1.3167    1.0000 </r>
       <r>    1.8253    1.0000 </r>
       <r>    2.2153    1.0000 </r>
       <r>    2.9616    1.0000 </r>
       <r>    3.4332    1.0000 </r>
       <r>    3.4947    1.0000 </r>
       <r>    4.0445    1.0000 </r>
       <r>    4.0689    1.0000 </r>
       <r>    4.6618    1.0000 </r>
       <r>    5.0406    1.0000 </r>
       <r>    5.1306    1.0000 </r>
       <r>    5.2329    1.0000 </r>
       <r>    6.8915    0.0000 </r>
       <r>    6.9977    0.0000 </r>
       <r>    7.0722    0.0000 </r>
       <r>    7.4218    0.0000 </r>
       <r>    8.4718    0.0000 </r>
       <r>    8.8385    0.0000 </r>
       <r>    9.0822    0.0000 </r>
       <r>    9.4108    0.0000 </r>
       <r>   10.1247    0.0000 </r>
       <r>   10.5959    0.0000 </r>
       <r>   10.8384    0.0000 </r>
       <r>   10.9844    0.0000 </r>
       <r>   11.6950    0.0000 </r>
       <r>   12.9129    0.0000 </r>
       <r>   13.0053    0.0000 </r>
       <r>   13.1811    0.0000 </r>
       <r>   13.8159    0.0000 </r>
       <r>   14.1557    0.0000 </r>
       <r>   14.2831    0.0000 </r>
       <r>   14.7222    0.0000 </r>
       <r>   15.3089    0.0000 </r>
       <r>   16.0294    0.0000 </r>
       <r>   16.4425    0.0000 </r>
       <r>   16.5784    0.0000 </r>
      </set>
      <set comment="kpoint 18">
       <r>  -15.4096    1.0000 </r>
       <r>  -15.4057    1.0000 </r>
       <r>  -15.3999    1.0000 </r>
       <r>  -15.3987    1.0000 </r>
       <r>  -15.3898    1.0000 </r>
       <r>  -15.3870    1.0000 </r>
       <r>  -15.3848    1.0000 </r>
       <r>  -15.3816    1.0000 </r>
       <r>  -15.3816    1.0000 </r>
       <r>  -15.3781    1.0000 </r>
       <r>  -15.3693    1.0000 </r>
       <r>  -15.3634    1.0000 </r>
       <r>  -15.3559    1.0000 </r>
       <r>  -15.3511    1.0000 </r>
       <r>  -15.3389    1.0000 </r>
       <r>  -15.3375    1.0000 </r>
       <r>  -15.3324    1.0000 </r>
       <r>  -15.3273    1.0000 </r>
       <r>  -15.3154    1.0000 </r>
       <r>  -15.3141    1.0000 </r>
       <r>   -7.3443    1.0000 </r>
       <r>   -7.0821    1.0000 </r>
       <r>   -6.8111    1.0000 </r>
       <r>   -6.5832    1.0000 </r>
       <r>   -1.9961    1.0000 </r>
       <r>   -1.1570    1.0000 </r>
       <r>   -1.0297    1.0000 </r>
       <r>   -0.8173    1.0000 </r>
       <r>    1.0338    1.0000 </r>
       <r>    1.4444    1.0000 </r>
       <r>    1.5444    1.0000 </r>
       <r>    2.2895    1.0000 </r>
       <r>    2.5695    1.0000 </r>
       <r>    3.4098    1.0000 </r>
       <r>    3.4928    1.0000 </r>
       <r>    3.9518    1.0000 </r>
       <r>    4.2785    1.0000 </r>
       <r>    4.3827    1.0000 </r>
       <r>    4.7335    1.0000 </r>
       <r>    5.2835    1.0000 </r>
       <r>    6.4035    0.0000 </r>
       <r>    7.8284    0.0000 </r>
       <r>    8.2144    0.0000 </r>
       <r>    8.5296    0.0000 </r>
       <r>    8.8279    0.0000 </r>
       <r>    9.2999    0.0000 </r>
       <r>    9.7940    0.0000 </r>
       <r>   10.2613    0.0000 </r>
       <r>   10.6323    0.0000 </r>
       <r>   10.7590    0.0000 </r>
       <r>   11.3858    0.0000 </r>
       <r>   11.4948    0.0000 </r>
       <r>   11.7432    0.0000 </r>
       <r>   11.8047    0.0000 </r>
       <r>   13.2755    0.0000 </r>
       <r>   14.0108    0.0000 </r>
       <r>   14.0868    0.0000 </r>
       <r>   14.1936    0.0000 </r>
       <r>   14.9136    0.0000 </r>
       <r>   15.2663    0.0000 </r>
       <r>   15.9073    0.0000 </r>
       <r>   15.9432    0.0000 </r>
       <r>   16.1505    0.0000 </r>
       <r>   16.7191    0.0000 </r>
      </set>
      <set comment="kpoint 19">
       <r>  -15.4140    1.0000 </r>
       <r>  -15.4116    1.0000 </r>
       <r>  -15.4033    1.0000 </r>
       <r>  -15.4027    1.0000 </r>
       <r>  -15.3894    1.0000 </r>
       <r>  -15.3874    1.0000 </r>
       <r>  -15.3827    1.0000 </r>
       <r>  -15.3804    1.0000 </r>
       <r>  -15.3790    1.0000 </r>
       <r>  -15.3785    1.0000 </r>
       <r>  -15.3671    1.0000 </r>
       <r>  -15.3637    1.0000 </r>
       <r>  -15.3520    1.0000 </r>
       <r>  -15.3497    1.0000 </r>
       <r>  -15.3372    1.0000 </r>
       <r>  -15.3364    1.0000 </r>
       <r>  -15.3315    1.0000 </r>
       <r>  -15.3286    1.0000 </r>
       <r>  -15.3148    1.0000 </r>
       <r>  -15.3141    1.0000 </r>
       <r>   -7.1133    1.0000 </r>
       <r>   -6.8834    1.0000 </r>
       <r>   -6.8050    1.0000 </r>
       <r>   -6.6012    1.0000 </r>
       <r>   -1.8824    1.0000 </r>
       <r>   -1.3921    1.0000 </r>
       <r>   -0.7418    1.0000 </r>
       <r>   -0.7152    1.0000 </r>
       <r>    0.7340    1.0000 </r>
       <r>    1.1348    1.0000 </r>
       <r>    1.5530    1.0000 </r>
       <r>    1.8535    1.0000 </r>
       <r>    2.1812    1.0000 </r>
       <r>    2.6779    1.0000 </r>
       <r>    2.9293    1.0000 </r>
       <r>    3.4778    1.0000 </r>
       <r>    3.6013    1.0000 </r>
       <r>    4.1119    1.0000 </r>
       <r>    4.6510    1.0000 </r>
       <r>    4.7948    1.0000 </r>
       <r>    6.8455    0.0000 </r>
       <r>    8.4338    0.0000 </r>
       <r>    8.9553    0.0000 </r>
       <r>    9.1990    0.0000 </r>
       <r>    9.9116    0.0000 </r>
       <r>    9.9324    0.0000 </r>
       <r>   10.3748    0.0000 </r>
       <r>   10.6950    0.0000 </r>
       <r>   10.7325    0.0000 </r>
       <r>   10.9587    0.0000 </r>
       <r>   11.5051    0.0000 </r>
       <r>   11.6200    0.0000 </r>
       <r>   11.8151    0.0000 </r>
       <r>   12.1746    0.0000 </r>
       <r>   12.7278    0.0000 </r>
       <r>   13.4304    0.0000 </r>
       <r>   15.1700    0.0000 </r>
       <r>   15.3271    0.0000 </r>
       <r>   15.7559    0.0000 </r>
       <r>   15.8317    0.0000 </r>
       <r>   16.0739    0.0000 </r>
       <r>   16.5602    0.0000 </r>
       <r>   16.8518    0.0000 </r>
       <r>   17.1899    0.0000 </r>
      </set>
      <set comment="kpoint 20">
       <r>  -15.4148    1.0000 </r>
       <r>  -15.4148    1.0000 </r>
       <r>  -15.4046    1.0000 </r>
       <r>  -15.4046    1.0000 </r>
       <r>  -15.3885    1.0000 </r>
       <r>  -15.3885    1.0000 </r>
       <r>  -15.3813    1.0000 </r>
       <r>  -15.3813    1.0000 </r>
       <r>  -15.3780    1.0000 </r>
       <r>  -15.3780    1.0000 </r>
       <r>  -15.3650    1.0000 </r>
       <r>  -15.3650    1.0000 </r>
       <r>  -15.3498    1.0000 </r>
       <r>  -15.3498    1.0000 </r>
       <r>  -15.3362    1.0000 </r>
       <r>  -15.3362    1.0000 </r>
       <r>  -15.3299    1.0000 </r>
       <r>  -15.3299    1.0000 </r>
       <r>  -15.3143    1.0000 </r>
       <r>  -15.3143    1.0000 </r>
       <r>   -6.9079    1.0000 </r>
       <r>   -6.9079    1.0000 </r>
       <r>   -6.7037    1.0000 </r>
       <r>   -6.7037    1.0000 </r>
       <r>   -1.6985    1.0000 </r>
       <r>   -1.6985    1.0000 </r>
       <r>   -0.6351    1.0000 </r>
       <r>   -0.6351    1.0000 </r>
       <r>    0.9965    1.0000 </r>
       <r>    0.9965    1.0000 </r>
       <r>    1.4215    1.0000 </r>
       <r>    1.4215    1.0000 </r>
       <r>    2.2786    1.0000 </r>
       <r>    2.2786    1.0000 </r>
       <r>    2.9899    1.0000 </r>
       <r>    2.9899    1.0000 </r>
       <r>    3.6503    1.0000 </r>
       <r>    3.6503    1.0000 </r>
       <r>    4.6327    1.0000 </r>
       <r>    4.6327    1.0000 </r>
       <r>    7.6093    0.0000 </r>
       <r>    7.6093    0.0000 </r>
       <r>    9.5250    0.0000 </r>
       <r>    9.5250    0.0000 </r>
       <r>   10.4070    0.0000 </r>
       <r>   10.4070    0.0000 </r>
       <r>   10.7722    0.0000 </r>
       <r>   10.7722    0.0000 </r>
       <r>   10.8784    0.0000 </r>
       <r>   10.8784    0.0000 </r>
       <r>   11.6751    0.0000 </r>
       <r>   11.6751    0.0000 </r>
       <r>   11.9667    0.0000 </r>
       <r>   11.9667    0.0000 </r>
       <r>   12.7725    0.0000 </r>
       <r>   12.7725    0.0000 </r>
       <r>   15.8756    0.0000 </r>
       <r>   15.8756    0.0000 </r>
       <r>   16.4524    0.0000 </r>
       <r>   16.4524    0.0000 </r>
       <r>   16.6487    0.0000 </r>
       <r>   16.6487    0.0000 </r>
       <r>   17.3041    0.0000 </r>
       <r>   17.3041    0.0000 </r>
      </set>
      <set comment="kpoint 21">
       <r>  -15.4030    1.0000 </r>
       <r>  -15.4016    1.0000 </r>
       <r>  -15.3975    1.0000 </r>
       <r>  -15.3958    1.0000 </r>
       <r>  -15.3875    1.0000 </r>
       <r>  -15.3875    1.0000 </r>
       <r>  -15.3866    1.0000 </r>
       <r>  -15.3847    1.0000 </r>
       <r>  -15.3786    1.0000 </r>
       <r>  -15.3717    1.0000 </r>
       <r>  -15.3702    1.0000 </r>
       <r>  -15.3692    1.0000 </r>
       <r>  -15.3539    1.0000 </r>
       <r>  -15.3492    1.0000 </r>
       <r>  -15.3469    1.0000 </r>
       <r>  -15.3450    1.0000 </r>
       <r>  -15.3259    1.0000 </r>
       <r>  -15.3212    1.0000 </r>
       <r>  -15.3196    1.0000 </r>
       <r>  -15.3178    1.0000 </r>
       <r>   -7.2069    1.0000 </r>
       <r>   -7.0440    1.0000 </r>
       <r>   -6.8934    1.0000 </r>
       <r>   -6.8586    1.0000 </r>
       <r>   -2.2086    1.0000 </r>
       <r>   -1.9207    1.0000 </r>
       <r>   -1.4593    1.0000 </r>
       <r>   -1.1979    1.0000 </r>
       <r>    1.7744    1.0000 </r>
       <r>    2.3767    1.0000 </r>
       <r>    3.3411    1.0000 </r>
       <r>    3.5614    1.0000 </r>
       <r>    3.6833    1.0000 </r>
       <r>    3.7640    1.0000 </r>
       <r>    3.8207    1.0000 </r>
       <r>    4.3460    1.0000 </r>
       <r>    4.9300    1.0000 </r>
       <r>    4.9418    1.0000 </r>
       <r>    5.0372    1.0000 </r>
       <r>    5.1794    1.0000 </r>
       <r>    6.7979    0.0000 </r>
       <r>    6.8947    0.0000 </r>
       <r>    7.0048    0.0000 </r>
       <r>    7.3639    0.0000 </r>
       <r>    7.4297    0.0000 </r>
       <r>    7.6371    0.0000 </r>
       <r>    8.1778    0.0000 </r>
       <r>    8.5711    0.0000 </r>
       <r>    8.9439    0.0000 </r>
       <r>    9.1205    0.0000 </r>
       <r>   10.9511    0.0000 </r>
       <r>   11.1200    0.0000 </r>
       <r>   12.7586    0.0000 </r>
       <r>   12.9584    0.0000 </r>
       <r>   13.3748    0.0000 </r>
       <r>   13.5822    0.0000 </r>
       <r>   14.4798    0.0000 </r>
       <r>   14.9107    0.0000 </r>
       <r>   15.1536    0.0000 </r>
       <r>   15.6598    0.0000 </r>
       <r>   15.7472    0.0000 </r>
       <r>   16.2643    0.0000 </r>
       <r>   16.5609    0.0000 </r>
       <r>   16.7128    0.0000 </r>
      </set>
      <set comment="kpoint 22">
       <r>  -15.4060    1.0000 </r>
       <r>  -15.4045    1.0000 </r>
       <r>  -15.3990    1.0000 </r>
       <r>  -15.3978    1.0000 </r>
       <r>  -15.3878    1.0000 </r>
       <r>  -15.3873    1.0000 </r>
       <r>  -15.3849    1.0000 </r>
       <r>  -15.3839    1.0000 </r>
       <r>  -15.3774    1.0000 </r>
       <r>  -15.3717    1.0000 </r>
       <r>  -15.3699    1.0000 </r>
       <r>  -15.3687    1.0000 </r>
       <r>  -15.3531    1.0000 </r>
       <r>  -15.3495    1.0000 </r>
       <r>  -15.3451    1.0000 </r>
       <r>  -15.3441    1.0000 </r>
       <r>  -15.3261    1.0000 </r>
       <r>  -15.3223    1.0000 </r>
       <r>  -15.3188    1.0000 </r>
       <r>  -15.3176    1.0000 </r>
       <r>   -7.1560    1.0000 </r>
       <r>   -6.9999    1.0000 </r>
       <r>   -6.8611    1.0000 </r>
       <r>   -6.8252    1.0000 </r>
       <r>   -2.1124    1.0000 </r>
       <r>   -1.8215    1.0000 </r>
       <r>   -1.3738    1.0000 </r>
       <r>   -1.1537    1.0000 </r>
       <r>    1.8135    1.0000 </r>
       <r>    2.1465    1.0000 </r>
       <r>    2.3893    1.0000 </r>
       <r>    2.9455    1.0000 </r>
       <r>    3.2109    1.0000 </r>
       <r>    3.2507    1.0000 </r>
       <r>    4.2337    1.0000 </r>
       <r>    4.3240    1.0000 </r>
       <r>    4.3417    1.0000 </r>
       <r>    4.5812    1.0000 </r>
       <r>    5.1739    1.0000 </r>
       <r>    5.2249    1.0000 </r>
       <r>    6.6232    0.0000 </r>
       <r>    6.6307    0.0000 </r>
       <r>    7.2915    0.0000 </r>
       <r>    7.5760    0.0000 </r>
       <r>    8.4035    0.0000 </r>
       <r>    8.5204    0.0000 </r>
       <r>    8.8341    0.0000 </r>
       <r>    9.2814    0.0000 </r>
       <r>    9.3955    0.0000 </r>
       <r>   10.0464    0.0000 </r>
       <r>   10.7767    0.0000 </r>
       <r>   10.8920    0.0000 </r>
       <r>   11.8331    0.0000 </r>
       <r>   12.1911    0.0000 </r>
       <r>   14.0474    0.0000 </r>
       <r>   14.4331    0.0000 </r>
       <r>   14.6897    0.0000 </r>
       <r>   14.9327    0.0000 </r>
       <r>   15.1806    0.0000 </r>
       <r>   15.3416    0.0000 </r>
       <r>   15.7968    0.0000 </r>
       <r>   16.2165    0.0000 </r>
       <r>   16.4878    0.0000 </r>
       <r>   16.5390    0.0000 </r>
      </set>
      <set comment="kpoint 23">
       <r>  -15.4123    1.0000 </r>
       <r>  -15.4109    1.0000 </r>
       <r>  -15.4032    1.0000 </r>
       <r>  -15.4026    1.0000 </r>
       <r>  -15.3876    1.0000 </r>
       <r>  -15.3867    1.0000 </r>
       <r>  -15.3823    1.0000 </r>
       <r>  -15.3822    1.0000 </r>
       <r>  -15.3753    1.0000 </r>
       <r>  -15.3720    1.0000 </r>
       <r>  -15.3691    1.0000 </r>
       <r>  -15.3677    1.0000 </r>
       <r>  -15.3508    1.0000 </r>
       <r>  -15.3487    1.0000 </r>
       <r>  -15.3420    1.0000 </r>
       <r>  -15.3418    1.0000 </r>
       <r>  -15.3264    1.0000 </r>
       <r>  -15.3237    1.0000 </r>
       <r>  -15.3178    1.0000 </r>
       <r>  -15.3172    1.0000 </r>
       <r>   -7.0219    1.0000 </r>
       <r>   -6.8858    1.0000 </r>
       <r>   -6.7856    1.0000 </r>
       <r>   -6.7453    1.0000 </r>
       <r>   -1.8419    1.0000 </r>
       <r>   -1.5439    1.0000 </r>
       <r>   -1.1405    1.0000 </r>
       <r>   -1.0556    1.0000 </r>
       <r>    1.2386    1.0000 </r>
       <r>    1.7364    1.0000 </r>
       <r>    1.7401    1.0000 </r>
       <r>    1.9854    1.0000 </r>
       <r>    2.4578    1.0000 </r>
       <r>    2.9245    1.0000 </r>
       <r>    3.3435    1.0000 </r>
       <r>    3.5661    1.0000 </r>
       <r>    3.5992    1.0000 </r>
       <r>    4.0704    1.0000 </r>
       <r>    4.8230    1.0000 </r>
       <r>    4.9977    1.0000 </r>
       <r>    6.7565    0.0000 </r>
       <r>    7.4694    0.0000 </r>
       <r>    8.5799    0.0000 </r>
       <r>    8.9162    0.0000 </r>
       <r>    9.4842    0.0000 </r>
       <r>    9.6050    0.0000 </r>
       <r>   10.0232    0.0000 </r>
       <r>   10.2316    0.0000 </r>
       <r>   10.3495    0.0000 </r>
       <r>   10.6063    0.0000 </r>
       <r>   10.7811    0.0000 </r>
       <r>   11.4100    0.0000 </r>
       <r>   11.4586    0.0000 </r>
       <r>   11.5431    0.0000 </r>
       <r>   13.3665    0.0000 </r>
       <r>   13.6435    0.0000 </r>
       <r>   15.2165    0.0000 </r>
       <r>   15.4386    0.0000 </r>
       <r>   15.6524    0.0000 </r>
       <r>   16.2940    0.0000 </r>
       <r>   16.4006    0.0000 </r>
       <r>   16.6774    0.0000 </r>
       <r>   16.9524    0.0000 </r>
       <r>   17.1801    0.0000 </r>
      </set>
      <set comment="kpoint 24">
       <r>  -15.4179    1.0000 </r>
       <r>  -15.4170    1.0000 </r>
       <r>  -15.4076    1.0000 </r>
       <r>  -15.4074    1.0000 </r>
       <r>  -15.3874    1.0000 </r>
       <r>  -15.3866    1.0000 </r>
       <r>  -15.3805    1.0000 </r>
       <r>  -15.3802    1.0000 </r>
       <r>  -15.3737    1.0000 </r>
       <r>  -15.3723    1.0000 </r>
       <r>  -15.3682    1.0000 </r>
       <r>  -15.3672    1.0000 </r>
       <r>  -15.3480    1.0000 </r>
       <r>  -15.3471    1.0000 </r>
       <r>  -15.3395    1.0000 </r>
       <r>  -15.3394    1.0000 </r>
       <r>  -15.3260    1.0000 </r>
       <r>  -15.3246    1.0000 </r>
       <r>  -15.3171    1.0000 </r>
       <r>  -15.3168    1.0000 </r>
       <r>   -6.8595    1.0000 </r>
       <r>   -6.7531    1.0000 </r>
       <r>   -6.7250    1.0000 </r>
       <r>   -6.6728    1.0000 </r>
       <r>   -1.4768    1.0000 </r>
       <r>   -1.2114    1.0000 </r>
       <r>   -0.9487    1.0000 </r>
       <r>   -0.8557    1.0000 </r>
       <r>    0.6183    1.0000 </r>
       <r>    1.0091    1.0000 </r>
       <r>    1.2555    1.0000 </r>
       <r>    1.5484    1.0000 </r>
       <r>    2.0402    1.0000 </r>
       <r>    2.2109    1.0000 </r>
       <r>    2.7126    1.0000 </r>
       <r>    3.1526    1.0000 </r>
       <r>    3.2980    1.0000 </r>
       <r>    3.4374    1.0000 </r>
       <r>    4.5101    1.0000 </r>
       <r>    4.5588    1.0000 </r>
       <r>    7.5231    0.0000 </r>
       <r>    8.2795    0.0000 </r>
       <r>    9.0676    0.0000 </r>
       <r>    9.3941    0.0000 </r>
       <r>   10.2725    0.0000 </r>
       <r>   10.3170    0.0000 </r>
       <r>   10.4448    0.0000 </r>
       <r>   10.8152    0.0000 </r>
       <r>   10.8382    0.0000 </r>
       <r>   11.3177    0.0000 </r>
       <r>   11.7779    0.0000 </r>
       <r>   11.9190    0.0000 </r>
       <r>   12.0366    0.0000 </r>
       <r>   12.4322    0.0000 </r>
       <r>   12.7732    0.0000 </r>
       <r>   13.0627    0.0000 </r>
       <r>   15.5951    0.0000 </r>
       <r>   15.7642    0.0000 </r>
       <r>   16.6821    0.0000 </r>
       <r>   16.7623    0.0000 </r>
       <r>   16.9883    0.0000 </r>
       <r>   17.1409    0.0000 </r>
       <r>   17.5945    0.0000 </r>
       <r>   17.6415    0.0000 </r>
      </set>
      <set comment="kpoint 25">
       <r>  -15.4198    1.0000 </r>
       <r>  -15.4198    1.0000 </r>
       <r>  -15.4094    1.0000 </r>
       <r>  -15.4094    1.0000 </r>
       <r>  -15.3871    1.0000 </r>
       <r>  -15.3871    1.0000 </r>
       <r>  -15.3796    1.0000 </r>
       <r>  -15.3796    1.0000 </r>
       <r>  -15.3728    1.0000 </r>
       <r>  -15.3728    1.0000 </r>
       <r>  -15.3675    1.0000 </r>
       <r>  -15.3675    1.0000 </r>
       <r>  -15.3465    1.0000 </r>
       <r>  -15.3465    1.0000 </r>
       <r>  -15.3385    1.0000 </r>
       <r>  -15.3385    1.0000 </r>
       <r>  -15.3253    1.0000 </r>
       <r>  -15.3253    1.0000 </r>
       <r>  -15.3167    1.0000 </r>
       <r>  -15.3167    1.0000 </r>
       <r>   -6.7438    1.0000 </r>
       <r>   -6.7438    1.0000 </r>
       <r>   -6.6687    1.0000 </r>
       <r>   -6.6687    1.0000 </r>
       <r>   -1.2043    1.0000 </r>
       <r>   -1.2043    1.0000 </r>
       <r>   -0.7569    1.0000 </r>
       <r>   -0.7569    1.0000 </r>
       <r>    0.5466    1.0000 </r>
       <r>    0.5466    1.0000 </r>
       <r>    1.1563    1.0000 </r>
       <r>    1.1563    1.0000 </r>
       <r>    1.9089    1.0000 </r>
       <r>    1.9089    1.0000 </r>
       <r>    2.6444    1.0000 </r>
       <r>    2.6444    1.0000 </r>
       <r>    3.3510    1.0000 </r>
       <r>    3.3510    1.0000 </r>
       <r>    4.3832    1.0000 </r>
       <r>    4.3832    1.0000 </r>
       <r>    8.2256    0.0000 </r>
       <r>    8.2256    0.0000 </r>
       <r>    9.0973    0.0000 </r>
       <r>    9.0973    0.0000 </r>
       <r>   10.3731    0.0000 </r>
       <r>   10.3731    0.0000 </r>
       <r>   10.8157    0.0000 </r>
       <r>   10.8157    0.0000 </r>
       <r>   11.7057    0.0000 </r>
       <r>   11.7057    0.0000 </r>
       <r>   12.3272    0.0000 </r>
       <r>   12.3272    0.0000 </r>
       <r>   12.6691    0.0000 </r>
       <r>   12.6691    0.0000 </r>
       <r>   12.8314    0.0000 </r>
       <r>   12.8314    0.0000 </r>
       <r>   15.9983    0.0000 </r>
       <r>   15.9983    0.0000 </r>
       <r>   16.6999    0.0000 </r>
       <r>   16.6999    0.0000 </r>
       <r>   16.9513    0.0000 </r>
       <r>   16.9513    0.0000 </r>
       <r>   17.7941    0.0000 </r>
       <r>   17.7943    0.0000 </r>
      </set>
      <set comment="kpoint 26">
       <r>  -15.4136    1.0000 </r>
       <r>  -15.4048    1.0000 </r>
       <r>  -15.3953    1.0000 </r>
       <r>  -15.3926    1.0000 </r>
       <r>  -15.3892    1.0000 </r>
       <r>  -15.3870    1.0000 </r>
       <r>  -15.3870    1.0000 </r>
       <r>  -15.3828    1.0000 </r>
       <r>  -15.3781    1.0000 </r>
       <r>  -15.3770    1.0000 </r>
       <r>  -15.3762    1.0000 </r>
       <r>  -15.3746    1.0000 </r>
       <r>  -15.3635    1.0000 </r>
       <r>  -15.3611    1.0000 </r>
       <r>  -15.3421    1.0000 </r>
       <r>  -15.3382    1.0000 </r>
       <r>  -15.3304    1.0000 </r>
       <r>  -15.3273    1.0000 </r>
       <r>  -15.3113    1.0000 </r>
       <r>  -15.3067    1.0000 </r>
       <r>   -8.1042    1.0000 </r>
       <r>   -7.9122    1.0000 </r>
       <r>   -6.9104    1.0000 </r>
       <r>   -6.6221    1.0000 </r>
       <r>   -1.3003    1.0000 </r>
       <r>   -0.8576    1.0000 </r>
       <r>    0.7184    1.0000 </r>
       <r>    0.8221    1.0000 </r>
       <r>    1.2100    1.0000 </r>
       <r>    2.0497    1.0000 </r>
       <r>    2.4200    1.0000 </r>
       <r>    2.5376    1.0000 </r>
       <r>    2.6755    1.0000 </r>
       <r>    3.0360    1.0000 </r>
       <r>    3.6816    1.0000 </r>
       <r>    3.7018    1.0000 </r>
       <r>    3.7111    1.0000 </r>
       <r>    4.0695    1.0000 </r>
       <r>    5.2292    1.0000 </r>
       <r>    5.2998    1.0000 </r>
       <r>    7.6440    0.0000 </r>
       <r>    8.4702    0.0000 </r>
       <r>    8.5583    0.0000 </r>
       <r>    9.0646    0.0000 </r>
       <r>    9.5124    0.0000 </r>
       <r>    9.6564    0.0000 </r>
       <r>    9.9161    0.0000 </r>
       <r>   10.1159    0.0000 </r>
       <r>   10.6535    0.0000 </r>
       <r>   10.8251    0.0000 </r>
       <r>   11.3398    0.0000 </r>
       <r>   11.3744    0.0000 </r>
       <r>   11.6249    0.0000 </r>
       <r>   11.8700    0.0000 </r>
       <r>   12.1847    0.0000 </r>
       <r>   12.4547    0.0000 </r>
       <r>   13.0040    0.0000 </r>
       <r>   13.3953    0.0000 </r>
       <r>   13.9222    0.0000 </r>
       <r>   14.3265    0.0000 </r>
       <r>   14.5201    0.0000 </r>
       <r>   14.5416    0.0000 </r>
       <r>   14.8599    0.0000 </r>
       <r>   14.8641    0.0000 </r>
      </set>
      <set comment="kpoint 27">
       <r>  -15.4126    1.0000 </r>
       <r>  -15.4043    1.0000 </r>
       <r>  -15.3941    1.0000 </r>
       <r>  -15.3916    1.0000 </r>
       <r>  -15.3901    1.0000 </r>
       <r>  -15.3881    1.0000 </r>
       <r>  -15.3873    1.0000 </r>
       <r>  -15.3831    1.0000 </r>
       <r>  -15.3785    1.0000 </r>
       <r>  -15.3767    1.0000 </r>
       <r>  -15.3760    1.0000 </r>
       <r>  -15.3728    1.0000 </r>
       <r>  -15.3628    1.0000 </r>
       <r>  -15.3611    1.0000 </r>
       <r>  -15.3422    1.0000 </r>
       <r>  -15.3382    1.0000 </r>
       <r>  -15.3306    1.0000 </r>
       <r>  -15.3277    1.0000 </r>
       <r>  -15.3112    1.0000 </r>
       <r>  -15.3069    1.0000 </r>
       <r>   -8.0314    1.0000 </r>
       <r>   -7.8432    1.0000 </r>
       <r>   -6.8951    1.0000 </r>
       <r>   -6.6228    1.0000 </r>
       <r>   -1.5707    1.0000 </r>
       <r>   -1.0854    1.0000 </r>
       <r>    0.2640    1.0000 </r>
       <r>    0.4916    1.0000 </r>
       <r>    1.2648    1.0000 </r>
       <r>    2.2082    1.0000 </r>
       <r>    2.5300    1.0000 </r>
       <r>    2.7808    1.0000 </r>
       <r>    2.8290    1.0000 </r>
       <r>    3.2204    1.0000 </r>
       <r>    3.7762    1.0000 </r>
       <r>    3.8758    1.0000 </r>
       <r>    4.1278    1.0000 </r>
       <r>    4.2414    1.0000 </r>
       <r>    5.1240    1.0000 </r>
       <r>    5.3020    1.0000 </r>
       <r>    7.5985    0.0000 </r>
       <r>    8.3114    0.0000 </r>
       <r>    8.7523    0.0000 </r>
       <r>    9.0115    0.0000 </r>
       <r>    9.0150    0.0000 </r>
       <r>    9.3356    0.0000 </r>
       <r>    9.4449    0.0000 </r>
       <r>    9.9349    0.0000 </r>
       <r>   10.4722    0.0000 </r>
       <r>   10.8553    0.0000 </r>
       <r>   10.9877    0.0000 </r>
       <r>   11.2837    0.0000 </r>
       <r>   11.3683    0.0000 </r>
       <r>   11.5290    0.0000 </r>
       <r>   12.1197    0.0000 </r>
       <r>   12.6528    0.0000 </r>
       <r>   12.9636    0.0000 </r>
       <r>   13.4690    0.0000 </r>
       <r>   13.9369    0.0000 </r>
       <r>   14.1448    0.0000 </r>
       <r>   15.0442    0.0000 </r>
       <r>   15.2498    0.0000 </r>
       <r>   15.4301    0.0000 </r>
       <r>   15.5266    0.0000 </r>
      </set>
      <set comment="kpoint 28">
       <r>  -15.4099    1.0000 </r>
       <r>  -15.4034    1.0000 </r>
       <r>  -15.3924    1.0000 </r>
       <r>  -15.3917    1.0000 </r>
       <r>  -15.3908    1.0000 </r>
       <r>  -15.3898    1.0000 </r>
       <r>  -15.3878    1.0000 </r>
       <r>  -15.3845    1.0000 </r>
       <r>  -15.3791    1.0000 </r>
       <r>  -15.3775    1.0000 </r>
       <r>  -15.3729    1.0000 </r>
       <r>  -15.3687    1.0000 </r>
       <r>  -15.3617    1.0000 </r>
       <r>  -15.3604    1.0000 </r>
       <r>  -15.3421    1.0000 </r>
       <r>  -15.3384    1.0000 </r>
       <r>  -15.3310    1.0000 </r>
       <r>  -15.3286    1.0000 </r>
       <r>  -15.3107    1.0000 </r>
       <r>  -15.3075    1.0000 </r>
       <r>   -7.8268    1.0000 </r>
       <r>   -7.6502    1.0000 </r>
       <r>   -6.8785    1.0000 </r>
       <r>   -6.6497    1.0000 </r>
       <r>   -2.0867    1.0000 </r>
       <r>   -1.6020    1.0000 </r>
       <r>   -0.4997    1.0000 </r>
       <r>   -0.1504    1.0000 </r>
       <r>    1.4564    1.0000 </r>
       <r>    2.5002    1.0000 </r>
       <r>    2.8443    1.0000 </r>
       <r>    3.0792    1.0000 </r>
       <r>    3.3239    1.0000 </r>
       <r>    3.6296    1.0000 </r>
       <r>    3.9541    1.0000 </r>
       <r>    4.2525    1.0000 </r>
       <r>    4.4977    1.0000 </r>
       <r>    4.7454    1.0000 </r>
       <r>    5.0999    1.0000 </r>
       <r>    5.3936    1.0000 </r>
       <r>    7.4742    0.0000 </r>
       <r>    7.7950    0.0000 </r>
       <r>    8.0846    0.0000 </r>
       <r>    8.3044    0.0000 </r>
       <r>    8.5216    0.0000 </r>
       <r>    8.6433    0.0000 </r>
       <r>    9.1235    0.0000 </r>
       <r>    9.8357    0.0000 </r>
       <r>    9.8633    0.0000 </r>
       <r>   10.3579    0.0000 </r>
       <r>   10.6801    0.0000 </r>
       <r>   10.8274    0.0000 </r>
       <r>   11.4150    0.0000 </r>
       <r>   11.6860    0.0000 </r>
       <r>   12.5946    0.0000 </r>
       <r>   13.1160    0.0000 </r>
       <r>   13.2894    0.0000 </r>
       <r>   13.8862    0.0000 </r>
       <r>   14.1980    0.0000 </r>
       <r>   14.2215    0.0000 </r>
       <r>   15.2608    0.0000 </r>
       <r>   15.6595    0.0000 </r>
       <r>   16.4123    0.0000 </r>
       <r>   16.5602    0.0000 </r>
      </set>
      <set comment="kpoint 29">
       <r>  -15.4065    1.0000 </r>
       <r>  -15.4028    1.0000 </r>
       <r>  -15.3946    1.0000 </r>
       <r>  -15.3937    1.0000 </r>
       <r>  -15.3900    1.0000 </r>
       <r>  -15.3888    1.0000 </r>
       <r>  -15.3883    1.0000 </r>
       <r>  -15.3865    1.0000 </r>
       <r>  -15.3792    1.0000 </r>
       <r>  -15.3782    1.0000 </r>
       <r>  -15.3688    1.0000 </r>
       <r>  -15.3654    1.0000 </r>
       <r>  -15.3612    1.0000 </r>
       <r>  -15.3593    1.0000 </r>
       <r>  -15.3411    1.0000 </r>
       <r>  -15.3388    1.0000 </r>
       <r>  -15.3308    1.0000 </r>
       <r>  -15.3295    1.0000 </r>
       <r>  -15.3100    1.0000 </r>
       <r>  -15.3083    1.0000 </r>
       <r>   -7.5382    1.0000 </r>
       <r>   -7.3879    1.0000 </r>
       <r>   -6.9251    1.0000 </r>
       <r>   -6.7561    1.0000 </r>
       <r>   -2.4398    1.0000 </r>
       <r>   -2.1112    1.0000 </r>
       <r>   -1.0363    1.0000 </r>
       <r>   -0.7729    1.0000 </r>
       <r>    1.8779    1.0000 </r>
       <r>    2.8102    1.0000 </r>
       <r>    3.2854    1.0000 </r>
       <r>    3.3010    1.0000 </r>
       <r>    3.4986    1.0000 </r>
       <r>    3.9511    1.0000 </r>
       <r>    4.0776    1.0000 </r>
       <r>    4.2853    1.0000 </r>
       <r>    4.8168    1.0000 </r>
       <r>    4.9855    1.0000 </r>
       <r>    5.6265    1.0000 </r>
       <r>    5.8326    1.0000 </r>
       <r>    6.8893    0.0000 </r>
       <r>    7.3003    0.0000 </r>
       <r>    7.3941    0.0000 </r>
       <r>    7.7268    0.0000 </r>
       <r>    7.7637    0.0000 </r>
       <r>    8.1448    0.0000 </r>
       <r>    8.6011    0.0000 </r>
       <r>    9.0545    0.0000 </r>
       <r>    9.4047    0.0000 </r>
       <r>    9.4419    0.0000 </r>
       <r>   10.9307    0.0000 </r>
       <r>   11.1892    0.0000 </r>
       <r>   12.5582    0.0000 </r>
       <r>   12.8021    0.0000 </r>
       <r>   13.1938    0.0000 </r>
       <r>   13.5656    0.0000 </r>
       <r>   13.8594    0.0000 </r>
       <r>   14.3196    0.0000 </r>
       <r>   14.5810    0.0000 </r>
       <r>   14.5911    0.0000 </r>
       <r>   15.3807    0.0000 </r>
       <r>   15.5756    0.0000 </r>
       <r>   15.5868    0.0000 </r>
       <r>   16.3932    0.0000 </r>
      </set>
      <set comment="kpoint 30">
       <r>  -15.4038    1.0000 </r>
       <r>  -15.4038    1.0000 </r>
       <r>  -15.3952    1.0000 </r>
       <r>  -15.3952    1.0000 </r>
       <r>  -15.3890    1.0000 </r>
       <r>  -15.3890    1.0000 </r>
       <r>  -15.3880    1.0000 </r>
       <r>  -15.3880    1.0000 </r>
       <r>  -15.3788    1.0000 </r>
       <r>  -15.3788    1.0000 </r>
       <r>  -15.3657    1.0000 </r>
       <r>  -15.3657    1.0000 </r>
       <r>  -15.3598    1.0000 </r>
       <r>  -15.3598    1.0000 </r>
       <r>  -15.3397    1.0000 </r>
       <r>  -15.3397    1.0000 </r>
       <r>  -15.3302    1.0000 </r>
       <r>  -15.3302    1.0000 </r>
       <r>  -15.3092    1.0000 </r>
       <r>  -15.3092    1.0000 </r>
       <r>   -7.2871    1.0000 </r>
       <r>   -7.2871    1.0000 </r>
       <r>   -6.9335    1.0000 </r>
       <r>   -6.9335    1.0000 </r>
       <r>   -2.4368    1.0000 </r>
       <r>   -2.4368    1.0000 </r>
       <r>   -1.1233    1.0000 </r>
       <r>   -1.1233    1.0000 </r>
       <r>    2.4452    1.0000 </r>
       <r>    2.4452    1.0000 </r>
       <r>    3.5872    1.0000 </r>
       <r>    3.5872    1.0000 </r>
       <r>    3.7029    1.0000 </r>
       <r>    3.7029    1.0000 </r>
       <r>    4.1057    1.0000 </r>
       <r>    4.1057    1.0000 </r>
       <r>    5.3520    1.0000 </r>
       <r>    5.3520    1.0000 </r>
       <r>    5.7154    1.0000 </r>
       <r>    5.7154    1.0000 </r>
       <r>    6.9198    0.0000 </r>
       <r>    6.9198    0.0000 </r>
       <r>    7.2936    0.0000 </r>
       <r>    7.2936    0.0000 </r>
       <r>    7.5936    0.0000 </r>
       <r>    7.5936    0.0000 </r>
       <r>    8.8552    0.0000 </r>
       <r>    8.8552    0.0000 </r>
       <r>    8.8748    0.0000 </r>
       <r>    8.8748    0.0000 </r>
       <r>   11.2060    0.0000 </r>
       <r>   11.2060    0.0000 </r>
       <r>   13.5028    0.0000 </r>
       <r>   13.5028    0.0000 </r>
       <r>   14.1201    0.0000 </r>
       <r>   14.1201    0.0000 </r>
       <r>   14.2129    0.0000 </r>
       <r>   14.2129    0.0000 </r>
       <r>   14.5195    0.0000 </r>
       <r>   14.5195    0.0000 </r>
       <r>   15.7768    0.0000 </r>
       <r>   15.7768    0.0000 </r>
       <r>   15.7925    0.0000 </r>
       <r>   15.7925    0.0000 </r>
      </set>
      <set comment="kpoint 31">
       <r>  -15.4102    1.0000 </r>
       <r>  -15.4021    1.0000 </r>
       <r>  -15.3939    1.0000 </r>
       <r>  -15.3915    1.0000 </r>
       <r>  -15.3901    1.0000 </r>
       <r>  -15.3889    1.0000 </r>
       <r>  -15.3879    1.0000 </r>
       <r>  -15.3845    1.0000 </r>
       <r>  -15.3805    1.0000 </r>
       <r>  -15.3787    1.0000 </r>
       <r>  -15.3750    1.0000 </r>
       <r>  -15.3725    1.0000 </r>
       <r>  -15.3619    1.0000 </r>
       <r>  -15.3607    1.0000 </r>
       <r>  -15.3407    1.0000 </r>
       <r>  -15.3373    1.0000 </r>
       <r>  -15.3308    1.0000 </r>
       <r>  -15.3285    1.0000 </r>
       <r>  -15.3121    1.0000 </r>
       <r>  -15.3080    1.0000 </r>
       <r>   -8.0340    1.0000 </r>
       <r>   -7.8470    1.0000 </r>
       <r>   -6.8821    1.0000 </r>
       <r>   -6.6115    1.0000 </r>
       <r>   -1.4192    1.0000 </r>
       <r>   -0.9910    1.0000 </r>
       <r>    0.4397    1.0000 </r>
       <r>    0.4404    1.0000 </r>
       <r>    1.2296    1.0000 </r>
       <r>    2.1137    1.0000 </r>
       <r>    2.3349    1.0000 </r>
       <r>    2.6588    1.0000 </r>
       <r>    2.8584    1.0000 </r>
       <r>    3.1459    1.0000 </r>
       <r>    3.6602    1.0000 </r>
       <r>    3.7593    1.0000 </r>
       <r>    4.0652    1.0000 </r>
       <r>    4.1080    1.0000 </r>
       <r>    5.2566    1.0000 </r>
       <r>    5.2933    1.0000 </r>
       <r>    7.7378    0.0000 </r>
       <r>    8.4526    0.0000 </r>
       <r>    8.6787    0.0000 </r>
       <r>    8.9450    0.0000 </r>
       <r>    9.0987    0.0000 </r>
       <r>    9.4327    0.0000 </r>
       <r>    9.4356    0.0000 </r>
       <r>    9.9595    0.0000 </r>
       <r>   10.5490    0.0000 </r>
       <r>   11.0226    0.0000 </r>
       <r>   11.0310    0.0000 </r>
       <r>   11.3037    0.0000 </r>
       <r>   11.4909    0.0000 </r>
       <r>   11.6136    0.0000 </r>
       <r>   11.8133    0.0000 </r>
       <r>   12.2254    0.0000 </r>
       <r>   12.5677    0.0000 </r>
       <r>   13.5814    0.0000 </r>
       <r>   13.8568    0.0000 </r>
       <r>   14.3781    0.0000 </r>
       <r>   15.2776    0.0000 </r>
       <r>   15.2983    0.0000 </r>
       <r>   15.3404    0.0000 </r>
       <r>   15.4505    0.0000 </r>
      </set>
      <set comment="kpoint 32">
       <r>  -15.4094    1.0000 </r>
       <r>  -15.4018    1.0000 </r>
       <r>  -15.3928    1.0000 </r>
       <r>  -15.3914    1.0000 </r>
       <r>  -15.3905    1.0000 </r>
       <r>  -15.3898    1.0000 </r>
       <r>  -15.3880    1.0000 </r>
       <r>  -15.3849    1.0000 </r>
       <r>  -15.3808    1.0000 </r>
       <r>  -15.3792    1.0000 </r>
       <r>  -15.3738    1.0000 </r>
       <r>  -15.3709    1.0000 </r>
       <r>  -15.3615    1.0000 </r>
       <r>  -15.3604    1.0000 </r>
       <r>  -15.3408    1.0000 </r>
       <r>  -15.3372    1.0000 </r>
       <r>  -15.3312    1.0000 </r>
       <r>  -15.3288    1.0000 </r>
       <r>  -15.3120    1.0000 </r>
       <r>  -15.3082    1.0000 </r>
       <r>   -7.9622    1.0000 </r>
       <r>   -7.7790    1.0000 </r>
       <r>   -6.8665    1.0000 </r>
       <r>   -6.6108    1.0000 </r>
       <r>   -1.6204    1.0000 </r>
       <r>   -1.1473    1.0000 </r>
       <r>    0.0935    1.0000 </r>
       <r>    0.2603    1.0000 </r>
       <r>    1.2983    1.0000 </r>
       <r>    2.0357    1.0000 </r>
       <r>    2.2497    1.0000 </r>
       <r>    2.5838    1.0000 </r>
       <r>    3.0786    1.0000 </r>
       <r>    3.4248    1.0000 </r>
       <r>    3.5901    1.0000 </r>
       <r>    3.7460    1.0000 </r>
       <r>    4.4886    1.0000 </r>
       <r>    4.7378    1.0000 </r>
       <r>    5.1590    1.0000 </r>
       <r>    5.3155    1.0000 </r>
       <r>    7.6626    0.0000 </r>
       <r>    7.9273    0.0000 </r>
       <r>    8.3117    0.0000 </r>
       <r>    8.7541    0.0000 </r>
       <r>    8.9191    0.0000 </r>
       <r>    9.2104    0.0000 </r>
       <r>    9.6557    0.0000 </r>
       <r>    9.9719    0.0000 </r>
       <r>   10.3092    0.0000 </r>
       <r>   10.4852    0.0000 </r>
       <r>   10.8751    0.0000 </r>
       <r>   10.9856    0.0000 </r>
       <r>   11.7631    0.0000 </r>
       <r>   12.0127    0.0000 </r>
       <r>   12.1294    0.0000 </r>
       <r>   12.5155    0.0000 </r>
       <r>   12.9550    0.0000 </r>
       <r>   13.7290    0.0000 </r>
       <r>   14.0749    0.0000 </r>
       <r>   14.6184    0.0000 </r>
       <r>   14.8188    0.0000 </r>
       <r>   15.2127    0.0000 </r>
       <r>   15.5539    0.0000 </r>
       <r>   15.7722    0.0000 </r>
      </set>
      <set comment="kpoint 33">
       <r>  -15.4074    1.0000 </r>
       <r>  -15.4011    1.0000 </r>
       <r>  -15.3945    1.0000 </r>
       <r>  -15.3933    1.0000 </r>
       <r>  -15.3897    1.0000 </r>
       <r>  -15.3888    1.0000 </r>
       <r>  -15.3884    1.0000 </r>
       <r>  -15.3858    1.0000 </r>
       <r>  -15.3814    1.0000 </r>
       <r>  -15.3800    1.0000 </r>
       <r>  -15.3710    1.0000 </r>
       <r>  -15.3673    1.0000 </r>
       <r>  -15.3609    1.0000 </r>
       <r>  -15.3590    1.0000 </r>
       <r>  -15.3406    1.0000 </r>
       <r>  -15.3372    1.0000 </r>
       <r>  -15.3317    1.0000 </r>
       <r>  -15.3297    1.0000 </r>
       <r>  -15.3114    1.0000 </r>
       <r>  -15.3085    1.0000 </r>
       <r>   -7.7608    1.0000 </r>
       <r>   -7.5894    1.0000 </r>
       <r>   -6.8482    1.0000 </r>
       <r>   -6.6328    1.0000 </r>
       <r>   -2.0444    1.0000 </r>
       <r>   -1.5641    1.0000 </r>
       <r>   -0.5184    1.0000 </r>
       <r>   -0.2157    1.0000 </r>
       <r>    1.5042    1.0000 </r>
       <r>    2.0519    1.0000 </r>
       <r>    2.2713    1.0000 </r>
       <r>    2.9157    1.0000 </r>
       <r>    3.0819    1.0000 </r>
       <r>    3.4455    1.0000 </r>
       <r>    4.0506    1.0000 </r>
       <r>    4.2133    1.0000 </r>
       <r>    4.9387    1.0000 </r>
       <r>    5.0700    1.0000 </r>
       <r>    5.1753    1.0000 </r>
       <r>    5.3803    1.0000 </r>
       <r>    7.2688    0.0000 </r>
       <r>    7.4306    0.0000 </r>
       <r>    7.8596    0.0000 </r>
       <r>    8.0314    0.0000 </r>
       <r>    8.6657    0.0000 </r>
       <r>    9.0166    0.0000 </r>
       <r>    9.3456    0.0000 </r>
       <r>    9.5218    0.0000 </r>
       <r>   10.1587    0.0000 </r>
       <r>   10.3043    0.0000 </r>
       <r>   10.8423    0.0000 </r>
       <r>   10.9350    0.0000 </r>
       <r>   12.0148    0.0000 </r>
       <r>   12.0975    0.0000 </r>
       <r>   12.8972    0.0000 </r>
       <r>   12.9784    0.0000 </r>
       <r>   13.4025    0.0000 </r>
       <r>   13.8712    0.0000 </r>
       <r>   14.1783    0.0000 </r>
       <r>   14.7464    0.0000 </r>
       <r>   14.9090    0.0000 </r>
       <r>   15.5269    0.0000 </r>
       <r>   15.8934    0.0000 </r>
       <r>   16.2288    0.0000 </r>
      </set>
      <set comment="kpoint 34">
       <r>  -15.4047    1.0000 </r>
       <r>  -15.4007    1.0000 </r>
       <r>  -15.3976    1.0000 </r>
       <r>  -15.3962    1.0000 </r>
       <r>  -15.3896    1.0000 </r>
       <r>  -15.3894    1.0000 </r>
       <r>  -15.3871    1.0000 </r>
       <r>  -15.3857    1.0000 </r>
       <r>  -15.3815    1.0000 </r>
       <r>  -15.3807    1.0000 </r>
       <r>  -15.3677    1.0000 </r>
       <r>  -15.3648    1.0000 </r>
       <r>  -15.3596    1.0000 </r>
       <r>  -15.3577    1.0000 </r>
       <r>  -15.3396    1.0000 </r>
       <r>  -15.3374    1.0000 </r>
       <r>  -15.3318    1.0000 </r>
       <r>  -15.3306    1.0000 </r>
       <r>  -15.3107    1.0000 </r>
       <r>  -15.3091    1.0000 </r>
       <r>   -7.4784    1.0000 </r>
       <r>   -7.3333    1.0000 </r>
       <r>   -6.8900    1.0000 </r>
       <r>   -6.7298    1.0000 </r>
       <r>   -2.3552    1.0000 </r>
       <r>   -2.0323    1.0000 </r>
       <r>   -0.9780    1.0000 </r>
       <r>   -0.7389    1.0000 </r>
       <r>    1.8754    1.0000 </r>
       <r>    2.3449    1.0000 </r>
       <r>    2.6213    1.0000 </r>
       <r>    3.0234    1.0000 </r>
       <r>    3.3361    1.0000 </r>
       <r>    3.4506    1.0000 </r>
       <r>    3.8576    1.0000 </r>
       <r>    4.3318    1.0000 </r>
       <r>    4.9546    1.0000 </r>
       <r>    5.1414    1.0000 </r>
       <r>    5.2970    1.0000 </r>
       <r>    5.3920    1.0000 </r>
       <r>    7.0874    0.0000 </r>
       <r>    7.3415    0.0000 </r>
       <r>    7.5823    0.0000 </r>
       <r>    7.9288    0.0000 </r>
       <r>    8.2258    0.0000 </r>
       <r>    8.6468    0.0000 </r>
       <r>    8.7357    0.0000 </r>
       <r>    9.0382    0.0000 </r>
       <r>   10.0349    0.0000 </r>
       <r>   10.1869    0.0000 </r>
       <r>   10.8176    0.0000 </r>
       <r>   11.0788    0.0000 </r>
       <r>   12.5989    0.0000 </r>
       <r>   12.8850    0.0000 </r>
       <r>   13.1279    0.0000 </r>
       <r>   13.3909    0.0000 </r>
       <r>   13.9317    0.0000 </r>
       <r>   14.2744    0.0000 </r>
       <r>   14.4520    0.0000 </r>
       <r>   14.6432    0.0000 </r>
       <r>   15.3133    0.0000 </r>
       <r>   15.6892    0.0000 </r>
       <r>   15.9529    0.0000 </r>
       <r>   16.6518    0.0000 </r>
      </set>
      <set comment="kpoint 35">
       <r>  -15.4021    1.0000 </r>
       <r>  -15.4021    1.0000 </r>
       <r>  -15.3981    1.0000 </r>
       <r>  -15.3981    1.0000 </r>
       <r>  -15.3900    1.0000 </r>
       <r>  -15.3900    1.0000 </r>
       <r>  -15.3859    1.0000 </r>
       <r>  -15.3859    1.0000 </r>
       <r>  -15.3813    1.0000 </r>
       <r>  -15.3813    1.0000 </r>
       <r>  -15.3652    1.0000 </r>
       <r>  -15.3652    1.0000 </r>
       <r>  -15.3580    1.0000 </r>
       <r>  -15.3580    1.0000 </r>
       <r>  -15.3382    1.0000 </r>
       <r>  -15.3382    1.0000 </r>
       <r>  -15.3313    1.0000 </r>
       <r>  -15.3313    1.0000 </r>
       <r>  -15.3099    1.0000 </r>
       <r>  -15.3099    1.0000 </r>
       <r>   -7.2351    1.0000 </r>
       <r>   -7.2351    1.0000 </r>
       <r>   -6.8969    1.0000 </r>
       <r>   -6.8969    1.0000 </r>
       <r>   -2.3457    1.0000 </r>
       <r>   -2.3457    1.0000 </r>
       <r>   -1.0517    1.0000 </r>
       <r>   -1.0517    1.0000 </r>
       <r>    2.3451    1.0000 </r>
       <r>    2.3451    1.0000 </r>
       <r>    2.9756    1.0000 </r>
       <r>    2.9756    1.0000 </r>
       <r>    3.3265    1.0000 </r>
       <r>    3.3265    1.0000 </r>
       <r>    3.9626    1.0000 </r>
       <r>    3.9626    1.0000 </r>
       <r>    5.0232    1.0000 </r>
       <r>    5.0232    1.0000 </r>
       <r>    5.3842    1.0000 </r>
       <r>    5.3842    1.0000 </r>
       <r>    7.2393    0.0000 </r>
       <r>    7.2393    0.0000 </r>
       <r>    7.6512    0.0000 </r>
       <r>    7.6512    0.0000 </r>
       <r>    8.2388    0.0000 </r>
       <r>    8.2388    0.0000 </r>
       <r>    8.9023    0.0000 </r>
       <r>    8.9023    0.0000 </r>
       <r>    9.7740    0.0000 </r>
       <r>    9.7740    0.0000 </r>
       <r>   11.0585    0.0000 </r>
       <r>   11.0585    0.0000 </r>
       <r>   12.8165    0.0000 </r>
       <r>   12.8165    0.0000 </r>
       <r>   13.9260    0.0000 </r>
       <r>   13.9260    0.0000 </r>
       <r>   14.3208    0.0000 </r>
       <r>   14.3208    0.0000 </r>
       <r>   15.2136    0.0000 </r>
       <r>   15.2136    0.0000 </r>
       <r>   15.7473    0.0000 </r>
       <r>   15.7473    0.0000 </r>
       <r>   15.9376    0.0000 </r>
       <r>   15.9376    0.0000 </r>
      </set>
      <set comment="kpoint 36">
       <r>  -15.4022    1.0000 </r>
       <r>  -15.3986    1.0000 </r>
       <r>  -15.3925    1.0000 </r>
       <r>  -15.3913    1.0000 </r>
       <r>  -15.3903    1.0000 </r>
       <r>  -15.3891    1.0000 </r>
       <r>  -15.3883    1.0000 </r>
       <r>  -15.3876    1.0000 </r>
       <r>  -15.3843    1.0000 </r>
       <r>  -15.3835    1.0000 </r>
       <r>  -15.3717    1.0000 </r>
       <r>  -15.3686    1.0000 </r>
       <r>  -15.3598    1.0000 </r>
       <r>  -15.3586    1.0000 </r>
       <r>  -15.3374    1.0000 </r>
       <r>  -15.3369    1.0000 </r>
       <r>  -15.3318    1.0000 </r>
       <r>  -15.3306    1.0000 </r>
       <r>  -15.3138    1.0000 </r>
       <r>  -15.3111    1.0000 </r>
       <r>   -7.8321    1.0000 </r>
       <r>   -7.6616    1.0000 </r>
       <r>   -6.8197    1.0000 </r>
       <r>   -6.6043    1.0000 </r>
       <r>   -1.7162    1.0000 </r>
       <r>   -1.3297    1.0000 </r>
       <r>   -0.3509    1.0000 </r>
       <r>   -0.1763    1.0000 </r>
       <r>    1.3746    1.0000 </r>
       <r>    2.3131    1.0000 </r>
       <r>    2.5030    1.0000 </r>
       <r>    2.7811    1.0000 </r>
       <r>    3.1984    1.0000 </r>
       <r>    3.3844    1.0000 </r>
       <r>    3.7999    1.0000 </r>
       <r>    3.9008    1.0000 </r>
       <r>    4.2029    1.0000 </r>
       <r>    4.5065    1.0000 </r>
       <r>    5.2527    1.0000 </r>
       <r>    5.3912    1.0000 </r>
       <r>    7.3274    0.0000 </r>
       <r>    8.0133    0.0000 </r>
       <r>    8.0498    0.0000 </r>
       <r>    8.4901    0.0000 </r>
       <r>    8.6494    0.0000 </r>
       <r>    9.1869    0.0000 </r>
       <r>    9.2867    0.0000 </r>
       <r>    9.8844    0.0000 </r>
       <r>   10.0585    0.0000 </r>
       <r>   10.4566    0.0000 </r>
       <r>   10.5899    0.0000 </r>
       <r>   10.6333    0.0000 </r>
       <r>   11.2822    0.0000 </r>
       <r>   11.4506    0.0000 </r>
       <r>   12.3617    0.0000 </r>
       <r>   12.3796    0.0000 </r>
       <r>   12.9105    0.0000 </r>
       <r>   13.4722    0.0000 </r>
       <r>   14.5283    0.0000 </r>
       <r>   14.7435    0.0000 </r>
       <r>   15.8180    0.0000 </r>
       <r>   15.9518    0.0000 </r>
       <r>   16.0236    0.0000 </r>
       <r>   16.4160    0.0000 </r>
      </set>
      <set comment="kpoint 37">
       <r>  -15.4029    1.0000 </r>
       <r>  -15.3991    1.0000 </r>
       <r>  -15.3941    1.0000 </r>
       <r>  -15.3915    1.0000 </r>
       <r>  -15.3905    1.0000 </r>
       <r>  -15.3887    1.0000 </r>
       <r>  -15.3884    1.0000 </r>
       <r>  -15.3864    1.0000 </r>
       <r>  -15.3847    1.0000 </r>
       <r>  -15.3832    1.0000 </r>
       <r>  -15.3708    1.0000 </r>
       <r>  -15.3674    1.0000 </r>
       <r>  -15.3598    1.0000 </r>
       <r>  -15.3577    1.0000 </r>
       <r>  -15.3375    1.0000 </r>
       <r>  -15.3365    1.0000 </r>
       <r>  -15.3321    1.0000 </r>
       <r>  -15.3311    1.0000 </r>
       <r>  -15.3136    1.0000 </r>
       <r>  -15.3111    1.0000 </r>
       <r>   -7.7636    1.0000 </r>
       <r>   -7.5970    1.0000 </r>
       <r>   -6.8026    1.0000 </r>
       <r>   -6.5986    1.0000 </r>
       <r>   -1.7730    1.0000 </r>
       <r>   -1.3440    1.0000 </r>
       <r>   -0.4148    1.0000 </r>
       <r>   -0.2858    1.0000 </r>
       <r>    1.4340    1.0000 </r>
       <r>    1.8187    1.0000 </r>
       <r>    2.1403    1.0000 </r>
       <r>    2.6504    1.0000 </r>
       <r>    2.9983    1.0000 </r>
       <r>    3.3773    1.0000 </r>
       <r>    3.9252    1.0000 </r>
       <r>    4.0184    1.0000 </r>
       <r>    4.7242    1.0000 </r>
       <r>    4.8866    1.0000 </r>
       <r>    5.2703    1.0000 </r>
       <r>    5.3720    1.0000 </r>
       <r>    7.1264    0.0000 </r>
       <r>    7.3795    0.0000 </r>
       <r>    8.0524    0.0000 </r>
       <r>    8.2587    0.0000 </r>
       <r>    8.7454    0.0000 </r>
       <r>    9.0494    0.0000 </r>
       <r>    9.4636    0.0000 </r>
       <r>    9.6343    0.0000 </r>
       <r>   10.0725    0.0000 </r>
       <r>   10.4267    0.0000 </r>
       <r>   10.6884    0.0000 </r>
       <r>   10.9743    0.0000 </r>
       <r>   11.8460    0.0000 </r>
       <r>   12.2719    0.0000 </r>
       <r>   12.6975    0.0000 </r>
       <r>   12.7119    0.0000 </r>
       <r>   13.1213    0.0000 </r>
       <r>   13.7697    0.0000 </r>
       <r>   14.3599    0.0000 </r>
       <r>   14.6405    0.0000 </r>
       <r>   15.1799    0.0000 </r>
       <r>   15.5823    0.0000 </r>
       <r>   15.7789    0.0000 </r>
       <r>   16.0073    0.0000 </r>
      </set>
      <set comment="kpoint 38">
       <r>  -15.4048    1.0000 </r>
       <r>  -15.4007    1.0000 </r>
       <r>  -15.3978    1.0000 </r>
       <r>  -15.3948    1.0000 </r>
       <r>  -15.3894    1.0000 </r>
       <r>  -15.3883    1.0000 </r>
       <r>  -15.3875    1.0000 </r>
       <r>  -15.3849    1.0000 </r>
       <r>  -15.3837    1.0000 </r>
       <r>  -15.3828    1.0000 </r>
       <r>  -15.3690    1.0000 </r>
       <r>  -15.3653    1.0000 </r>
       <r>  -15.3583    1.0000 </r>
       <r>  -15.3558    1.0000 </r>
       <r>  -15.3372    1.0000 </r>
       <r>  -15.3357    1.0000 </r>
       <r>  -15.3327    1.0000 </r>
       <r>  -15.3323    1.0000 </r>
       <r>  -15.3130    1.0000 </r>
       <r>  -15.3111    1.0000 </r>
       <r>   -7.5731    1.0000 </r>
       <r>   -7.4189    1.0000 </r>
       <r>   -6.7775    1.0000 </r>
       <r>   -6.6037    1.0000 </r>
       <r>   -1.9442    1.0000 </r>
       <r>   -1.4855    1.0000 </r>
       <r>   -0.6461    1.0000 </r>
       <r>   -0.4688    1.0000 </r>
       <r>    1.3797    1.0000 </r>
       <r>    1.5024    1.0000 </r>
       <r>    1.9144    1.0000 </r>
       <r>    2.5298    1.0000 </r>
       <r>    2.5742    1.0000 </r>
       <r>    3.2047    1.0000 </r>
       <r>    4.1295    1.0000 </r>
       <r>    4.3886    1.0000 </r>
       <r>    4.4698    1.0000 </r>
       <r>    4.6236    1.0000 </r>
       <r>    5.2703    1.0000 </r>
       <r>    5.4152    1.0000 </r>
       <r>    7.2664    0.0000 </r>
       <r>    7.6534    0.0000 </r>
       <r>    7.7522    0.0000 </r>
       <r>    8.1843    0.0000 </r>
       <r>    8.4634    0.0000 </r>
       <r>    8.9019    0.0000 </r>
       <r>    9.3390    0.0000 </r>
       <r>    9.9173    0.0000 </r>
       <r>   10.4326    0.0000 </r>
       <r>   10.7867    0.0000 </r>
       <r>   11.0329    0.0000 </r>
       <r>   11.1620    0.0000 </r>
       <r>   12.2156    0.0000 </r>
       <r>   13.0078    0.0000 </r>
       <r>   13.3283    0.0000 </r>
       <r>   13.3955    0.0000 </r>
       <r>   13.6567    0.0000 </r>
       <r>   13.9274    0.0000 </r>
       <r>   14.2050    0.0000 </r>
       <r>   14.6622    0.0000 </r>
       <r>   14.8677    0.0000 </r>
       <r>   15.2743    0.0000 </r>
       <r>   15.9828    0.0000 </r>
       <r>   16.1143    0.0000 </r>
      </set>
      <set comment="kpoint 39">
       <r>  -15.4065    1.0000 </r>
       <r>  -15.4040    1.0000 </r>
       <r>  -15.4003    1.0000 </r>
       <r>  -15.3984    1.0000 </r>
       <r>  -15.3891    1.0000 </r>
       <r>  -15.3881    1.0000 </r>
       <r>  -15.3869    1.0000 </r>
       <r>  -15.3844    1.0000 </r>
       <r>  -15.3822    1.0000 </r>
       <r>  -15.3815    1.0000 </r>
       <r>  -15.3669    1.0000 </r>
       <r>  -15.3645    1.0000 </r>
       <r>  -15.3555    1.0000 </r>
       <r>  -15.3539    1.0000 </r>
       <r>  -15.3361    1.0000 </r>
       <r>  -15.3346    1.0000 </r>
       <r>  -15.3336    1.0000 </r>
       <r>  -15.3332    1.0000 </r>
       <r>  -15.3123    1.0000 </r>
       <r>  -15.3113    1.0000 </r>
       <r>   -7.3116    1.0000 </r>
       <r>   -7.1833    1.0000 </r>
       <r>   -6.8024    1.0000 </r>
       <r>   -6.6703    1.0000 </r>
       <r>   -2.1132    1.0000 </r>
       <r>   -1.8114    1.0000 </r>
       <r>   -0.8445    1.0000 </r>
       <r>   -0.6894    1.0000 </r>
       <r>    1.4165    1.0000 </r>
       <r>    1.5590    1.0000 </r>
       <r>    2.1613    1.0000 </r>
       <r>    2.3108    1.0000 </r>
       <r>    2.5579    1.0000 </r>
       <r>    3.2738    1.0000 </r>
       <r>    3.6999    1.0000 </r>
       <r>    3.8826    1.0000 </r>
       <r>    4.1365    1.0000 </r>
       <r>    4.2098    1.0000 </r>
       <r>    4.9711    1.0000 </r>
       <r>    5.2078    1.0000 </r>
       <r>    7.4407    0.0000 </r>
       <r>    8.0047    0.0000 </r>
       <r>    8.2071    0.0000 </r>
       <r>    8.3761    0.0000 </r>
       <r>    8.9786    0.0000 </r>
       <r>    9.2138    0.0000 </r>
       <r>    9.4319    0.0000 </r>
       <r>    9.9394    0.0000 </r>
       <r>   10.4608    0.0000 </r>
       <r>   10.7836    0.0000 </r>
       <r>   11.1366    0.0000 </r>
       <r>   11.2785    0.0000 </r>
       <r>   12.1900    0.0000 </r>
       <r>   12.6532    0.0000 </r>
       <r>   13.2274    0.0000 </r>
       <r>   13.8140    0.0000 </r>
       <r>   14.0057    0.0000 </r>
       <r>   14.3731    0.0000 </r>
       <r>   14.9408    0.0000 </r>
       <r>   15.1275    0.0000 </r>
       <r>   15.4639    0.0000 </r>
       <r>   15.6156    0.0000 </r>
       <r>   16.5846    0.0000 </r>
       <r>   17.0050    0.0000 </r>
      </set>
      <set comment="kpoint 40">
       <r>  -15.4064    1.0000 </r>
       <r>  -15.4064    1.0000 </r>
       <r>  -15.4005    1.0000 </r>
       <r>  -15.4005    1.0000 </r>
       <r>  -15.3886    1.0000 </r>
       <r>  -15.3886    1.0000 </r>
       <r>  -15.3855    1.0000 </r>
       <r>  -15.3855    1.0000 </r>
       <r>  -15.3812    1.0000 </r>
       <r>  -15.3812    1.0000 </r>
       <r>  -15.3651    1.0000 </r>
       <r>  -15.3651    1.0000 </r>
       <r>  -15.3537    1.0000 </r>
       <r>  -15.3537    1.0000 </r>
       <r>  -15.3347    1.0000 </r>
       <r>  -15.3347    1.0000 </r>
       <r>  -15.3338    1.0000 </r>
       <r>  -15.3338    1.0000 </r>
       <r>  -15.3116    1.0000 </r>
       <r>  -15.3116    1.0000 </r>
       <r>   -7.0935    1.0000 </r>
       <r>   -7.0935    1.0000 </r>
       <r>   -6.8042    1.0000 </r>
       <r>   -6.8042    1.0000 </r>
       <r>   -2.0807    1.0000 </r>
       <r>   -2.0807    1.0000 </r>
       <r>   -0.8646    1.0000 </r>
       <r>   -0.8646    1.0000 </r>
       <r>    1.7799    1.0000 </r>
       <r>    1.7799    1.0000 </r>
       <r>    2.0065    1.0000 </r>
       <r>    2.0065    1.0000 </r>
       <r>    2.9433    1.0000 </r>
       <r>    2.9433    1.0000 </r>
       <r>    3.6544    1.0000 </r>
       <r>    3.6544    1.0000 </r>
       <r>    4.0249    1.0000 </r>
       <r>    4.0249    1.0000 </r>
       <r>    4.8206    1.0000 </r>
       <r>    4.8206    1.0000 </r>
       <r>    7.7779    0.0000 </r>
       <r>    7.7779    0.0000 </r>
       <r>    8.7712    0.0000 </r>
       <r>    8.7712    0.0000 </r>
       <r>    9.0314    0.0000 </r>
       <r>    9.0314    0.0000 </r>
       <r>    9.9132    0.0000 </r>
       <r>    9.9132    0.0000 </r>
       <r>   10.6343    0.0000 </r>
       <r>   10.6343    0.0000 </r>
       <r>   10.9630    0.0000 </r>
       <r>   10.9630    0.0000 </r>
       <r>   12.2819    0.0000 </r>
       <r>   12.2819    0.0000 </r>
       <r>   13.4931    0.0000 </r>
       <r>   13.4931    0.0000 </r>
       <r>   14.6989    0.0000 </r>
       <r>   14.6989    0.0000 </r>
       <r>   15.8823    0.0000 </r>
       <r>   15.8823    0.0000 </r>
       <r>   16.0227    0.0000 </r>
       <r>   16.0227    0.0000 </r>
       <r>   16.6329    0.0000 </r>
       <r>   16.6329    0.0000 </r>
      </set>
      <set comment="kpoint 41">
       <r>  -15.4008    1.0000 </r>
       <r>  -15.3991    1.0000 </r>
       <r>  -15.3956    1.0000 </r>
       <r>  -15.3934    1.0000 </r>
       <r>  -15.3878    1.0000 </r>
       <r>  -15.3876    1.0000 </r>
       <r>  -15.3868    1.0000 </r>
       <r>  -15.3867    1.0000 </r>
       <r>  -15.3845    1.0000 </r>
       <r>  -15.3806    1.0000 </r>
       <r>  -15.3693    1.0000 </r>
       <r>  -15.3663    1.0000 </r>
       <r>  -15.3576    1.0000 </r>
       <r>  -15.3547    1.0000 </r>
       <r>  -15.3406    1.0000 </r>
       <r>  -15.3399    1.0000 </r>
       <r>  -15.3304    1.0000 </r>
       <r>  -15.3271    1.0000 </r>
       <r>  -15.3156    1.0000 </r>
       <r>  -15.3148    1.0000 </r>
       <r>   -7.5268    1.0000 </r>
       <r>   -7.3897    1.0000 </r>
       <r>   -6.7894    1.0000 </r>
       <r>   -6.6662    1.0000 </r>
       <r>   -2.0051    1.0000 </r>
       <r>   -1.6449    1.0000 </r>
       <r>   -1.1520    1.0000 </r>
       <r>   -0.8528    1.0000 </r>
       <r>    1.7250    1.0000 </r>
       <r>    2.6750    1.0000 </r>
       <r>    2.8507    1.0000 </r>
       <r>    3.0868    1.0000 </r>
       <r>    3.2927    1.0000 </r>
       <r>    3.7191    1.0000 </r>
       <r>    3.9646    1.0000 </r>
       <r>    4.0236    1.0000 </r>
       <r>    4.3167    1.0000 </r>
       <r>    4.5091    1.0000 </r>
       <r>    5.3088    1.0000 </r>
       <r>    5.6115    1.0000 </r>
       <r>    6.5992    0.0000 </r>
       <r>    7.1225    0.0000 </r>
       <r>    7.8343    0.0000 </r>
       <r>    7.8660    0.0000 </r>
       <r>    8.3352    0.0000 </r>
       <r>    8.5446    0.0000 </r>
       <r>    8.5568    0.0000 </r>
       <r>    9.0984    0.0000 </r>
       <r>    9.3287    0.0000 </r>
       <r>    9.9338    0.0000 </r>
       <r>   10.0590    0.0000 </r>
       <r>   10.4821    0.0000 </r>
       <r>   12.4142    0.0000 </r>
       <r>   12.7551    0.0000 </r>
       <r>   12.7566    0.0000 </r>
       <r>   13.4105    0.0000 </r>
       <r>   13.7992    0.0000 </r>
       <r>   14.1255    0.0000 </r>
       <r>   14.4891    0.0000 </r>
       <r>   15.1000    0.0000 </r>
       <r>   15.1938    0.0000 </r>
       <r>   15.4090    0.0000 </r>
       <r>   16.3773    0.0000 </r>
       <r>   16.4875    0.0000 </r>
      </set>
      <set comment="kpoint 42">
       <r>  -15.4032    1.0000 </r>
       <r>  -15.4005    1.0000 </r>
       <r>  -15.3980    1.0000 </r>
       <r>  -15.3953    1.0000 </r>
       <r>  -15.3884    1.0000 </r>
       <r>  -15.3872    1.0000 </r>
       <r>  -15.3857    1.0000 </r>
       <r>  -15.3849    1.0000 </r>
       <r>  -15.3837    1.0000 </r>
       <r>  -15.3800    1.0000 </r>
       <r>  -15.3690    1.0000 </r>
       <r>  -15.3660    1.0000 </r>
       <r>  -15.3568    1.0000 </r>
       <r>  -15.3539    1.0000 </r>
       <r>  -15.3402    1.0000 </r>
       <r>  -15.3395    1.0000 </r>
       <r>  -15.3305    1.0000 </r>
       <r>  -15.3274    1.0000 </r>
       <r>  -15.3155    1.0000 </r>
       <r>  -15.3147    1.0000 </r>
       <r>   -7.4652    1.0000 </r>
       <r>   -7.3321    1.0000 </r>
       <r>   -6.7675    1.0000 </r>
       <r>   -6.6497    1.0000 </r>
       <r>   -1.9521    1.0000 </r>
       <r>   -1.5734    1.0000 </r>
       <r>   -1.1043    1.0000 </r>
       <r>   -0.8566    1.0000 </r>
       <r>    1.7144    1.0000 </r>
       <r>    1.9101    1.0000 </r>
       <r>    2.3640    1.0000 </r>
       <r>    2.8248    1.0000 </r>
       <r>    3.1485    1.0000 </r>
       <r>    3.4090    1.0000 </r>
       <r>    3.8707    1.0000 </r>
       <r>    4.2296    1.0000 </r>
       <r>    4.6083    1.0000 </r>
       <r>    4.6612    1.0000 </r>
       <r>    5.0685    1.0000 </r>
       <r>    5.1897    1.0000 </r>
       <r>    7.1354    0.0000 </r>
       <r>    7.2060    0.0000 </r>
       <r>    7.5549    0.0000 </r>
       <r>    7.7708    0.0000 </r>
       <r>    8.5179    0.0000 </r>
       <r>    8.8048    0.0000 </r>
       <r>    8.9376    0.0000 </r>
       <r>    9.3719    0.0000 </r>
       <r>    9.7538    0.0000 </r>
       <r>   10.2074    0.0000 </r>
       <r>   10.5266    0.0000 </r>
       <r>   10.7421    0.0000 </r>
       <r>   12.2606    0.0000 </r>
       <r>   12.8893    0.0000 </r>
       <r>   13.1889    0.0000 </r>
       <r>   13.5500    0.0000 </r>
       <r>   13.8562    0.0000 </r>
       <r>   13.9000    0.0000 </r>
       <r>   14.2969    0.0000 </r>
       <r>   14.9438    0.0000 </r>
       <r>   15.3024    0.0000 </r>
       <r>   15.4538    0.0000 </r>
       <r>   16.5093    0.0000 </r>
       <r>   16.6938    0.0000 </r>
      </set>
      <set comment="kpoint 43">
       <r>  -15.4082    1.0000 </r>
       <r>  -15.4051    1.0000 </r>
       <r>  -15.4022    1.0000 </r>
       <r>  -15.3997    1.0000 </r>
       <r>  -15.3888    1.0000 </r>
       <r>  -15.3875    1.0000 </r>
       <r>  -15.3829    1.0000 </r>
       <r>  -15.3823    1.0000 </r>
       <r>  -15.3813    1.0000 </r>
       <r>  -15.3788    1.0000 </r>
       <r>  -15.3682    1.0000 </r>
       <r>  -15.3655    1.0000 </r>
       <r>  -15.3540    1.0000 </r>
       <r>  -15.3518    1.0000 </r>
       <r>  -15.3393    1.0000 </r>
       <r>  -15.3386    1.0000 </r>
       <r>  -15.3305    1.0000 </r>
       <r>  -15.3281    1.0000 </r>
       <r>  -15.3151    1.0000 </r>
       <r>  -15.3144    1.0000 </r>
       <r>   -7.2974    1.0000 </r>
       <r>   -7.1768    1.0000 </r>
       <r>   -6.7246    1.0000 </r>
       <r>   -6.6211    1.0000 </r>
       <r>   -1.8389    1.0000 </r>
       <r>   -1.4412    1.0000 </r>
       <r>   -0.9804    1.0000 </r>
       <r>   -0.8604    1.0000 </r>
       <r>    1.1566    1.0000 </r>
       <r>    1.3664    1.0000 </r>
       <r>    2.1097    1.0000 </r>
       <r>    2.2403    1.0000 </r>
       <r>    2.4236    1.0000 </r>
       <r>    3.1037    1.0000 </r>
       <r>    3.6068    1.0000 </r>
       <r>    3.8496    1.0000 </r>
       <r>    3.9747    1.0000 </r>
       <r>    4.2950    1.0000 </r>
       <r>    4.7992    1.0000 </r>
       <r>    5.2189    1.0000 </r>
       <r>    7.3070    0.0000 </r>
       <r>    7.8828    0.0000 </r>
       <r>    8.2324    0.0000 </r>
       <r>    8.4256    0.0000 </r>
       <r>    8.7636    0.0000 </r>
       <r>    8.9556    0.0000 </r>
       <r>    9.7361    0.0000 </r>
       <r>   10.0085    0.0000 </r>
       <r>   10.2052    0.0000 </r>
       <r>   10.4832    0.0000 </r>
       <r>   11.4255    0.0000 </r>
       <r>   11.6551    0.0000 </r>
       <r>   12.1567    0.0000 </r>
       <r>   12.6617    0.0000 </r>
       <r>   13.3266    0.0000 </r>
       <r>   13.9479    0.0000 </r>
       <r>   14.1906    0.0000 </r>
       <r>   14.2957    0.0000 </r>
       <r>   14.6456    0.0000 </r>
       <r>   14.8965    0.0000 </r>
       <r>   15.4115    0.0000 </r>
       <r>   16.0112    0.0000 </r>
       <r>   16.1498    0.0000 </r>
       <r>   16.5290    0.0000 </r>
      </set>
      <set comment="kpoint 44">
       <r>  -15.4123    1.0000 </r>
       <r>  -15.4104    1.0000 </r>
       <r>  -15.4058    1.0000 </r>
       <r>  -15.4043    1.0000 </r>
       <r>  -15.3889    1.0000 </r>
       <r>  -15.3880    1.0000 </r>
       <r>  -15.3809    1.0000 </r>
       <r>  -15.3804    1.0000 </r>
       <r>  -15.3791    1.0000 </r>
       <r>  -15.3781    1.0000 </r>
       <r>  -15.3672    1.0000 </r>
       <r>  -15.3654    1.0000 </r>
       <r>  -15.3506    1.0000 </r>
       <r>  -15.3495    1.0000 </r>
       <r>  -15.3380    1.0000 </r>
       <r>  -15.3376    1.0000 </r>
       <r>  -15.3302    1.0000 </r>
       <r>  -15.3288    1.0000 </r>
       <r>  -15.3145    1.0000 </r>
       <r>  -15.3142    1.0000 </r>
       <r>   -7.0770    1.0000 </r>
       <r>   -6.9805    1.0000 </r>
       <r>   -6.7146    1.0000 </r>
       <r>   -6.6312    1.0000 </r>
       <r>   -1.7589    1.0000 </r>
       <r>   -1.5055    1.0000 </r>
       <r>   -0.7924    1.0000 </r>
       <r>   -0.7661    1.0000 </r>
       <r>    0.8598    1.0000 </r>
       <r>    1.0900    1.0000 </r>
       <r>    1.6614    1.0000 </r>
       <r>    1.8921    1.0000 </r>
       <r>    2.1959    1.0000 </r>
       <r>    2.6211    1.0000 </r>
       <r>    2.8421    1.0000 </r>
       <r>    3.4513    1.0000 </r>
       <r>    3.7079    1.0000 </r>
       <r>    4.0654    1.0000 </r>
       <r>    4.4472    1.0000 </r>
       <r>    4.7831    1.0000 </r>
       <r>    7.6115    0.0000 </r>
       <r>    8.2501    0.0000 </r>
       <r>    8.8667    0.0000 </r>
       <r>    9.0723    0.0000 </r>
       <r>    9.1611    0.0000 </r>
       <r>    9.5666    0.0000 </r>
       <r>   10.5529    0.0000 </r>
       <r>   10.6359    0.0000 </r>
       <r>   10.7458    0.0000 </r>
       <r>   10.9085    0.0000 </r>
       <r>   11.9084    0.0000 </r>
       <r>   11.9827    0.0000 </r>
       <r>   12.1175    0.0000 </r>
       <r>   12.3569    0.0000 </r>
       <r>   13.1457    0.0000 </r>
       <r>   13.4812    0.0000 </r>
       <r>   14.9863    0.0000 </r>
       <r>   15.3628    0.0000 </r>
       <r>   15.5164    0.0000 </r>
       <r>   15.5397    0.0000 </r>
       <r>   16.0167    0.0000 </r>
       <r>   16.1831    0.0000 </r>
       <r>   16.4214    0.0000 </r>
       <r>   16.7585    0.0000 </r>
      </set>
      <set comment="kpoint 45">
       <r>  -15.4133    1.0000 </r>
       <r>  -15.4133    1.0000 </r>
       <r>  -15.4067    1.0000 </r>
       <r>  -15.4067    1.0000 </r>
       <r>  -15.3886    1.0000 </r>
       <r>  -15.3886    1.0000 </r>
       <r>  -15.3800    1.0000 </r>
       <r>  -15.3800    1.0000 </r>
       <r>  -15.3781    1.0000 </r>
       <r>  -15.3781    1.0000 </r>
       <r>  -15.3660    1.0000 </r>
       <r>  -15.3660    1.0000 </r>
       <r>  -15.3488    1.0000 </r>
       <r>  -15.3488    1.0000 </r>
       <r>  -15.3373    1.0000 </r>
       <r>  -15.3373    1.0000 </r>
       <r>  -15.3294    1.0000 </r>
       <r>  -15.3294    1.0000 </r>
       <r>  -15.3142    1.0000 </r>
       <r>  -15.3142    1.0000 </r>
       <r>   -6.9065    1.0000 </r>
       <r>   -6.9065    1.0000 </r>
       <r>   -6.7055    1.0000 </r>
       <r>   -6.7055    1.0000 </r>
       <r>   -1.6728    1.0000 </r>
       <r>   -1.6728    1.0000 </r>
       <r>   -0.6898    1.0000 </r>
       <r>   -0.6898    1.0000 </r>
       <r>    1.0753    1.0000 </r>
       <r>    1.0753    1.0000 </r>
       <r>    1.3527    1.0000 </r>
       <r>    1.3527    1.0000 </r>
       <r>    2.3258    1.0000 </r>
       <r>    2.3258    1.0000 </r>
       <r>    2.9326    1.0000 </r>
       <r>    2.9326    1.0000 </r>
       <r>    3.7722    1.0000 </r>
       <r>    3.7722    1.0000 </r>
       <r>    4.5091    1.0000 </r>
       <r>    4.5091    1.0000 </r>
       <r>    7.8655    0.0000 </r>
       <r>    7.8655    0.0000 </r>
       <r>    9.1631    0.0000 </r>
       <r>    9.1631    0.0000 </r>
       <r>   10.1140    0.0000 </r>
       <r>   10.1140    0.0000 </r>
       <r>   10.3307    0.0000 </r>
       <r>   10.3307    0.0000 </r>
       <r>   11.4543    0.0000 </r>
       <r>   11.4543    0.0000 </r>
       <r>   11.8453    0.0000 </r>
       <r>   11.8453    0.0000 </r>
       <r>   12.2659    0.0000 </r>
       <r>   12.2659    0.0000 </r>
       <r>   13.2032    0.0000 </r>
       <r>   13.2032    0.0000 </r>
       <r>   15.1190    0.0000 </r>
       <r>   15.1190    0.0000 </r>
       <r>   16.3779    0.0000 </r>
       <r>   16.3779    0.0000 </r>
       <r>   16.6381    0.0000 </r>
       <r>   16.6381    0.0000 </r>
       <r>   17.1854    0.0000 </r>
       <r>   17.1854    0.0000 </r>
      </set>
      <set comment="kpoint 46">
       <r>  -15.4021    1.0000 </r>
       <r>  -15.4003    1.0000 </r>
       <r>  -15.3995    1.0000 </r>
       <r>  -15.3974    1.0000 </r>
       <r>  -15.3873    1.0000 </r>
       <r>  -15.3868    1.0000 </r>
       <r>  -15.3868    1.0000 </r>
       <r>  -15.3855    1.0000 </r>
       <r>  -15.3763    1.0000 </r>
       <r>  -15.3732    1.0000 </r>
       <r>  -15.3694    1.0000 </r>
       <r>  -15.3691    1.0000 </r>
       <r>  -15.3527    1.0000 </r>
       <r>  -15.3504    1.0000 </r>
       <r>  -15.3466    1.0000 </r>
       <r>  -15.3457    1.0000 </r>
       <r>  -15.3247    1.0000 </r>
       <r>  -15.3223    1.0000 </r>
       <r>  -15.3192    1.0000 </r>
       <r>  -15.3183    1.0000 </r>
       <r>   -7.1742    1.0000 </r>
       <r>   -7.0964    1.0000 </r>
       <r>   -6.8738    1.0000 </r>
       <r>   -6.8600    1.0000 </r>
       <r>   -2.0598    1.0000 </r>
       <r>   -1.7631    1.0000 </r>
       <r>   -1.6959    1.0000 </r>
       <r>   -1.4070    1.0000 </r>
       <r>    2.2425    1.0000 </r>
       <r>    2.8010    1.0000 </r>
       <r>    3.1770    1.0000 </r>
       <r>    3.4210    1.0000 </r>
       <r>    3.4254    1.0000 </r>
       <r>    3.8378    1.0000 </r>
       <r>    3.8509    1.0000 </r>
       <r>    3.8892    1.0000 </r>
       <r>    4.5611    1.0000 </r>
       <r>    4.7413    1.0000 </r>
       <r>    5.1187    1.0000 </r>
       <r>    5.2432    1.0000 </r>
       <r>    6.8233    0.0000 </r>
       <r>    7.0324    0.0000 </r>
       <r>    7.3289    0.0000 </r>
       <r>    7.5309    0.0000 </r>
       <r>    7.8259    0.0000 </r>
       <r>    8.0192    0.0000 </r>
       <r>    8.0193    0.0000 </r>
       <r>    8.3483    0.0000 </r>
       <r>    8.9576    0.0000 </r>
       <r>    9.3729    0.0000 </r>
       <r>   10.2027    0.0000 </r>
       <r>   10.3720    0.0000 </r>
       <r>   13.2155    0.0000 </r>
       <r>   13.5583    0.0000 </r>
       <r>   13.9584    0.0000 </r>
       <r>   14.0038    0.0000 </r>
       <r>   14.4537    0.0000 </r>
       <r>   14.5352    0.0000 </r>
       <r>   14.7283    0.0000 </r>
       <r>   15.1615    0.0000 </r>
       <r>   15.7882    0.0000 </r>
       <r>   15.8017    0.0000 </r>
       <r>   16.0455    0.0000 </r>
       <r>   16.3301    0.0000 </r>
      </set>
      <set comment="kpoint 47">
       <r>  -15.4047    1.0000 </r>
       <r>  -15.4030    1.0000 </r>
       <r>  -15.4012    1.0000 </r>
       <r>  -15.3995    1.0000 </r>
       <r>  -15.3872    1.0000 </r>
       <r>  -15.3870    1.0000 </r>
       <r>  -15.3853    1.0000 </r>
       <r>  -15.3847    1.0000 </r>
       <r>  -15.3754    1.0000 </r>
       <r>  -15.3728    1.0000 </r>
       <r>  -15.3692    1.0000 </r>
       <r>  -15.3687    1.0000 </r>
       <r>  -15.3518    1.0000 </r>
       <r>  -15.3498    1.0000 </r>
       <r>  -15.3457    1.0000 </r>
       <r>  -15.3449    1.0000 </r>
       <r>  -15.3247    1.0000 </r>
       <r>  -15.3226    1.0000 </r>
       <r>  -15.3190    1.0000 </r>
       <r>  -15.3182    1.0000 </r>
       <r>   -7.1247    1.0000 </r>
       <r>   -7.0502    1.0000 </r>
       <r>   -6.8415    1.0000 </r>
       <r>   -6.8271    1.0000 </r>
       <r>   -1.9646    1.0000 </r>
       <r>   -1.6791    1.0000 </r>
       <r>   -1.6016    1.0000 </r>
       <r>   -1.3450    1.0000 </r>
       <r>    2.1575    1.0000 </r>
       <r>    2.3001    1.0000 </r>
       <r>    2.6130    1.0000 </r>
       <r>    2.8746    1.0000 </r>
       <r>    3.0446    1.0000 </r>
       <r>    3.4531    1.0000 </r>
       <r>    3.6369    1.0000 </r>
       <r>    4.0193    1.0000 </r>
       <r>    4.4429    1.0000 </r>
       <r>    4.7363    1.0000 </r>
       <r>    4.7679    1.0000 </r>
       <r>    5.0350    1.0000 </r>
       <r>    7.1071    0.0000 </r>
       <r>    7.1722    0.0000 </r>
       <r>    7.3360    0.0000 </r>
       <r>    7.5985    0.0000 </r>
       <r>    8.4271    0.0000 </r>
       <r>    8.6925    0.0000 </r>
       <r>    8.8631    0.0000 </r>
       <r>    9.2405    0.0000 </r>
       <r>    9.3134    0.0000 </r>
       <r>    9.9193    0.0000 </r>
       <r>   10.2042    0.0000 </r>
       <r>   10.2883    0.0000 </r>
       <r>   12.4527    0.0000 </r>
       <r>   12.8382    0.0000 </r>
       <r>   13.8565    0.0000 </r>
       <r>   14.2641    0.0000 </r>
       <r>   14.6534    0.0000 </r>
       <r>   14.8523    0.0000 </r>
       <r>   14.9650    0.0000 </r>
       <r>   15.5152    0.0000 </r>
       <r>   15.9006    0.0000 </r>
       <r>   16.0166    0.0000 </r>
       <r>   16.5041    0.0000 </r>
       <r>   16.8116    0.0000 </r>
      </set>
      <set comment="kpoint 48">
       <r>  -15.4104    1.0000 </r>
       <r>  -15.4089    1.0000 </r>
       <r>  -15.4058    1.0000 </r>
       <r>  -15.4045    1.0000 </r>
       <r>  -15.3872    1.0000 </r>
       <r>  -15.3865    1.0000 </r>
       <r>  -15.3835    1.0000 </r>
       <r>  -15.3832    1.0000 </r>
       <r>  -15.3736    1.0000 </r>
       <r>  -15.3720    1.0000 </r>
       <r>  -15.3686    1.0000 </r>
       <r>  -15.3680    1.0000 </r>
       <r>  -15.3493    1.0000 </r>
       <r>  -15.3480    1.0000 </r>
       <r>  -15.3435    1.0000 </r>
       <r>  -15.3429    1.0000 </r>
       <r>  -15.3248    1.0000 </r>
       <r>  -15.3232    1.0000 </r>
       <r>  -15.3185    1.0000 </r>
       <r>  -15.3180    1.0000 </r>
       <r>   -6.9951    1.0000 </r>
       <r>   -6.9309    1.0000 </r>
       <r>   -6.7649    1.0000 </r>
       <r>   -6.7486    1.0000 </r>
       <r>   -1.7028    1.0000 </r>
       <r>   -1.4533    1.0000 </r>
       <r>   -1.3406    1.0000 </r>
       <r>   -1.1837    1.0000 </r>
       <r>    1.3647    1.0000 </r>
       <r>    1.6197    1.0000 </r>
       <r>    1.9216    1.0000 </r>
       <r>    2.1111    1.0000 </r>
       <r>    2.4621    1.0000 </r>
       <r>    2.9392    1.0000 </r>
       <r>    3.1254    1.0000 </r>
       <r>    3.5683    1.0000 </r>
       <r>    3.7577    1.0000 </r>
       <r>    4.1357    1.0000 </r>
       <r>    4.3927    1.0000 </r>
       <r>    4.7886    1.0000 </r>
       <r>    7.5406    0.0000 </r>
       <r>    7.9160    0.0000 </r>
       <r>    8.4617    0.0000 </r>
       <r>    8.7482    0.0000 </r>
       <r>    9.0899    0.0000 </r>
       <r>    9.1878    0.0000 </r>
       <r>    9.6528    0.0000 </r>
       <r>    9.7775    0.0000 </r>
       <r>   10.3984    0.0000 </r>
       <r>   10.6402    0.0000 </r>
       <r>   11.0294    0.0000 </r>
       <r>   11.3866    0.0000 </r>
       <r>   12.0780    0.0000 </r>
       <r>   12.2485    0.0000 </r>
       <r>   13.5067    0.0000 </r>
       <r>   13.6134    0.0000 </r>
       <r>   14.9387    0.0000 </r>
       <r>   15.2739    0.0000 </r>
       <r>   15.4264    0.0000 </r>
       <r>   16.0021    0.0000 </r>
       <r>   16.3547    0.0000 </r>
       <r>   16.5312    0.0000 </r>
       <r>   16.9368    0.0000 </r>
       <r>   17.2149    0.0000 </r>
      </set>
      <set comment="kpoint 49">
       <r>  -15.4156    1.0000 </r>
       <r>  -15.4147    1.0000 </r>
       <r>  -15.4102    1.0000 </r>
       <r>  -15.4096    1.0000 </r>
       <r>  -15.3872    1.0000 </r>
       <r>  -15.3865    1.0000 </r>
       <r>  -15.3824    1.0000 </r>
       <r>  -15.3820    1.0000 </r>
       <r>  -15.3720    1.0000 </r>
       <r>  -15.3712    1.0000 </r>
       <r>  -15.3678    1.0000 </r>
       <r>  -15.3673    1.0000 </r>
       <r>  -15.3464    1.0000 </r>
       <r>  -15.3459    1.0000 </r>
       <r>  -15.3411    1.0000 </r>
       <r>  -15.3408    1.0000 </r>
       <r>  -15.3245    1.0000 </r>
       <r>  -15.3236    1.0000 </r>
       <r>  -15.3180    1.0000 </r>
       <r>  -15.3177    1.0000 </r>
       <r>   -6.8407    1.0000 </r>
       <r>   -6.7943    1.0000 </r>
       <r>   -6.6976    1.0000 </r>
       <r>   -6.6783    1.0000 </r>
       <r>   -1.3827    1.0000 </r>
       <r>   -1.2229    1.0000 </r>
       <r>   -1.0114    1.0000 </r>
       <r>   -0.9424    1.0000 </r>
       <r>    0.7856    1.0000 </r>
       <r>    1.1355    1.0000 </r>
       <r>    1.1942    1.0000 </r>
       <r>    1.6175    1.0000 </r>
       <r>    1.8357    1.0000 </r>
       <r>    2.2126    1.0000 </r>
       <r>    2.3617    1.0000 </r>
       <r>    2.8452    1.0000 </r>
       <r>    3.6681    1.0000 </r>
       <r>    3.9795    1.0000 </r>
       <r>    4.3638    1.0000 </r>
       <r>    4.5326    1.0000 </r>
       <r>    7.8587    0.0000 </r>
       <r>    8.1849    0.0000 </r>
       <r>    8.6035    0.0000 </r>
       <r>    8.9014    0.0000 </r>
       <r>    9.9836    0.0000 </r>
       <r>   10.0361    0.0000 </r>
       <r>   10.4590    0.0000 </r>
       <r>   10.5839    0.0000 </r>
       <r>   11.5534    0.0000 </r>
       <r>   11.8069    0.0000 </r>
       <r>   12.1223    0.0000 </r>
       <r>   12.1514    0.0000 </r>
       <r>   12.2309    0.0000 </r>
       <r>   12.4875    0.0000 </r>
       <r>   13.1548    0.0000 </r>
       <r>   13.2798    0.0000 </r>
       <r>   15.1633    0.0000 </r>
       <r>   15.3700    0.0000 </r>
       <r>   16.1663    0.0000 </r>
       <r>   16.3702    0.0000 </r>
       <r>   16.8154    0.0000 </r>
       <r>   16.9291    0.0000 </r>
       <r>   17.1139    0.0000 </r>
       <r>   17.1572    0.0000 </r>
      </set>
      <set comment="kpoint 50">
       <r>  -15.4174    1.0000 </r>
       <r>  -15.4174    1.0000 </r>
       <r>  -15.4119    1.0000 </r>
       <r>  -15.4119    1.0000 </r>
       <r>  -15.3870    1.0000 </r>
       <r>  -15.3870    1.0000 </r>
       <r>  -15.3819    1.0000 </r>
       <r>  -15.3819    1.0000 </r>
       <r>  -15.3711    1.0000 </r>
       <r>  -15.3711    1.0000 </r>
       <r>  -15.3672    1.0000 </r>
       <r>  -15.3672    1.0000 </r>
       <r>  -15.3450    1.0000 </r>
       <r>  -15.3450    1.0000 </r>
       <r>  -15.3400    1.0000 </r>
       <r>  -15.3400    1.0000 </r>
       <r>  -15.3240    1.0000 </r>
       <r>  -15.3240    1.0000 </r>
       <r>  -15.3177    1.0000 </r>
       <r>  -15.3177    1.0000 </r>
       <r>   -6.7429    1.0000 </r>
       <r>   -6.7429    1.0000 </r>
       <r>   -6.6696    1.0000 </r>
       <r>   -6.6696    1.0000 </r>
       <r>   -1.1996    1.0000 </r>
       <r>   -1.1996    1.0000 </r>
       <r>   -0.7927    1.0000 </r>
       <r>   -0.7927    1.0000 </r>
       <r>    0.7408    1.0000 </r>
       <r>    0.7408    1.0000 </r>
       <r>    1.1605    1.0000 </r>
       <r>    1.1605    1.0000 </r>
       <r>    1.7327    1.0000 </r>
       <r>    1.7327    1.0000 </r>
       <r>    2.2693    1.0000 </r>
       <r>    2.2693    1.0000 </r>
       <r>    3.8701    1.0000 </r>
       <r>    3.8701    1.0000 </r>
       <r>    4.4088    1.0000 </r>
       <r>    4.4088    1.0000 </r>
       <r>    8.0453    0.0000 </r>
       <r>    8.0453    0.0000 </r>
       <r>    8.5966    0.0000 </r>
       <r>    8.5966    0.0000 </r>
       <r>   10.6380    0.0000 </r>
       <r>   10.6380    0.0000 </r>
       <r>   10.8183    0.0000 </r>
       <r>   10.8183    0.0000 </r>
       <r>   12.1977    0.0000 </r>
       <r>   12.1977    0.0000 </r>
       <r>   12.4778    0.0000 </r>
       <r>   12.4778    0.0000 </r>
       <r>   12.5903    0.0000 </r>
       <r>   12.5903    0.0000 </r>
       <r>   13.1767    0.0000 </r>
       <r>   13.1767    0.0000 </r>
       <r>   15.4299    0.0000 </r>
       <r>   15.4299    0.0000 </r>
       <r>   16.3670    0.0000 </r>
       <r>   16.3670    0.0000 </r>
       <r>   16.9473    0.0000 </r>
       <r>   16.9473    0.0000 </r>
       <r>   17.1621    0.0000 </r>
       <r>   17.1621    0.0000 </r>
      </set>
     </set>
    </set>
   </array>
  </eigenvalues>
  <separator name="orbital magnetization" >
   <v name="MAGDIPOLOUT">      0.00000000      0.00000000      0.00000000</v>
  </separator>
  <dos>
   <i name="efermi">      5.96731107 </i>
   <total>
    <array>
     <dimension dim="1">gridpoints</dimension>
     <dimension dim="2">spin</dimension>
     <field>energy</field>
     <field>total</field>
     <field>integrated</field>
     <set>
      <set comment="spin 1">
       <r>   -17.0805     0.0000     0.0000 </r>
       <r>   -16.9587     0.0000     0.0000 </r>
       <r>   -16.8369     0.0000     0.0000 </r>
       <r>   -16.7151     0.0000     0.0000 </r>
       <r>   -16.5934     0.0000     0.0000 </r>
       <r>   -16.4716     0.0000     0.0000 </r>
       <r>   -16.3498     0.0000     0.0000 </r>
       <r>   -16.2280     0.0000     0.0000 </r>
       <r>   -16.1062     0.0000     0.0000 </r>
       <r>   -15.9844     0.0000     0.0000 </r>
       <r>   -15.8626     0.0000     0.0000 </r>
       <r>   -15.7409     0.0000     0.0000 </r>
       <r>   -15.6191     0.0000     0.0000 </r>
       <r>   -15.4973     0.0000     0.0000 </r>
       <r>   -15.3755   155.0035    18.8771 </r>
       <r>   -15.2537    64.8532    40.0000 </r>
       <r>   -15.1319     0.0000    40.0000 </r>
       <r>   -15.0102     0.0000    40.0000 </r>
       <r>   -14.8884     0.0000    40.0000 </r>
       <r>   -14.7666     0.0000    40.0000 </r>
       <r>   -14.6448     0.0000    40.0000 </r>
       <r>   -14.5230     0.0000    40.0000 </r>
       <r>   -14.4012     0.0000    40.0000 </r>
       <r>   -14.2794     0.0000    40.0000 </r>
       <r>   -14.1577     0.0000    40.0000 </r>
       <r>   -14.0359     0.0000    40.0000 </r>
       <r>   -13.9141     0.0000    40.0000 </r>
       <r>   -13.7923     0.0000    40.0000 </r>
       <r>   -13.6705     0.0000    40.0000 </r>
       <r>   -13.5487     0.0000    40.0000 </r>
       <r>   -13.4269     0.0000    40.0000 </r>
       <r>   -13.3052     0.0000    40.0000 </r>
       <r>   -13.1834     0.0000    40.0000 </r>
       <r>   -13.0616     0.0000    40.0000 </r>
       <r>   -12.9398     0.0000    40.0000 </r>
       <r>   -12.8180     0.0000    40.0000 </r>
       <r>   -12.6962     0.0000    40.0000 </r>
       <r>   -12.5745     0.0000    40.0000 </r>
       <r>   -12.4527     0.0000    40.0000 </r>
       <r>   -12.3309     0.0000    40.0000 </r>
       <r>   -12.2091     0.0000    40.0000 </r>
       <r>   -12.0873     0.0000    40.0000 </r>
       <r>   -11.9655     0.0000    40.0000 </r>
       <r>   -11.8437     0.0000    40.0000 </r>
       <r>   -11.7220     0.0000    40.0000 </r>
       <r>   -11.6002     0.0000    40.0000 </r>
       <r>   -11.4784     0.0000    40.0000 </r>
       <r>   -11.3566     0.0000    40.0000 </r>
       <r>   -11.2348     0.0000    40.0000 </r>
       <r>   -11.1130     0.0000    40.0000 </r>
       <r>   -10.9912     0.0000    40.0000 </r>
       <r>   -10.8695     0.0000    40.0000 </r>
       <r>   -10.7477     0.0000    40.0000 </r>
       <r>   -10.6259     0.0000    40.0000 </r>
       <r>   -10.5041     0.0000    40.0000 </r>
       <r>   -10.3823     0.0000    40.0000 </r>
       <r>   -10.2605     0.0000    40.0000 </r>
       <r>   -10.1388     0.0000    40.0000 </r>
       <r>   -10.0170     0.0000    40.0000 </r>
       <r>    -9.8952     0.0000    40.0000 </r>
       <r>    -9.7734     0.0000    40.0000 </r>
       <r>    -9.6516     0.0000    40.0000 </r>
       <r>    -9.5298     0.0000    40.0000 </r>
       <r>    -9.4080     0.0000    40.0000 </r>
       <r>    -9.2863     0.0000    40.0000 </r>
       <r>    -9.1645     0.0000    40.0000 </r>
       <r>    -9.0427     0.0000    40.0000 </r>
       <r>    -8.9209     0.0000    40.0000 </r>
       <r>    -8.7991     0.0000    40.0000 </r>
       <r>    -8.6773     0.0000    40.0000 </r>
       <r>    -8.5555     0.0000    40.0000 </r>
       <r>    -8.4338     0.0000    40.0000 </r>
       <r>    -8.3120     0.0000    40.0000 </r>
       <r>    -8.1902     0.0022    40.0003 </r>
       <r>    -8.0684     0.4562    40.0648 </r>
       <r>    -7.9466     0.5999    40.2490 </r>
       <r>    -7.8248     1.7063    40.4763 </r>
       <r>    -7.7031     1.9644    40.7670 </r>
       <r>    -7.5813     2.3343    41.1176 </r>
       <r>    -7.4595     2.8818    41.5547 </r>
       <r>    -7.3377     1.4573    41.8627 </r>
       <r>    -7.2159     2.2809    42.4074 </r>
       <r>    -7.0941     2.0623    42.8993 </r>
       <r>    -6.9723     3.9788    43.6049 </r>
       <r>    -6.8506     7.6576    44.7381 </r>
       <r>    -6.7288     8.4979    46.1553 </r>
       <r>    -6.6070     7.8871    47.5068 </r>
       <r>    -6.4852     1.8942    47.9992 </r>
       <r>    -6.3634     0.0000    48.0000 </r>
       <r>    -6.2416     0.0000    48.0000 </r>
       <r>    -6.1198     0.0000    48.0000 </r>
       <r>    -5.9981     0.0000    48.0000 </r>
       <r>    -5.8763     0.0000    48.0000 </r>
       <r>    -5.7545     0.0000    48.0000 </r>
       <r>    -5.6327     0.0000    48.0000 </r>
       <r>    -5.5109     0.0000    48.0000 </r>
       <r>    -5.3891     0.0000    48.0000 </r>
       <r>    -5.2674     0.0000    48.0000 </r>
       <r>    -5.1456     0.0000    48.0000 </r>
       <r>    -5.0238     0.0000    48.0000 </r>
       <r>    -4.9020     0.0000    48.0000 </r>
       <r>    -4.7802     0.0000    48.0000 </r>
       <r>    -4.6584     0.0000    48.0000 </r>
       <r>    -4.5366     0.0000    48.0000 </r>
       <r>    -4.4149     0.0000    48.0000 </r>
       <r>    -4.2931     0.0000    48.0000 </r>
       <r>    -4.1713     0.0000    48.0000 </r>
       <r>    -4.0495     0.0000    48.0000 </r>
       <r>    -3.9277     0.0000    48.0000 </r>
       <r>    -3.8059     0.0000    48.0000 </r>
       <r>    -3.6841     0.0000    48.0000 </r>
       <r>    -3.5624     0.0000    48.0000 </r>
       <r>    -3.4406     0.0000    48.0000 </r>
       <r>    -3.3188     0.0000    48.0000 </r>
       <r>    -3.1970     0.0000    48.0000 </r>
       <r>    -3.0752     0.0000    48.0000 </r>
       <r>    -2.9534     0.0000    48.0000 </r>
       <r>    -2.8317     0.0000    48.0000 </r>
       <r>    -2.7099     0.0000    48.0000 </r>
       <r>    -2.5881     0.0971    48.0118 </r>
       <r>    -2.4663     0.4562    48.0741 </r>
       <r>    -2.3445     1.2183    48.2965 </r>
       <r>    -2.2227     0.5351    48.3985 </r>
       <r>    -2.1009     1.9759    48.6851 </r>
       <r>    -1.9792     1.8344    49.0938 </r>
       <r>    -1.8574     1.0828    49.4652 </r>
       <r>    -1.7356     2.4686    49.9303 </r>
       <r>    -1.6138     2.3673    50.4179 </r>
       <r>    -1.4920     2.0716    50.8634 </r>
       <r>    -1.3702     2.5045    51.3606 </r>
       <r>    -1.2484     0.6109    51.7133 </r>
       <r>    -1.1267     3.5899    52.2983 </r>
       <r>    -1.0049     2.7982    52.7945 </r>
       <r>    -0.8831     1.5238    53.2504 </r>
       <r>    -0.7613     3.2024    54.0659 </r>
       <r>    -0.6395     2.2541    54.5616 </r>
       <r>    -0.5177     1.6967    54.8085 </r>
       <r>    -0.3960     1.6314    55.0783 </r>
       <r>    -0.2742     1.1996    55.2665 </r>
       <r>    -0.1524     1.4105    55.4773 </r>
       <r>    -0.0306     0.3041    55.5370 </r>
       <r>     0.0912     0.6066    55.6109 </r>
       <r>     0.2130     0.0000    55.6574 </r>
       <r>     0.3348     1.2165    55.8056 </r>
       <r>     0.4565     0.7676    55.8990 </r>
       <r>     0.5783     0.3041    55.9907 </r>
       <r>     0.7001     0.0007    56.0279 </r>
       <r>     0.8219     0.9871    56.2776 </r>
       <r>     0.9437     0.5667    56.4579 </r>
       <r>     1.0655     0.9630    56.6451 </r>
       <r>     1.1873     2.6909    57.1147 </r>
       <r>     1.3090     2.2499    57.4870 </r>
       <r>     1.4308     4.4237    58.0850 </r>
       <r>     1.5526     2.0707    58.4651 </r>
       <r>     1.6744     1.8043    58.8771 </r>
       <r>     1.7962     2.5809    59.3051 </r>
       <r>     1.9180     3.2305    59.9212 </r>
       <r>     2.0397     2.4473    60.3629 </r>
       <r>     2.1615     3.3742    60.9387 </r>
       <r>     2.2833     4.9640    61.7619 </r>
       <r>     2.4051     4.1080    62.5003 </r>
       <r>     2.5269     2.2872    62.9823 </r>
       <r>     2.6487     4.3864    63.7009 </r>
       <r>     2.7705     1.3046    64.0478 </r>
       <r>     2.8922     4.1450    64.7085 </r>
       <r>     3.0140     4.2467    65.5357 </r>
       <r>     3.1358     3.0471    66.0748 </r>
       <r>     3.2576     3.1356    66.6596 </r>
       <r>     3.3794     3.9861    67.3929 </r>
       <r>     3.5012     6.0304    68.4474 </r>
       <r>     3.6230     3.9155    68.9676 </r>
       <r>     3.7447     4.0909    69.8038 </r>
       <r>     3.8665     3.0012    70.4488 </r>
       <r>     3.9883     4.3051    71.3021 </r>
       <r>     4.1101     5.0895    72.2309 </r>
       <r>     4.2319     2.4643    72.8927 </r>
       <r>     4.3537     3.9494    73.5273 </r>
       <r>     4.4754     2.7800    74.1997 </r>
       <r>     4.5972     1.7607    74.7978 </r>
       <r>     4.7190     1.8102    75.2204 </r>
       <r>     4.8408     5.0349    76.1687 </r>
       <r>     4.9626     2.6690    76.5287 </r>
       <r>     5.0844     4.3655    77.2724 </r>
       <r>     5.2062     4.2222    77.9679 </r>
       <r>     5.3279     5.5788    79.0220 </r>
       <r>     5.4497     4.3964    79.6465 </r>
       <r>     5.5715     0.6148    79.7601 </r>
       <r>     5.6933     0.6084    79.8889 </r>
       <r>     5.8151     0.1541    79.9447 </r>
       <r>     5.9369     0.1521    80.0000 </r>
       <r>     6.0586     0.0000    80.0000 </r>
       <r>     6.1804     0.0000    80.0000 </r>
       <r>     6.3022     0.0110    80.0013 </r>
       <r>     6.4240     0.4556    80.0833 </r>
       <r>     6.5458     0.6069    80.1758 </r>
       <r>     6.6676     1.1237    80.3128 </r>
       <r>     6.7894     1.3722    80.4912 </r>
       <r>     6.9111     1.4027    80.7171 </r>
       <r>     7.0329     0.6168    80.8622 </r>
       <r>     7.1547     3.6574    81.4362 </r>
       <r>     7.2765     2.7298    81.9343 </r>
       <r>     7.3983     2.8032    82.5544 </r>
       <r>     7.5201     1.7776    82.9109 </r>
       <r>     7.6419     3.4531    83.5965 </r>
       <r>     7.7636     1.7477    84.0740 </r>
       <r>     7.8854     4.4966    84.8532 </r>
       <r>     8.0072     2.0061    85.2350 </r>
       <r>     8.1290     1.3723    85.6949 </r>
       <r>     8.2508     4.9376    86.3328 </r>
       <r>     8.3726     2.7732    86.8470 </r>
       <r>     8.4943     4.4560    87.4964 </r>
       <r>     8.6161     2.8019    88.1283 </r>
       <r>     8.7379     2.2939    88.6034 </r>
       <r>     8.8597     2.9102    89.4377 </r>
       <r>     8.9815     6.0937    90.5106 </r>
       <r>     9.1033     5.3966    91.4350 </r>
       <r>     9.2251     4.1451    92.0233 </r>
       <r>     9.3468     4.9524    92.7050 </r>
       <r>     9.4686     3.6614    93.3163 </r>
       <r>     9.5904     2.0158    93.6529 </r>
       <r>     9.7122     2.7373    94.1111 </r>
       <r>     9.8340     1.9490    94.4966 </r>
       <r>     9.9558     4.9748    95.1984 </r>
       <r>    10.0776     3.5021    95.8524 </r>
       <r>    10.1993     2.3472    96.2581 </r>
       <r>    10.3211     3.8671    96.9802 </r>
       <r>    10.4429     3.4945    97.6385 </r>
       <r>    10.5647     2.9763    98.3995 </r>
       <r>    10.6865     4.2039    99.2064 </r>
       <r>    10.8083     4.6866    99.8763 </r>
       <r>    10.9300     2.8723   100.6646 </r>
       <r>    11.0518     4.6627   101.5123 </r>
       <r>    11.1736     1.6465   101.9042 </r>
       <r>    11.2954     1.9815   102.2228 </r>
       <r>    11.4172     3.1974   102.7227 </r>
       <r>    11.5390     1.9616   103.2667 </r>
       <r>    11.6608     1.8594   103.6987 </r>
       <r>    11.7825     2.4488   104.1593 </r>
       <r>    11.9043     2.2722   104.6471 </r>
       <r>    12.0261     2.9153   105.0958 </r>
       <r>    12.1479     4.4973   105.6866 </r>
       <r>    12.2697     5.4500   106.5248 </r>
       <r>    12.3915     1.9629   106.9150 </r>
       <r>    12.5133     2.5106   107.3520 </r>
       <r>    12.6350     2.5136   107.7043 </r>
       <r>    12.7568     3.7109   108.4056 </r>
       <r>    12.8786     2.1372   108.7881 </r>
       <r>    13.0004     3.0654   109.4752 </r>
       <r>    13.1222     1.6904   109.7892 </r>
       <r>    13.2440     4.2451   110.6003 </r>
       <r>    13.3657     2.1266   110.9720 </r>
       <r>    13.4875     1.9069   111.4822 </r>
       <r>    13.6093     2.4886   111.9790 </r>
       <r>    13.7311     1.1373   112.2311 </r>
       <r>    13.8529     2.1968   112.6749 </r>
       <r>    13.9747     4.5960   113.5782 </r>
       <r>    14.0965     2.1020   114.0708 </r>
       <r>    14.2182     4.2680   114.7235 </r>
       <r>    14.3400     3.9849   115.2446 </r>
       <r>    14.4618     1.8892   115.7301 </r>
       <r>    14.5836     2.5693   116.1277 </r>
       <r>    14.7054     4.3108   116.7750 </r>
       <r>    14.8272     1.5220   117.2409 </r>
       <r>    14.9490     3.6937   117.9313 </r>
       <r>    15.0707     1.0644   118.2407 </r>
       <r>    15.1925     4.1064   118.7964 </r>
       <r>    15.3143     4.6667   119.6054 </r>
       <r>    15.4361     5.2136   120.4498 </r>
       <r>    15.5579     3.9670   121.1683 </r>
       <r>    15.6797     1.7661   121.6595 </r>
       <r>    15.8014     4.4412   122.4298 </r>
       <r>    15.9232     2.9146   122.8920 </r>
       <r>    16.0450     5.7666   123.8319 </r>
       <r>    16.1668     2.5344   124.2346 </r>
       <r>    16.2886     1.7435   124.6012 </r>
       <r>    16.4104     3.5891   125.1223 </r>
       <r>    16.5322     3.0805   125.6900 </r>
       <r>    16.6539     2.8786   126.2395 </r>
       <r>    16.7757     1.6680   126.6291 </r>
       <r>    16.8975     0.8948   126.9238 </r>
       <r>    17.0193     2.1158   127.3317 </r>
       <r>    17.1411     0.7708   127.4642 </r>
       <r>    17.2629     1.5206   127.8519 </r>
       <r>    17.3847     0.0000   127.8889 </r>
       <r>    17.5064     0.0000   127.8889 </r>
       <r>    17.6282     0.3133   127.9270 </r>
       <r>    17.7500     0.0000   127.9630 </r>
       <r>    17.8718     0.3041   128.0000 </r>
       <r>    17.9936     0.0000   128.0000 </r>
       <r>    18.1154     0.0000   128.0000 </r>
       <r>    18.2371     0.0000   128.0000 </r>
       <r>    18.3589     0.0000   128.0000 </r>
       <r>    18.4807     0.0000   128.0000 </r>
       <r>    18.6025     0.0000   128.0000 </r>
       <r>    18.7243     0.0000   128.0000 </r>
       <r>    18.8461     0.0000   128.0000 </r>
       <r>    18.9679     0.0000   128.0000 </r>
       <r>    19.0896     0.0000   128.0000 </r>
       <r>    19.2114     0.0000   128.0000 </r>
       <r>    19.3332     0.0000   128.0000 </r>
       <r>    19.4550     0.0000   128.0000 </r>
      </set>
     </set>
    </array>
   </total>
  </dos>
 </calculation>
 <structure name="finalpos" >
  <crystal>
   <varray name="basis" >
    <v>       4.34539863       0.00000000       0.00000000 </v>
    <v>       0.00000000       4.11936655       0.00000000 </v>
    <v>       0.00000000       0.00000000      11.35478920 </v>
   </varray>
   <i name="volume">    203.25401695 </i>
   <varray name="rec_basis" >
    <v>       0.23012848       0.00000000       0.00000000 </v>
    <v>       0.00000000       0.24275577       0.00000000 </v>
    <v>       0.00000000       0.00000000       0.08806857 </v>
   </varray>
  </crystal>
  <varray name="positions" >
   <v>       0.09902309       0.25000000       0.11570512 </v>
   <v>       0.40097691       0.25000000       0.61570512 </v>
   <v>       0.59902309       0.75000000       0.38429488 </v>
   <v>       0.90097691       0.75000000       0.88429488 </v>
   <v>       0.02659283       0.25000000       0.35699926 </v>
   <v>       0.47340717       0.25000000       0.85699926 </v>
   <v>       0.52659283       0.75000000       0.14300074 </v>
   <v>       0.97340717       0.75000000       0.64300074 </v>
  </varray>
 </structure>
</modeling>
