<?xml version="1.0" encoding="ISO-8859-1"?>
<modeling>
 <generator>
  <i name="program" type="string">vasp </i>
  <i name="version" type="string">6.2.0  </i>
  <i name="subversion" type="string">18Jan21 (build Mar  1 2021 20:13:55) complex                          parallel </i>
  <i name="platform" type="string">HPECrayEX_GCC </i>
  <i name="date" type="string">2026 03 07 </i>
  <i name="time" type="string">08:11:25 </i>
 </generator>
 <incar>
  <i type="string" name="SYSTEM">Pnma SnSe</i>
  <i type="string" name="PREC">Accurate</i>
  <i type="string" name="ALGO">Normal</i>
  <i type="logical" name="ADDGRID"> T  </i>
  <i type="int" name="NELM">   250</i>
  <i type="int" name="NELMIN">     5</i>
  <i name="EDIFF">      0.00000001</i>
  <i type="int" name="NSW">     0</i>
  <i type="int" name="ISIF">     2</i>
  <i name="ENCUT">    700.00000000</i>
  <i type="logical" name="LREAL"> F  </i>
  <i type="int" name="ISMEAR">     0</i>
  <i name="SIGMA">      0.01000000</i>
  <i type="logical" name="LWAVE"> F  </i>
  <i type="logical" name="LCHARG"> F  </i>
  <i type="logical" name="LASPH"> T  </i>
  <i type="string" name="GGA">PS</i>
  <i type="logical" name="LEPSILON"> T  </i>
  <i type="int" name="IVDW">    11</i>
 </incar>
 <primitive_cell>
  <structure name="primitive_cell" >
   <crystal>
    <varray name="basis" >
     <v>       4.34539863       0.00000000       0.00000000 </v>
     <v>       0.00000000       4.11936655       0.00000000 </v>
     <v>       0.00000000       0.00000000      11.35478920 </v>
    </varray>
    <i name="volume">    203.25401695 </i>
    <varray name="rec_basis" >
     <v>       0.23012848       0.00000000       0.00000000 </v>
     <v>       0.00000000       0.24275577       0.00000000 </v>
     <v>       0.00000000       0.00000000       0.08806857 </v>
    </varray>
   </crystal>
   <varray name="positions" >
    <v>       0.09904952       0.25000000       0.11508910 </v>
    <v>       0.40095048       0.25000000       0.61508910 </v>
    <v>       0.59904952       0.75000000       0.38491090 </v>
    <v>       0.90095048       0.75000000       0.88491090 </v>
    <v>       0.02550821       0.25000000       0.35651006 </v>
    <v>       0.47449179       0.25000000       0.85651006 </v>
    <v>       0.52550821       0.75000000       0.14348994 </v>
    <v>       0.97449179       0.75000000       0.64348994 </v>
   </varray>
  </structure>
  <varray name="primitive_index" >
   <v type="int" >        1 </v>
   <v type="int" >        2 </v>
   <v type="int" >        3 </v>
   <v type="int" >        4 </v>
   <v type="int" >        5 </v>
   <v type="int" >        6 </v>
   <v type="int" >        7 </v>
   <v type="int" >        8 </v>
  </varray>
 </primitive_cell>
 <kpoints>
  <generation param="Gamma">
   <v type="int" name="divisions">       8        9        3 </v>
   <v name="usershift">      0.00000000       0.00000000       0.00000000 </v>
   <v name="genvec1">      0.12500000       0.00000000       0.00000000 </v>
   <v name="genvec2">      0.00000000       0.11111111       0.00000000 </v>
   <v name="genvec3">      0.00000000       0.00000000       0.33333333 </v>
   <v name="shift">      0.00000000       0.00000000       0.00000000 </v>
  </generation>
  <varray name="kpointlist" >
   <v>       0.00000000       0.00000000       0.00000000 </v>
   <v>       0.12500000       0.00000000       0.00000000 </v>
   <v>       0.25000000       0.00000000       0.00000000 </v>
   <v>       0.37500000       0.00000000       0.00000000 </v>
   <v>       0.50000000       0.00000000       0.00000000 </v>
   <v>       0.00000000       0.11111111       0.00000000 </v>
   <v>       0.12500000       0.11111111       0.00000000 </v>
   <v>       0.25000000       0.11111111       0.00000000 </v>
   <v>       0.37500000       0.11111111       0.00000000 </v>
   <v>       0.50000000       0.11111111       0.00000000 </v>
   <v>       0.00000000       0.22222222       0.00000000 </v>
   <v>       0.12500000       0.22222222       0.00000000 </v>
   <v>       0.25000000       0.22222222       0.00000000 </v>
   <v>       0.37500000       0.22222222       0.00000000 </v>
   <v>       0.50000000       0.22222222       0.00000000 </v>
   <v>       0.00000000       0.33333333       0.00000000 </v>
   <v>       0.12500000       0.33333333       0.00000000 </v>
   <v>       0.25000000       0.33333333       0.00000000 </v>
   <v>       0.37500000       0.33333333       0.00000000 </v>
   <v>       0.50000000       0.33333333       0.00000000 </v>
   <v>       0.00000000       0.44444444       0.00000000 </v>
   <v>       0.12500000       0.44444444       0.00000000 </v>
   <v>       0.25000000       0.44444444       0.00000000 </v>
   <v>       0.37500000       0.44444444       0.00000000 </v>
   <v>       0.50000000       0.44444444       0.00000000 </v>
   <v>       0.00000000       0.00000000       0.33333333 </v>
   <v>       0.12500000       0.00000000       0.33333333 </v>
   <v>       0.25000000       0.00000000       0.33333333 </v>
   <v>       0.37500000       0.00000000       0.33333333 </v>
   <v>       0.50000000       0.00000000       0.33333333 </v>
   <v>       0.00000000       0.11111111       0.33333333 </v>
   <v>       0.12500000       0.11111111       0.33333333 </v>
   <v>       0.25000000       0.11111111       0.33333333 </v>
   <v>       0.37500000       0.11111111       0.33333333 </v>
   <v>       0.50000000       0.11111111       0.33333333 </v>
   <v>       0.00000000       0.22222222       0.33333333 </v>
   <v>       0.12500000       0.22222222       0.33333333 </v>
   <v>       0.25000000       0.22222222       0.33333333 </v>
   <v>       0.37500000       0.22222222       0.33333333 </v>
   <v>       0.50000000       0.22222222       0.33333333 </v>
   <v>       0.00000000       0.33333333       0.33333333 </v>
   <v>       0.12500000       0.33333333       0.33333333 </v>
   <v>       0.25000000       0.33333333       0.33333333 </v>
   <v>       0.37500000       0.33333333       0.33333333 </v>
   <v>       0.50000000       0.33333333       0.33333333 </v>
   <v>       0.00000000       0.44444444       0.33333333 </v>
   <v>       0.12500000       0.44444444       0.33333333 </v>
   <v>       0.25000000       0.44444444       0.33333333 </v>
   <v>       0.37500000       0.44444444       0.33333333 </v>
   <v>       0.50000000       0.44444444       0.33333333 </v>
  </varray>
  <varray name="weights" >
   <v>       0.00462963 </v>
   <v>       0.00925926 </v>
   <v>       0.00925926 </v>
   <v>       0.00925926 </v>
   <v>       0.00462963 </v>
   <v>       0.00925926 </v>
   <v>       0.01851852 </v>
   <v>       0.01851852 </v>
   <v>       0.01851852 </v>
   <v>       0.00925926 </v>
   <v>       0.00925926 </v>
   <v>       0.01851852 </v>
   <v>       0.01851852 </v>
   <v>       0.01851852 </v>
   <v>       0.00925926 </v>
   <v>       0.00925926 </v>
   <v>       0.01851852 </v>
   <v>       0.01851852 </v>
   <v>       0.01851852 </v>
   <v>       0.00925926 </v>
   <v>       0.00925926 </v>
   <v>       0.01851852 </v>
   <v>       0.01851852 </v>
   <v>       0.01851852 </v>
   <v>       0.00925926 </v>
   <v>       0.00925926 </v>
   <v>       0.01851852 </v>
   <v>       0.01851852 </v>
   <v>       0.01851852 </v>
   <v>       0.00925926 </v>
   <v>       0.01851852 </v>
   <v>       0.03703704 </v>
   <v>       0.03703704 </v>
   <v>       0.03703704 </v>
   <v>       0.01851852 </v>
   <v>       0.01851852 </v>
   <v>       0.03703704 </v>
   <v>       0.03703704 </v>
   <v>       0.03703704 </v>
   <v>       0.01851852 </v>
   <v>       0.01851852 </v>
   <v>       0.03703704 </v>
   <v>       0.03703704 </v>
   <v>       0.03703704 </v>
   <v>       0.01851852 </v>
   <v>       0.01851852 </v>
   <v>       0.03703704 </v>
   <v>       0.03703704 </v>
   <v>       0.03703704 </v>
   <v>       0.01851852 </v>
  </varray>
 </kpoints>
 <parameters>
  <separator name="general" >
   <i type="string" name="SYSTEM">Pnma SnSe</i>
   <i type="logical" name="LCOMPAT"> F  </i>
  </separator>
  <separator name="electronic" >
   <i type="string" name="PREC">accura</i>
   <i name="ENMAX">    700.00000000</i>
   <i name="ENAUG">    446.84200000</i>
   <i name="EDIFF">      0.00000001</i>
   <i type="int" name="IALGO">    38</i>
   <i type="int" name="IWAVPR">    10</i>
   <i type="int" name="NBANDS">    64</i>
   <i type="int" name="NBANDSLOW">    -1</i>
   <i type="int" name="NBANDSHIGH">    -1</i>
   <i name="NELECT">     80.00000000</i>
   <i type="int" name="TURBO">     0</i>
   <i type="int" name="IRESTART">     0</i>
   <i type="int" name="NREBOOT">     0</i>
   <i type="int" name="NMIN">     0</i>
   <i name="EREF">      0.00000000</i>
   <separator name="electronic smearing" >
    <i type="int" name="ISMEAR">     0</i>
    <i name="SIGMA">      0.01000000</i>
    <i name="KSPACING">      0.50000000</i>
    <i type="logical" name="KGAMMA"> T  </i>
    <i type="logical" name="KBLOWUP"> T  </i>
   </separator>
   <separator name="electronic projectors" >
    <i type="logical" name="LREAL"> F  </i>
    <v name="ROPT">      0.00000000      0.00000000</v>
    <i type="int" name="LMAXPAW">  -100</i>
    <i type="int" name="LMAXMIX">     2</i>
    <i type="logical" name="NLSPLINE"> F  </i>
   </separator>
   <separator name="electronic startup" >
    <i type="int" name="ISTART">     0</i>
    <i type="int" name="ICHARG">     2</i>
    <i type="int" name="INIWAV">     1</i>
   </separator>
   <separator name="electronic spin" >
    <i type="int" name="ISPIN">     1</i>
    <i type="logical" name="LNONCOLLINEAR"> F  </i>
    <v name="MAGMOM">      1.00000000      1.00000000      1.00000000      1.00000000      1.00000000      1.00000000      1.00000000      1.00000000</v>
    <i name="NUPDOWN">     -1.00000000</i>
    <i type="logical" name="LSORBIT"> F  </i>
    <v name="SAXIS">      0.00000000      0.00000000      1.00000000</v>
    <i type="logical" name="LSPIRAL"> F  </i>
    <v name="QSPIRAL">      0.00000000      0.00000000      0.00000000</v>
    <i type="logical" name="LZEROZ"> F  </i>
   </separator>
   <separator name="electronic exchange-correlation" >
    <i type="logical" name="LASPH"> T  </i>
    <i type="logical" name="LMETAGGA"> F  </i>
   </separator>
   <separator name="electronic convergence" >
    <i type="int" name="NELM">   250</i>
    <i type="int" name="NELMDL">    -5</i>
    <i type="int" name="NELMIN">     5</i>
    <i name="ENINI">    700.00000000</i>
    <separator name="electronic convergence detail" >
     <i type="logical" name="LDIAG"> T  </i>
     <i type="logical" name="LSUBROT"> F  </i>
     <i name="WEIMIN">      0.00000000</i>
     <i name="EBREAK">      0.00000000</i>
     <i name="DEPER">      0.30000000</i>
     <i type="int" name="NRMM">     4</i>
     <i name="TIME">      0.40000000</i>
    </separator>
   </separator>
   <separator name="electronic mixer" >
    <i name="AMIX">      0.40000000</i>
    <i name="BMIX">      1.00000000</i>
    <i name="AMIN">      0.10000000</i>
    <i name="AMIX_MAG">      1.60000000</i>
    <i name="BMIX_MAG">      1.00000000</i>
    <separator name="electronic mixer details" >
     <i type="int" name="IMIX">     4</i>
     <i type="logical" name="MIXFIRST"> F  </i>
     <i type="int" name="MAXMIX">   -45</i>
     <i name="WC">    100.00000000</i>
     <i type="int" name="INIMIX">     1</i>
     <i type="int" name="MIXPRE">     1</i>
     <i type="int" name="MREMOVE">     5</i>
    </separator>
   </separator>
   <separator name="electronic dipolcorrection" >
    <i type="logical" name="LDIPOL"> F  </i>
    <i type="logical" name="LMONO"> F  </i>
    <i type="int" name="IDIPOL">     0</i>
    <i name="EPSILON">      1.00000000</i>
    <v name="DIPOL">   -100.00000000   -100.00000000   -100.00000000</v>
    <i name="EFIELD">      0.00000000</i>
   </separator>
  </separator>
  <separator name="grids" >
   <i type="int" name="NGX">    40</i>
   <i type="int" name="NGY">    36</i>
   <i type="int" name="NGZ">    98</i>
   <i type="int" name="NGXF">    80</i>
   <i type="int" name="NGYF">    72</i>
   <i type="int" name="NGZF">   196</i>
   <i type="logical" name="ADDGRID"> T  </i>
  </separator>
  <separator name="ionic" >
   <i type="int" name="NSW">     0</i>
   <i type="int" name="IBRION">    -1</i>
   <i type="int" name="MDALGO">     0</i>
   <i type="int" name="ISIF">     2</i>
   <i name="PSTRESS">      0.00000000</i>
   <i name="EDIFFG">      0.00000010</i>
   <i type="int" name="NFREE">     0</i>
   <i name="POTIM">      0.50000000</i>
   <i name="SMASS">     -3.00000000</i>
   <i name="SCALEE">      1.00000000</i>
  </separator>
  <separator name="ionic md" >
   <i name="TEBEG">      0.00010000</i>
   <i name="TEEND">      0.00010000</i>
   <i type="int" name="NBLOCK">     1</i>
   <i type="int" name="KBLOCK">     1</i>
   <i type="int" name="NPACO">   256</i>
   <i name="APACO">     16.00000000</i>
  </separator>
  <separator name="symmetry" >
   <i type="int" name="ISYM">     2</i>
   <i name="SYMPREC">      0.00001000</i>
  </separator>
  <separator name="dos" >
   <i type="int" name="LORBIT">     0</i>
   <v name="RWIGS">     -1.00000000     -1.00000000</v>
   <i type="int" name="NEDOS">   301</i>
   <i name="EMIN">     10.00000000</i>
   <i name="EMAX">    -10.00000000</i>
   <i name="EFERMI">      0.00000000</i>
  </separator>
  <separator name="writing" >
   <i type="int" name="NWRITE">     2</i>
   <i type="logical" name="LWAVE"> F  </i>
   <i type="logical" name="LDOWNSAMPLE"> F  </i>
   <i type="logical" name="LCHARG"> F  </i>
   <i type="logical" name="LPARD"> F  </i>
   <i type="logical" name="LVTOT"> F  </i>
   <i type="logical" name="LVHAR"> F  </i>
   <i type="logical" name="LELF"> F  </i>
   <i type="logical" name="LOPTICS"> F  </i>
   <v name="STM">      0.00000000      0.00000000      0.00000000      0.00000000      0.00000000      0.00000000      0.00000000</v>
  </separator>
  <separator name="performance" >
   <i type="int" name="NPAR">    32</i>
   <i type="int" name="NSIM">     4</i>
   <i type="int" name="NBLK">    -1</i>
   <i type="logical" name="LPLANE"> T  </i>
   <i type="logical" name="LSCALAPACK"> T  </i>
   <i type="logical" name="LSCAAWARE"> F  </i>
   <i type="logical" name="LSCALU"> F  </i>
   <i type="logical" name="LASYNC"> F  </i>
   <i type="logical" name="LORBITALREAL"> F  </i>
  </separator>
  <separator name="miscellaneous" >
   <i type="int" name="IDIOT">     3</i>
   <i type="int" name="PHON_NSTRUCT">    -1</i>
   <i type="logical" name="LMUSIC"> F  </i>
   <v name="POMASS">    118.71000000     78.96000000</v>
   <v name="DARWINR">      0.00000000      0.00000000</v>
   <v name="DARWINV">      1.00000000      1.00000000</v>
   <i type="logical" name="LCORR"> T  </i>
  </separator>
  <i type="logical" name="GGA_COMPAT"> T  </i>
  <i type="logical" name="LBERRY"> F  </i>
  <i type="int" name="ICORELEVEL">     0</i>
  <i type="logical" name="LDAU"> F  </i>
  <i type="int" name="I_CONSTRAINED_M">     0</i>
  <separator name="electronic exchange-correlation" >
   <i type="string" name="GGA">PS</i>
   <i type="int" name="VOSKOWN">     0</i>
   <i type="logical" name="LHFCALC"> F  </i>
   <i type="string" name="PRECFOCK"></i>
   <i type="logical" name="LSYMGRAD"> F  </i>
   <i type="logical" name="LHFONE"> F  </i>
   <i type="logical" name="LRHFCALC"> F  </i>
   <i type="logical" name="LTHOMAS"> F  </i>
   <i type="logical" name="LMODELHF"> F  </i>
   <i type="logical" name="LFOCKACE"> F  </i>
   <i name="ENCUT4O">     -1.00000000</i>
   <i type="int" name="EXXOEP">     0</i>
   <i type="int" name="FOURORBIT">     0</i>
   <i name="AEXX">      0.00000000</i>
   <i name="HFALPHA">      0.00000000</i>
   <i name="MCALPHA">      0.00000000</i>
   <i name="ALDAX">      1.00000000</i>
   <i name="AGGAX">      1.00000000</i>
   <i name="ALDAC">      1.00000000</i>
   <i name="AGGAC">      1.00000000</i>
   <i type="int" name="NKREDX">     1</i>
   <i type="int" name="NKREDY">     1</i>
   <i type="int" name="NKREDZ">     1</i>
   <i type="logical" name="SHIFTRED"> F  </i>
   <i type="logical" name="ODDONLY"> F  </i>
   <i type="logical" name="EVENONLY"> F  </i>
   <i type="int" name="LMAXFOCK">     0</i>
   <i type="int" name="NMAXFOCKAE">     0</i>
   <i type="logical" name="LFOCKAEDFT"> F  </i>
   <i name="HFSCREEN">      0.00000000</i>
   <i name="HFSCREENC">      0.00000000</i>
   <i type="int" name="NBANDSGWLOW">     0</i>
  </separator>
  <separator name="vdW DFT" >
   <i type="logical" name="LUSE_VDW"> F  </i>
   <i name="Zab_VDW">     -0.84910000</i>
   <i name="PARAM1">      0.12340000</i>
   <i name="PARAM2">      1.00000000</i>
   <i name="PARAM3">      0.00000000</i>
  </separator>
  <separator name="model GW" >
   <i type="int" name="MODEL_GW">     0</i>
   <i name="MODEL_EPS0">     15.24405127</i>
   <i name="MODEL_ALPHA">      1.00000000</i>
  </separator>
  <separator name="linear response parameters" >
   <i type="logical" name="LEPSILON"> T  </i>
   <i type="logical" name="LRPA"> F  </i>
   <i type="logical" name="LNABLA"> F  </i>
   <i type="logical" name="LVEL"> F  </i>
   <i type="int" name="KINTER">     0</i>
   <i name="CSHIFT">      0.10000000</i>
   <i name="OMEGAMAX">     -1.00000000</i>
   <i name="DEG_THRESHOLD">      0.00200000</i>
   <i name="RTIME">     -0.10000000</i>
   <i name="WPLASMAI">      0.00000000</i>
   <v name="DFIELD">      0.00000000      0.00000000      0.00000000</v>
   <v name="WPLASMA">      0.00000000      0.00000000      0.00000000      0.00000000      0.00000000      0.00000000      0.00000000      0.00000000      0.00000000</v>
  </separator>
  <separator name="orbital magnetization" >
   <i type="logical" name="NUCIND"> F  </i>
   <v name="MAGPOS">      0.00000000      0.00000000      0.00000000</v>
   <i type="logical" name="LNICSALL"> T  </i>
   <i type="logical" name="ORBITALMAG"> F  </i>
   <i type="logical" name="LMAGBLOCH"> F  </i>
   <i type="logical" name="LCHIMAG"> F  </i>
   <i type="logical" name="LGAUGE"> T  </i>
   <i type="int" name="MAGATOM">     0</i>
   <v name="MAGDIPOL">      0.00000000      0.00000000      0.00000000</v>
   <v name="AVECCONST">      0.00000000      0.00000000      0.00000000</v>
  </separator>
  <separator name="response functions" >
   <i type="logical" name="LFINITE_TEMPERATURE"> F  </i>
   <i type="logical" name="LADDER"> F  </i>
   <i type="logical" name="LRPAFORCE"> F  </i>
   <i type="logical" name="LFXC"> F  </i>
   <i type="logical" name="LHARTREE"> T  </i>
   <i type="int" name="IBSE">     0</i>
   <v type="int" name="KPOINT">    -1     0     0     0</v>
   <i type="logical" name="LTCTC"> F  </i>
   <i type="logical" name="LTCTE"> F  </i>
   <i type="logical" name="LTETE"> F  </i>
   <i type="logical" name="LTRIPLET"> F  </i>
   <i type="logical" name="LFXCEPS"> F  </i>
   <i type="logical" name="LFXHEG"> F  </i>
   <i type="int" name="NATURALO">     2</i>
   <i type="logical" name="LHOLEGF"> F  </i>
   <i type="logical" name="L2ORDER"> F  </i>
   <i type="logical" name="LDMP1"> F  </i>
   <i type="logical" name="LMP2LT"> F  </i>
   <i type="logical" name="LSMP2LT"> F  </i>
   <i type="logical" name="LGWLF"> F  </i>
   <i name="ENCUTGW">     -2.00000000</i>
   <i name="ENCUTGWSOFT">     -2.00000000</i>
   <i name="ENCUTLF">     -1.00000000</i>
   <i type="logical" name="LESF_SPLINES"> F  </i>
   <i type="int" name="LMAXMP2">    -1</i>
   <i name="SCISSOR">      0.00000000</i>
   <i type="int" name="NOMEGA">     0</i>
   <i type="int" name="NOMEGAR">     0</i>
   <i type="int" name="NBANDSGW">    -1</i>
   <i type="int" name="NBANDSO">    -1</i>
   <i type="int" name="NBANDSV">    -1</i>
   <i type="int" name="NELM">   250</i>
   <i type="int" name="NELMHF">     1</i>
   <i type="int" name="DIM">     3</i>
   <i type="int" name="IESPILON">     4</i>
   <i type="int" name="ANTIRES">     0</i>
   <i name="OMEGAMAX">    -30.00000000</i>
   <i name="OMEGAMIN">    -30.00000000</i>
   <i name="OMEGATL">   -200.00000000</i>
   <i type="int" name="OMEGAGRID">     0</i>
   <i name="CSHIFT">     -0.10000000</i>
   <i type="logical" name="LSELFENERGY"> F  </i>
   <i type="logical" name="LSPECTRAL"> F  </i>
   <i type="logical" name="LSPECTRALGW"> F  </i>
   <i type="logical" name="LSINGLES"> F  </i>
   <i type="logical" name="LFERMIGW"> F  </i>
   <i type="logical" name="ODDONLYGW"> F  </i>
   <i type="logical" name="EVENONLYGW"> F  </i>
   <i type="int" name="NKREDLFX">     1</i>
   <i type="int" name="NKREDLFY">     1</i>
   <i type="int" name="NKREDLFZ">     1</i>
   <i type="int" name="MAXMEM">  2800</i>
   <i type="int" name="TELESCOPE">     0</i>
   <i type="int" name="NTAUPAR">    -1</i>
   <i type="int" name="NOMEGAPAR">    -1</i>
   <i name="DAMP_NEWTON">      0.80000001</i>
   <i name="LAMBDA">      1.00000000</i>
  </separator>
  <separator name="External order field" >
   <i name="OFIELD_KAPPA">      0.00000000</i>
   <v name="OFIELD_K">      0.00000000      0.00000000      0.00000000</v>
   <i name="OFIELD_Q6_NEAR">      0.00000000</i>
   <i name="OFIELD_Q6_FAR">      0.00000000</i>
   <i name="OFIELD_A">      0.00000000</i>
  </separator>
 </parameters>
 <atominfo>
  <atoms>       8 </atoms>
  <types>       2 </types>
  <array name="atoms" >
   <dimension dim="1">ion</dimension>
   <field type="string">element</field>
   <field type="int">atomtype</field>
   <set>
    <rc><c>Sn</c><c>   1</c></rc>
    <rc><c>Sn</c><c>   1</c></rc>
    <rc><c>Sn</c><c>   1</c></rc>
    <rc><c>Sn</c><c>   1</c></rc>
    <rc><c>Se</c><c>   2</c></rc>
    <rc><c>Se</c><c>   2</c></rc>
    <rc><c>Se</c><c>   2</c></rc>
    <rc><c>Se</c><c>   2</c></rc>
   </set>
  </array>
  <array name="atomtypes" >
   <dimension dim="1">type</dimension>
   <field type="int">atomspertype</field>
   <field type="string">element</field>
   <field>mass</field>
   <field>valence</field>
   <field type="string">pseudopotential</field>
   <set>
    <rc><c>   4</c><c>Sn</c><c>    118.71000000</c><c>     14.00000000</c><c>  PAW_PBE Sn_d 06Sep2000                </c></rc>
    <rc><c>   4</c><c>Se</c><c>     78.96000000</c><c>      6.00000000</c><c>  PAW_PBE Se 06Sep2000                  </c></rc>
   </set>
  </array>
 </atominfo>
 <structure name="initialpos" >
  <crystal>
   <varray name="basis" >
    <v>       4.34539863       0.00000000       0.00000000 </v>
    <v>       0.00000000       4.11936655       0.00000000 </v>
    <v>       0.00000000       0.00000000      11.35478920 </v>
   </varray>
   <i name="volume">    203.25401695 </i>
   <varray name="rec_basis" >
    <v>       0.23012848       0.00000000       0.00000000 </v>
    <v>       0.00000000       0.24275577       0.00000000 </v>
    <v>       0.00000000       0.00000000       0.08806857 </v>
   </varray>
  </crystal>
  <varray name="positions" >
   <v>       0.09904952       0.25000000       0.11508910 </v>
   <v>       0.40095048       0.25000000       0.61508910 </v>
   <v>       0.59904952       0.75000000       0.38491090 </v>
   <v>       0.90095048       0.75000000       0.88491090 </v>
   <v>       0.02550821       0.25000000       0.35651006 </v>
   <v>       0.47449179       0.25000000       0.85651006 </v>
   <v>       0.52550821       0.75000000       0.14348994 </v>
   <v>       0.97449179       0.75000000       0.64348994 </v>
  </varray>
 </structure>
 <calculation>
  <scstep>
   <time name="dav">    1.37    0.69</time>
   <time name="total">    1.67    0.95</time>
   <energy>
    <i name="alphaZ">    217.43841536 </i>
    <i name="ewald">  -6082.22410610 </i>
    <i name="hartreedc">  -2322.58079610 </i>
    <i name="XCdc">    230.11367377 </i>
    <i name="pawpsdc">   7112.06264409 </i>
    <i name="pawaedc">  -7207.42447429 </i>
    <i name="eentropy">     -0.00033462 </i>
    <i name="bandstr">     37.31953084 </i>
    <i name="atom">   8598.20158228 </i>
    <i name="e_fr_energy">    582.90613522 </i>
    <i name="e_wo_entrp">    582.90646984 </i>
    <i name="e_0_energy">    582.90630253 </i>
   </energy>
  </scstep>
  <scstep>
   <time name="dav">    1.55    0.78</time>
   <time name="total">    1.55    0.78</time>
   <energy>
    <i name="e_fr_energy">     16.33828847 </i>
    <i name="e_wo_entrp">     16.33856140 </i>
    <i name="e_0_energy">     16.33842494 </i>
   </energy>
  </scstep>
  <scstep>
   <time name="dav">    2.00    1.00</time>
   <time name="total">    2.01    1.01</time>
   <energy>
    <i name="e_fr_energy">    -35.44934474 </i>
    <i name="e_wo_entrp">    -35.44934474 </i>
    <i name="e_0_energy">    -35.44934474 </i>
   </energy>
  </scstep>
  <scstep>
   <time name="dav">    1.89    0.94</time>
   <time name="total">    1.89    0.95</time>
   <energy>
    <i name="e_fr_energy">    -36.55549019 </i>
    <i name="e_wo_entrp">    -36.55549019 </i>
    <i name="e_0_energy">    -36.55549019 </i>
   </energy>
  </scstep>
  <scstep>
   <time name="dav">    2.25    1.13</time>
   <time name="total">    2.52    1.28</time>
   <energy>
    <i name="e_fr_energy">    -36.58339185 </i>
    <i name="e_wo_entrp">    -36.58339185 </i>
    <i name="e_0_energy">    -36.58339185 </i>
   </energy>
  </scstep>
  <scstep>
   <time name="dav">    2.48    1.25</time>
   <time name="total">    2.96    1.61</time>
   <energy>
    <i name="e_fr_energy">    -35.95331895 </i>
    <i name="e_wo_entrp">    -35.95331895 </i>
    <i name="e_0_energy">    -35.95331895 </i>
   </energy>
  </scstep>
  <scstep>
   <time name="dav">    2.04    1.02</time>
   <time name="total">    2.51    1.38</time>
   <energy>
    <i name="e_fr_energy">    -35.91845457 </i>
    <i name="e_wo_entrp">    -35.91845457 </i>
    <i name="e_0_energy">    -35.91845457 </i>
   </energy>
  </scstep>
  <scstep>
   <time name="dav">    1.86    0.94</time>
   <time name="total">    2.33    1.29</time>
   <energy>
    <i name="e_fr_energy">    -35.91343534 </i>
    <i name="e_wo_entrp">    -35.91343534 </i>
    <i name="e_0_energy">    -35.91343534 </i>
   </energy>
  </scstep>
  <scstep>
   <time name="dav">    2.09    1.05</time>
   <time name="total">    2.56    1.41</time>
   <energy>
    <i name="e_fr_energy">    -35.91346728 </i>
    <i name="e_wo_entrp">    -35.91346728 </i>
    <i name="e_0_energy">    -35.91346728 </i>
   </energy>
  </scstep>
  <scstep>
   <time name="dav">    2.01    1.01</time>
   <time name="total">    2.49    1.37</time>
   <energy>
    <i name="e_fr_energy">    -35.91346938 </i>
    <i name="e_wo_entrp">    -35.91346938 </i>
    <i name="e_0_energy">    -35.91346938 </i>
   </energy>
  </scstep>
  <scstep>
   <time name="dav">    2.05    1.03</time>
   <time name="total">    2.54    1.40</time>
   <energy>
    <i name="e_fr_energy">    -35.91348261 </i>
    <i name="e_wo_entrp">    -35.91348261 </i>
    <i name="e_0_energy">    -35.91348261 </i>
   </energy>
  </scstep>
  <scstep>
   <time name="dav">    1.88    0.95</time>
   <time name="total">    2.25    1.30</time>
   <energy>
    <i name="e_fr_energy">    -35.91348094 </i>
    <i name="e_wo_entrp">    -35.91348094 </i>
    <i name="e_0_energy">    -35.91348094 </i>
   </energy>
  </scstep>
  <scstep>
   <time name="dav">    2.09    1.05</time>
   <time name="total">    2.55    1.41</time>
   <energy>
    <i name="e_fr_energy">    -35.91348087 </i>
    <i name="e_wo_entrp">    -35.91348087 </i>
    <i name="e_0_energy">    -35.91348087 </i>
   </energy>
  </scstep>
  <scstep>
   <time name="dav">    1.93    0.97</time>
   <time name="total">    2.38    1.33</time>
   <energy>
    <i name="e_fr_energy">    -35.91348089 </i>
    <i name="e_wo_entrp">    -35.91348089 </i>
    <i name="e_0_energy">    -35.91348089 </i>
   </energy>
  </scstep>
  <scstep>
   <time name="dav">    1.72    0.87</time>
   <time name="total">    2.19    1.23</time>
   <energy>
    <i name="e_fr_energy">    -35.91348083 </i>
    <i name="e_wo_entrp">    -35.91348083 </i>
    <i name="e_0_energy">    -35.91348083 </i>
   </energy>
  </scstep>
  <scstep>
   <time name="dav">    1.32    0.67</time>
   <time name="total">    1.82    1.04</time>
   <energy>
    <i name="e_fr_energy">    -35.91348082 </i>
    <i name="e_wo_entrp">    -35.91348082 </i>
    <i name="e_0_energy">    -35.91348082 </i>
   </energy>
  </scstep>
  <scstep>
   <time name="dav">    1.43    0.72</time>
   <time name="total">    1.68    0.97</time>
   <energy>
    <i name="alphaZ">    217.43841536 </i>
    <i name="ewald">  -6082.22410610 </i>
    <i name="hartreedc">  -2304.30985839 </i>
    <i name="XCdc">    230.43080261 </i>
    <i name="pawpsdc">   8472.14945727 </i>
    <i name="pawaedc">  -8568.05094585 </i>
    <i name="eentropy">     -0.00000000 </i>
    <i name="bandstr">   -599.54882799 </i>
    <i name="atom">   8598.20158228 </i>
    <i name="e_fr_energy">    -35.91348082 </i>
    <i name="e_wo_entrp">    -35.91348082 </i>
    <i name="e_0_energy">    -35.91348082 </i>
   </energy>
  </scstep>
  <structure>
   <crystal>
    <varray name="basis" >
     <v>       4.34539863       0.00000000       0.00000000 </v>
     <v>       0.00000000       4.11936655       0.00000000 </v>
     <v>       0.00000000       0.00000000      11.35478920 </v>
    </varray>
    <i name="volume">    203.25401695 </i>
    <varray name="rec_basis" >
     <v>       0.23012848       0.00000000       0.00000000 </v>
     <v>       0.00000000       0.24275577       0.00000000 </v>
     <v>       0.00000000       0.00000000       0.08806857 </v>
    </varray>
   </crystal>
   <varray name="positions" >
    <v>       0.09904952       0.25000000       0.11508910 </v>
    <v>       0.40095048       0.25000000       0.61508910 </v>
    <v>       0.59904952       0.75000000       0.38491090 </v>
    <v>       0.90095048       0.75000000       0.88491090 </v>
    <v>       0.02550821       0.25000000       0.35651006 </v>
    <v>       0.47449179       0.25000000       0.85651006 </v>
    <v>       0.52550821       0.75000000       0.14348994 </v>
    <v>       0.97449179       0.75000000       0.64348994 </v>
   </varray>
  </structure>
  <varray name="forces" >
   <v>      -0.00795182      -0.00000000       0.01065901 </v>
   <v>       0.00795182       0.00000000       0.01065901 </v>
   <v>      -0.00795182      -0.00000000      -0.01065901 </v>
   <v>       0.00795182      -0.00000000      -0.01065901 </v>
   <v>      -0.00030078       0.00000000       0.00076471 </v>
   <v>       0.00030078       0.00000000       0.00076471 </v>
   <v>      -0.00030078       0.00000000      -0.00076471 </v>
   <v>       0.00030078       0.00000000      -0.00076471 </v>
  </varray>
  <varray name="stress" >
   <v>       0.11408344       0.00000000       0.00000000 </v>
   <v>       0.00000000       0.00225364       0.00000000 </v>
   <v>       0.00000000       0.00000000      -0.71242385 </v>
  </varray>
  <energy>
   <i name="e_fr_energy">    -37.43185872 </i>
   <i name="e_wo_entrp">    -37.43185872 </i>
   <i name="e_0_energy">    -37.43185872 </i>
  </energy>
  <scstep>
   <time name="total">    0.99    0.50</time>
   <energy>
    <i name="e_fr_energy">   -132.40848626 </i>
    <i name="e_wo_entrp">   -132.40848626 </i>
    <i name="e_0_energy">   -132.40848626 </i>
   </energy>
  </scstep>
  <scstep>
   <time name="total">    1.32    0.67</time>
   <energy>
    <i name="e_fr_energy">   -259.14633456 </i>
    <i name="e_wo_entrp">   -259.14633456 </i>
    <i name="e_0_energy">   -259.14633456 </i>
   </energy>
  </scstep>
  <scstep>
   <time name="total">    1.32    0.70</time>
   <energy>
    <i name="e_fr_energy">   -259.93762191 </i>
    <i name="e_wo_entrp">   -259.93762191 </i>
    <i name="e_0_energy">   -259.93762191 </i>
   </energy>
  </scstep>
  <scstep>
   <time name="total">    1.10    0.59</time>
   <energy>
    <i name="e_fr_energy">   -260.09742129 </i>
    <i name="e_wo_entrp">   -260.09742129 </i>
    <i name="e_0_energy">   -260.09742129 </i>
   </energy>
  </scstep>
  <scstep>
   <time name="total">    1.11    0.60</time>
   <energy>
    <i name="e_fr_energy">   -260.10079892 </i>
    <i name="e_wo_entrp">   -260.10079892 </i>
    <i name="e_0_energy">   -260.10079892 </i>
   </energy>
  </scstep>
  <scstep>
   <time name="total">    1.14    0.60</time>
   <energy>
    <i name="e_fr_energy">   -260.10298116 </i>
    <i name="e_wo_entrp">   -260.10298116 </i>
    <i name="e_0_energy">   -260.10298116 </i>
   </energy>
  </scstep>
  <scstep>
   <time name="total">    1.22    0.61</time>
   <energy>
    <i name="e_fr_energy">   -260.10320929 </i>
    <i name="e_wo_entrp">   -260.10320929 </i>
    <i name="e_0_energy">   -260.10320929 </i>
   </energy>
  </scstep>
  <scstep>
   <time name="total">    1.28    0.64</time>
   <energy>
    <i name="e_fr_energy">   -260.10320362 </i>
    <i name="e_wo_entrp">   -260.10320362 </i>
    <i name="e_0_energy">   -260.10320362 </i>
   </energy>
  </scstep>
  <scstep>
   <time name="total">    1.29    0.65</time>
   <energy>
    <i name="e_fr_energy">   -260.10322881 </i>
    <i name="e_wo_entrp">   -260.10322881 </i>
    <i name="e_0_energy">   -260.10322881 </i>
   </energy>
  </scstep>
  <scstep>
   <time name="total">    1.26    0.64</time>
   <energy>
    <i name="e_fr_energy">   -260.10321584 </i>
    <i name="e_wo_entrp">   -260.10321584 </i>
    <i name="e_0_energy">   -260.10321584 </i>
   </energy>
  </scstep>
  <scstep>
   <time name="total">    1.23    0.63</time>
   <energy>
    <i name="e_fr_energy">   -260.10322292 </i>
    <i name="e_wo_entrp">   -260.10322292 </i>
    <i name="e_0_energy">   -260.10322292 </i>
   </energy>
  </scstep>
  <scstep>
   <time name="total">    1.18    0.59</time>
   <energy>
    <i name="e_fr_energy">   -260.10321750 </i>
    <i name="e_wo_entrp">   -260.10321750 </i>
    <i name="e_0_energy">   -260.10321750 </i>
   </energy>
  </scstep>
  <scstep>
   <time name="total">    1.16    0.58</time>
   <energy>
    <i name="e_fr_energy">   -260.10321492 </i>
    <i name="e_wo_entrp">   -260.10321492 </i>
    <i name="e_0_energy">   -260.10321492 </i>
   </energy>
  </scstep>
  <scstep>
   <time name="total">    0.94    0.48</time>
   <energy>
    <i name="e_fr_energy">   -129.72397674 </i>
    <i name="e_wo_entrp">   -129.72397674 </i>
    <i name="e_0_energy">   -129.72397674 </i>
   </energy>
  </scstep>
  <scstep>
   <time name="total">    1.31    0.67</time>
   <energy>
    <i name="e_fr_energy">   -258.96773896 </i>
    <i name="e_wo_entrp">   -258.96773896 </i>
    <i name="e_0_energy">   -258.96773896 </i>
   </energy>
  </scstep>
  <scstep>
   <time name="total">    1.29    0.69</time>
   <energy>
    <i name="e_fr_energy">   -259.79355602 </i>
    <i name="e_wo_entrp">   -259.79355602 </i>
    <i name="e_0_energy">   -259.79355602 </i>
   </energy>
  </scstep>
  <scstep>
   <time name="total">    1.08    0.58</time>
   <energy>
    <i name="e_fr_energy">   -259.93005342 </i>
    <i name="e_wo_entrp">   -259.93005342 </i>
    <i name="e_0_energy">   -259.93005342 </i>
   </energy>
  </scstep>
  <scstep>
   <time name="total">    1.14    0.60</time>
   <energy>
    <i name="e_fr_energy">   -259.94102020 </i>
    <i name="e_wo_entrp">   -259.94102020 </i>
    <i name="e_0_energy">   -259.94102020 </i>
   </energy>
  </scstep>
  <scstep>
   <time name="total">    1.18    0.61</time>
   <energy>
    <i name="e_fr_energy">   -259.94400704 </i>
    <i name="e_wo_entrp">   -259.94400704 </i>
    <i name="e_0_energy">   -259.94400704 </i>
   </energy>
  </scstep>
  <scstep>
   <time name="total">    1.24    0.62</time>
   <energy>
    <i name="e_fr_energy">   -259.94432352 </i>
    <i name="e_wo_entrp">   -259.94432352 </i>
    <i name="e_0_energy">   -259.94432352 </i>
   </energy>
  </scstep>
  <scstep>
   <time name="total">    1.18    0.59</time>
   <energy>
    <i name="e_fr_energy">   -259.94428554 </i>
    <i name="e_wo_entrp">   -259.94428554 </i>
    <i name="e_0_energy">   -259.94428554 </i>
   </energy>
  </scstep>
  <scstep>
   <time name="total">    1.22    0.61</time>
   <energy>
    <i name="e_fr_energy">   -259.94424300 </i>
    <i name="e_wo_entrp">   -259.94424300 </i>
    <i name="e_0_energy">   -259.94424300 </i>
   </energy>
  </scstep>
  <scstep>
   <time name="total">    1.23    0.62</time>
   <energy>
    <i name="e_fr_energy">   -259.94428918 </i>
    <i name="e_wo_entrp">   -259.94428918 </i>
    <i name="e_0_energy">   -259.94428918 </i>
   </energy>
  </scstep>
  <scstep>
   <time name="total">    1.22    0.62</time>
   <energy>
    <i name="e_fr_energy">   -259.94428302 </i>
    <i name="e_wo_entrp">   -259.94428302 </i>
    <i name="e_0_energy">   -259.94428302 </i>
   </energy>
  </scstep>
  <scstep>
   <time name="total">    1.14    0.57</time>
   <energy>
    <i name="e_fr_energy">   -259.94426854 </i>
    <i name="e_wo_entrp">   -259.94426854 </i>
    <i name="e_0_energy">   -259.94426854 </i>
   </energy>
  </scstep>
  <scstep>
   <time name="total">    1.12    0.56</time>
   <energy>
    <i name="e_fr_energy">   -259.94428183 </i>
    <i name="e_wo_entrp">   -259.94428183 </i>
    <i name="e_0_energy">   -259.94428183 </i>
   </energy>
  </scstep>
  <scstep>
   <time name="total">    0.93    0.47</time>
   <energy>
    <i name="e_fr_energy">   -129.13475435 </i>
    <i name="e_wo_entrp">   -129.13475435 </i>
    <i name="e_0_energy">   -129.13475435 </i>
   </energy>
  </scstep>
  <scstep>
   <time name="total">    1.30    0.67</time>
   <energy>
    <i name="e_fr_energy">   -263.63531475 </i>
    <i name="e_wo_entrp">   -263.63531475 </i>
    <i name="e_0_energy">   -263.63531475 </i>
   </energy>
  </scstep>
  <scstep>
   <time name="total">    1.29    0.69</time>
   <energy>
    <i name="e_fr_energy">   -264.68472748 </i>
    <i name="e_wo_entrp">   -264.68472748 </i>
    <i name="e_0_energy">   -264.68472748 </i>
   </energy>
  </scstep>
  <scstep>
   <time name="total">    1.10    0.58</time>
   <energy>
    <i name="e_fr_energy">   -264.97925433 </i>
    <i name="e_wo_entrp">   -264.97925433 </i>
    <i name="e_0_energy">   -264.97925433 </i>
   </energy>
  </scstep>
  <scstep>
   <time name="total">    1.13    0.61</time>
   <energy>
    <i name="e_fr_energy">   -264.97791920 </i>
    <i name="e_wo_entrp">   -264.97791920 </i>
    <i name="e_0_energy">   -264.97791920 </i>
   </energy>
  </scstep>
  <scstep>
   <time name="total">    1.13    0.60</time>
   <energy>
    <i name="e_fr_energy">   -264.98174565 </i>
    <i name="e_wo_entrp">   -264.98174565 </i>
    <i name="e_0_energy">   -264.98174565 </i>
   </energy>
  </scstep>
  <scstep>
   <time name="total">    1.23    0.62</time>
   <energy>
    <i name="e_fr_energy">   -264.98193949 </i>
    <i name="e_wo_entrp">   -264.98193949 </i>
    <i name="e_0_energy">   -264.98193949 </i>
   </energy>
  </scstep>
  <scstep>
   <time name="total">    1.26    0.63</time>
   <energy>
    <i name="e_fr_energy">   -264.98191961 </i>
    <i name="e_wo_entrp">   -264.98191961 </i>
    <i name="e_0_energy">   -264.98191961 </i>
   </energy>
  </scstep>
  <scstep>
   <time name="total">    1.29    0.64</time>
   <energy>
    <i name="e_fr_energy">   -264.98192373 </i>
    <i name="e_wo_entrp">   -264.98192373 </i>
    <i name="e_0_energy">   -264.98192373 </i>
   </energy>
  </scstep>
  <scstep>
   <time name="total">    1.26    0.64</time>
   <energy>
    <i name="e_fr_energy">   -264.98192918 </i>
    <i name="e_wo_entrp">   -264.98192918 </i>
    <i name="e_0_energy">   -264.98192918 </i>
   </energy>
  </scstep>
  <scstep>
   <time name="total">    1.20    0.61</time>
   <energy>
    <i name="e_fr_energy">   -264.98194480 </i>
    <i name="e_wo_entrp">   -264.98194480 </i>
    <i name="e_0_energy">   -264.98194480 </i>
   </energy>
  </scstep>
  <scstep>
   <time name="total">    1.18    0.59</time>
   <energy>
    <i name="e_fr_energy">   -264.98192469 </i>
    <i name="e_wo_entrp">   -264.98192469 </i>
    <i name="e_0_energy">   -264.98192469 </i>
   </energy>
  </scstep>
  <scstep>
   <time name="total">    1.13    0.57</time>
   <energy>
    <i name="e_fr_energy">   -264.98194139 </i>
    <i name="e_wo_entrp">   -264.98194139 </i>
    <i name="e_0_energy">   -264.98194139 </i>
   </energy>
  </scstep>
  <scstep>
   <time name="total">    1.59    1.09</time>
   <energy>
    <i name="e_fr_energy">     -2.25508571 </i>
    <i name="e_wo_entrp">     -2.25508571 </i>
    <i name="e_0_energy">     -2.25508571 </i>
   </energy>
  </scstep>
  <scstep>
   <time name="total">    2.00    1.25</time>
   <energy>
    <i name="e_fr_energy">    -13.76823732 </i>
    <i name="e_wo_entrp">    -13.76823732 </i>
    <i name="e_0_energy">    -13.76823732 </i>
   </energy>
  </scstep>
  <scstep>
   <time name="total">    2.05    1.26</time>
   <energy>
    <i name="e_fr_energy">    -13.84237431 </i>
    <i name="e_wo_entrp">    -13.84237431 </i>
    <i name="e_0_energy">    -13.84237431 </i>
   </energy>
  </scstep>
  <scstep>
   <time name="total">    2.03    1.27</time>
   <energy>
    <i name="e_fr_energy">    -13.84280648 </i>
    <i name="e_wo_entrp">    -13.84280648 </i>
    <i name="e_0_energy">    -13.84280648 </i>
   </energy>
  </scstep>
  <scstep>
   <time name="total">    2.04    1.25</time>
   <energy>
    <i name="e_fr_energy">    -13.84289771 </i>
    <i name="e_wo_entrp">    -13.84289771 </i>
    <i name="e_0_energy">    -13.84289771 </i>
   </energy>
  </scstep>
  <scstep>
   <time name="total">    2.04    1.27</time>
   <energy>
    <i name="e_fr_energy">    -13.84290174 </i>
    <i name="e_wo_entrp">    -13.84290174 </i>
    <i name="e_0_energy">    -13.84290174 </i>
   </energy>
  </scstep>
  <scstep>
   <time name="total">    2.07    1.27</time>
   <energy>
    <i name="e_fr_energy">    -13.84290303 </i>
    <i name="e_wo_entrp">    -13.84290303 </i>
    <i name="e_0_energy">    -13.84290303 </i>
   </energy>
  </scstep>
  <scstep>
   <time name="total">    2.07    1.25</time>
   <energy>
    <i name="e_fr_energy">    -13.84290313 </i>
    <i name="e_wo_entrp">    -13.84290313 </i>
    <i name="e_0_energy">    -13.84290313 </i>
   </energy>
  </scstep>
  <scstep>
   <time name="total">    2.09    1.26</time>
   <energy>
    <i name="e_fr_energy">    -13.84290317 </i>
    <i name="e_wo_entrp">    -13.84290317 </i>
    <i name="e_0_energy">    -13.84290317 </i>
   </energy>
  </scstep>
  <scstep>
   <time name="total">    2.08    1.25</time>
   <energy>
    <i name="e_fr_energy">    -13.84290317 </i>
    <i name="e_wo_entrp">    -13.84290317 </i>
    <i name="e_0_energy">    -13.84290317 </i>
   </energy>
  </scstep>
  <scstep>
   <time name="total">    1.98    1.20</time>
   <energy>
    <i name="e_fr_energy">    -13.84290317 </i>
    <i name="e_wo_entrp">    -13.84290317 </i>
    <i name="e_0_energy">    -13.84290317 </i>
   </energy>
  </scstep>
  <scstep>
   <time name="total">    1.94    1.18</time>
   <energy>
    <i name="e_fr_energy">    -13.84290317 </i>
    <i name="e_wo_entrp">    -13.84290317 </i>
    <i name="e_0_energy">    -13.84290317 </i>
   </energy>
  </scstep>
  <scstep>
   <time name="total">    1.93    1.18</time>
   <energy>
    <i name="e_fr_energy">    -13.84290317 </i>
    <i name="e_wo_entrp">    -13.84290317 </i>
    <i name="e_0_energy">    -13.84290317 </i>
   </energy>
  </scstep>
  <scstep>
   <time name="total">    1.95    1.18</time>
   <energy>
    <i name="e_fr_energy">    -13.84290317 </i>
    <i name="e_wo_entrp">    -13.84290317 </i>
    <i name="e_0_energy">    -13.84290317 </i>
   </energy>
  </scstep>
  <scstep>
   <time name="total">    1.93    1.18</time>
   <energy>
    <i name="e_fr_energy">    -13.84290317 </i>
    <i name="e_wo_entrp">    -13.84290317 </i>
    <i name="e_0_energy">    -13.84290317 </i>
   </energy>
  </scstep>
  <scstep>
   <time name="total">    1.92    1.17</time>
   <energy>
    <i name="e_fr_energy">    -13.84290317 </i>
    <i name="e_wo_entrp">    -13.84290317 </i>
    <i name="e_0_energy">    -13.84290317 </i>
   </energy>
  </scstep>
  <scstep>
   <time name="total">    1.60    1.08</time>
   <energy>
    <i name="e_fr_energy">     -3.63883638 </i>
    <i name="e_wo_entrp">     -3.63883638 </i>
    <i name="e_0_energy">     -3.63883638 </i>
   </energy>
  </scstep>
  <scstep>
   <time name="total">    2.00    1.24</time>
   <energy>
    <i name="e_fr_energy">    -16.59744283 </i>
    <i name="e_wo_entrp">    -16.59744283 </i>
    <i name="e_0_energy">    -16.59744283 </i>
   </energy>
  </scstep>
  <scstep>
   <time name="total">    2.03    1.26</time>
   <energy>
    <i name="e_fr_energy">    -16.67966420 </i>
    <i name="e_wo_entrp">    -16.67966420 </i>
    <i name="e_0_energy">    -16.67966420 </i>
   </energy>
  </scstep>
  <scstep>
   <time name="total">    2.01    1.25</time>
   <energy>
    <i name="e_fr_energy">    -16.68008840 </i>
    <i name="e_wo_entrp">    -16.68008840 </i>
    <i name="e_0_energy">    -16.68008840 </i>
   </energy>
  </scstep>
  <scstep>
   <time name="total">    2.05    1.27</time>
   <energy>
    <i name="e_fr_energy">    -16.68016716 </i>
    <i name="e_wo_entrp">    -16.68016716 </i>
    <i name="e_0_energy">    -16.68016716 </i>
   </energy>
  </scstep>
  <scstep>
   <time name="total">    2.04    1.26</time>
   <energy>
    <i name="e_fr_energy">    -16.68017046 </i>
    <i name="e_wo_entrp">    -16.68017046 </i>
    <i name="e_0_energy">    -16.68017046 </i>
   </energy>
  </scstep>
  <scstep>
   <time name="total">    2.07    1.28</time>
   <energy>
    <i name="e_fr_energy">    -16.68017179 </i>
    <i name="e_wo_entrp">    -16.68017179 </i>
    <i name="e_0_energy">    -16.68017179 </i>
   </energy>
  </scstep>
  <scstep>
   <time name="total">    2.09    1.26</time>
   <energy>
    <i name="e_fr_energy">    -16.68017189 </i>
    <i name="e_wo_entrp">    -16.68017189 </i>
    <i name="e_0_energy">    -16.68017189 </i>
   </energy>
  </scstep>
  <scstep>
   <time name="total">    2.08    1.25</time>
   <energy>
    <i name="e_fr_energy">    -16.68017192 </i>
    <i name="e_wo_entrp">    -16.68017192 </i>
    <i name="e_0_energy">    -16.68017192 </i>
   </energy>
  </scstep>
  <scstep>
   <time name="total">    2.03    1.23</time>
   <energy>
    <i name="e_fr_energy">    -16.68017192 </i>
    <i name="e_wo_entrp">    -16.68017192 </i>
    <i name="e_0_energy">    -16.68017192 </i>
   </energy>
  </scstep>
  <scstep>
   <time name="total">    1.98    1.20</time>
   <energy>
    <i name="e_fr_energy">    -16.68017192 </i>
    <i name="e_wo_entrp">    -16.68017192 </i>
    <i name="e_0_energy">    -16.68017192 </i>
   </energy>
  </scstep>
  <scstep>
   <time name="total">    1.91    1.17</time>
   <energy>
    <i name="e_fr_energy">    -16.68017192 </i>
    <i name="e_wo_entrp">    -16.68017192 </i>
    <i name="e_0_energy">    -16.68017192 </i>
   </energy>
  </scstep>
  <scstep>
   <time name="total">    1.95    1.19</time>
   <energy>
    <i name="e_fr_energy">    -16.68017192 </i>
    <i name="e_wo_entrp">    -16.68017192 </i>
    <i name="e_0_energy">    -16.68017192 </i>
   </energy>
  </scstep>
  <scstep>
   <time name="total">    1.90    1.16</time>
   <energy>
    <i name="e_fr_energy">    -16.68017192 </i>
    <i name="e_wo_entrp">    -16.68017192 </i>
    <i name="e_0_energy">    -16.68017192 </i>
   </energy>
  </scstep>
  <scstep>
   <time name="total">    1.92    1.17</time>
   <energy>
    <i name="e_fr_energy">    -16.68017192 </i>
    <i name="e_wo_entrp">    -16.68017192 </i>
    <i name="e_0_energy">    -16.68017192 </i>
   </energy>
  </scstep>
  <scstep>
   <time name="total">    1.95    1.19</time>
   <energy>
    <i name="e_fr_energy">    -16.68017192 </i>
    <i name="e_wo_entrp">    -16.68017192 </i>
    <i name="e_0_energy">    -16.68017192 </i>
   </energy>
  </scstep>
  <scstep>
   <time name="total">    1.59    1.08</time>
   <energy>
    <i name="e_fr_energy">     -4.10312918 </i>
    <i name="e_wo_entrp">     -4.10312918 </i>
    <i name="e_0_energy">     -4.10312918 </i>
   </energy>
  </scstep>
  <scstep>
   <time name="total">    2.00    1.25</time>
   <energy>
    <i name="e_fr_energy">    -15.57980997 </i>
    <i name="e_wo_entrp">    -15.57980997 </i>
    <i name="e_0_energy">    -15.57980997 </i>
   </energy>
  </scstep>
  <scstep>
   <time name="total">    2.04    1.26</time>
   <energy>
    <i name="e_fr_energy">    -15.64300426 </i>
    <i name="e_wo_entrp">    -15.64300426 </i>
    <i name="e_0_energy">    -15.64300426 </i>
   </energy>
  </scstep>
  <scstep>
   <time name="total">    2.04    1.25</time>
   <energy>
    <i name="e_fr_energy">    -15.64341021 </i>
    <i name="e_wo_entrp">    -15.64341021 </i>
    <i name="e_0_energy">    -15.64341021 </i>
   </energy>
  </scstep>
  <scstep>
   <time name="total">    2.02    1.25</time>
   <energy>
    <i name="e_fr_energy">    -15.64350937 </i>
    <i name="e_wo_entrp">    -15.64350937 </i>
    <i name="e_0_energy">    -15.64350937 </i>
   </energy>
  </scstep>
  <scstep>
   <time name="total">    2.04    1.26</time>
   <energy>
    <i name="e_fr_energy">    -15.64351306 </i>
    <i name="e_wo_entrp">    -15.64351306 </i>
    <i name="e_0_energy">    -15.64351306 </i>
   </energy>
  </scstep>
  <scstep>
   <time name="total">    2.07    1.27</time>
   <energy>
    <i name="e_fr_energy">    -15.64351469 </i>
    <i name="e_wo_entrp">    -15.64351469 </i>
    <i name="e_0_energy">    -15.64351469 </i>
   </energy>
  </scstep>
  <scstep>
   <time name="total">    2.10    1.26</time>
   <energy>
    <i name="e_fr_energy">    -15.64351480 </i>
    <i name="e_wo_entrp">    -15.64351480 </i>
    <i name="e_0_energy">    -15.64351480 </i>
   </energy>
  </scstep>
  <scstep>
   <time name="total">    2.07    1.25</time>
   <energy>
    <i name="e_fr_energy">    -15.64351483 </i>
    <i name="e_wo_entrp">    -15.64351483 </i>
    <i name="e_0_energy">    -15.64351483 </i>
   </energy>
  </scstep>
  <scstep>
   <time name="total">    2.02    1.22</time>
   <energy>
    <i name="e_fr_energy">    -15.64351483 </i>
    <i name="e_wo_entrp">    -15.64351483 </i>
    <i name="e_0_energy">    -15.64351483 </i>
   </energy>
  </scstep>
  <scstep>
   <time name="total">    1.94    1.18</time>
   <energy>
    <i name="e_fr_energy">    -15.64351483 </i>
    <i name="e_wo_entrp">    -15.64351483 </i>
    <i name="e_0_energy">    -15.64351483 </i>
   </energy>
  </scstep>
  <scstep>
   <time name="total">    1.95    1.20</time>
   <energy>
    <i name="e_fr_energy">    -15.64351482 </i>
    <i name="e_wo_entrp">    -15.64351482 </i>
    <i name="e_0_energy">    -15.64351482 </i>
   </energy>
  </scstep>
  <scstep>
   <time name="total">    1.91    1.17</time>
   <energy>
    <i name="e_fr_energy">    -15.64351483 </i>
    <i name="e_wo_entrp">    -15.64351483 </i>
    <i name="e_0_energy">    -15.64351483 </i>
   </energy>
  </scstep>
  <scstep>
   <time name="total">    1.88    1.15</time>
   <energy>
    <i name="e_fr_energy">    -15.64351482 </i>
    <i name="e_wo_entrp">    -15.64351482 </i>
    <i name="e_0_energy">    -15.64351482 </i>
   </energy>
  </scstep>
  <scstep>
   <time name="total">    1.87    1.14</time>
   <energy>
    <i name="e_fr_energy">    -15.64351483 </i>
    <i name="e_wo_entrp">    -15.64351483 </i>
    <i name="e_0_energy">    -15.64351483 </i>
   </energy>
  </scstep>
  <scstep>
   <time name="total">    1.89    1.16</time>
   <energy>
    <i name="e_fr_energy">    -15.64351482 </i>
    <i name="e_wo_entrp">    -15.64351482 </i>
    <i name="e_0_energy">    -15.64351482 </i>
   </energy>
  </scstep>
  <varray name="dielectric_ipa" >
   <v>      25.64803543       0.00000000       0.00000000 </v>
   <v>       0.00000000      30.70004194       0.00000000 </v>
   <v>       0.00000000       0.00000000      28.85422487 </v>
  </varray>
  <kpoints>
   <generation param="Gamma">
    <v type="int" name="divisions">       8        9        3 </v>
    <v name="usershift">      0.00000000       0.00000000       0.00000000 </v>
    <v name="genvec1">      0.12500000       0.00000000       0.00000000 </v>
    <v name="genvec2">      0.00000000       0.11111111       0.00000000 </v>
    <v name="genvec3">      0.00000000       0.00000000       0.33333333 </v>
    <v name="shift">      0.00000000       0.00000000       0.00000000 </v>
   </generation>
   <varray name="kpointlist" >
    <v>       0.00000000       0.00000000       0.00000000 </v>
    <v>       0.12500000       0.00000000       0.00000000 </v>
    <v>       0.25000000       0.00000000       0.00000000 </v>
    <v>       0.37500000       0.00000000       0.00000000 </v>
    <v>       0.50000000       0.00000000       0.00000000 </v>
    <v>       0.00000000       0.11111111       0.00000000 </v>
    <v>       0.12500000       0.11111111       0.00000000 </v>
    <v>       0.25000000       0.11111111       0.00000000 </v>
    <v>       0.37500000       0.11111111       0.00000000 </v>
    <v>       0.50000000       0.11111111       0.00000000 </v>
    <v>       0.00000000       0.22222222       0.00000000 </v>
    <v>       0.12500000       0.22222222       0.00000000 </v>
    <v>       0.25000000       0.22222222       0.00000000 </v>
    <v>       0.37500000       0.22222222       0.00000000 </v>
    <v>       0.50000000       0.22222222       0.00000000 </v>
    <v>       0.00000000       0.33333333       0.00000000 </v>
    <v>       0.12500000       0.33333333       0.00000000 </v>
    <v>       0.25000000       0.33333333       0.00000000 </v>
    <v>       0.37500000       0.33333333       0.00000000 </v>
    <v>       0.50000000       0.33333333       0.00000000 </v>
    <v>       0.00000000       0.44444444       0.00000000 </v>
    <v>       0.12500000       0.44444444       0.00000000 </v>
    <v>       0.25000000       0.44444444       0.00000000 </v>
    <v>       0.37500000       0.44444444       0.00000000 </v>
    <v>       0.50000000       0.44444444       0.00000000 </v>
    <v>       0.00000000       0.00000000       0.33333333 </v>
    <v>       0.12500000       0.00000000       0.33333333 </v>
    <v>       0.25000000       0.00000000       0.33333333 </v>
    <v>       0.37500000       0.00000000       0.33333333 </v>
    <v>       0.50000000       0.00000000       0.33333333 </v>
    <v>       0.00000000       0.11111111       0.33333333 </v>
    <v>       0.12500000       0.11111111       0.33333333 </v>
    <v>       0.25000000       0.11111111       0.33333333 </v>
    <v>       0.37500000       0.11111111       0.33333333 </v>
    <v>       0.50000000       0.11111111       0.33333333 </v>
    <v>       0.00000000       0.22222222       0.33333333 </v>
    <v>       0.12500000       0.22222222       0.33333333 </v>
    <v>       0.25000000       0.22222222       0.33333333 </v>
    <v>       0.37500000       0.22222222       0.33333333 </v>
    <v>       0.50000000       0.22222222       0.33333333 </v>
    <v>       0.00000000       0.33333333       0.33333333 </v>
    <v>       0.12500000       0.33333333       0.33333333 </v>
    <v>       0.25000000       0.33333333       0.33333333 </v>
    <v>       0.37500000       0.33333333       0.33333333 </v>
    <v>       0.50000000       0.33333333       0.33333333 </v>
    <v>       0.00000000       0.44444444       0.33333333 </v>
    <v>       0.12500000       0.44444444       0.33333333 </v>
    <v>       0.25000000       0.44444444       0.33333333 </v>
    <v>       0.37500000       0.44444444       0.33333333 </v>
    <v>       0.50000000       0.44444444       0.33333333 </v>
   </varray>
   <varray name="weights" >
    <v>       0.00462963 </v>
    <v>       0.00925926 </v>
    <v>       0.00925926 </v>
    <v>       0.00925926 </v>
    <v>       0.00462963 </v>
    <v>       0.00925926 </v>
    <v>       0.01851852 </v>
    <v>       0.01851852 </v>
    <v>       0.01851852 </v>
    <v>       0.00925926 </v>
    <v>       0.00925926 </v>
    <v>       0.01851852 </v>
    <v>       0.01851852 </v>
    <v>       0.01851852 </v>
    <v>       0.00925926 </v>
    <v>       0.00925926 </v>
    <v>       0.01851852 </v>
    <v>       0.01851852 </v>
    <v>       0.01851852 </v>
    <v>       0.00925926 </v>
    <v>       0.00925926 </v>
    <v>       0.01851852 </v>
    <v>       0.01851852 </v>
    <v>       0.01851852 </v>
    <v>       0.00925926 </v>
    <v>       0.00925926 </v>
    <v>       0.01851852 </v>
    <v>       0.01851852 </v>
    <v>       0.01851852 </v>
    <v>       0.00925926 </v>
    <v>       0.01851852 </v>
    <v>       0.03703704 </v>
    <v>       0.03703704 </v>
    <v>       0.03703704 </v>
    <v>       0.01851852 </v>
    <v>       0.01851852 </v>
    <v>       0.03703704 </v>
    <v>       0.03703704 </v>
    <v>       0.03703704 </v>
    <v>       0.01851852 </v>
    <v>       0.01851852 </v>
    <v>       0.03703704 </v>
    <v>       0.03703704 </v>
    <v>       0.03703704 </v>
    <v>       0.01851852 </v>
    <v>       0.01851852 </v>
    <v>       0.03703704 </v>
    <v>       0.03703704 </v>
    <v>       0.03703704 </v>
    <v>       0.01851852 </v>
   </varray>
  </kpoints>
  <scstep>
   <time name="total">    1.59    1.08</time>
   <energy>
    <i name="e_fr_energy">     -2.25508571 </i>
    <i name="e_wo_entrp">     -2.25508571 </i>
    <i name="e_0_energy">     -2.25508571 </i>
   </energy>
  </scstep>
  <scstep>
   <time name="total">    2.28    1.40</time>
   <energy>
    <i name="e_fr_energy">    -13.76823732 </i>
    <i name="e_wo_entrp">    -13.76823732 </i>
    <i name="e_0_energy">    -13.76823732 </i>
   </energy>
  </scstep>
  <scstep>
   <time name="total">    2.18    1.40</time>
   <energy>
    <i name="e_fr_energy">    -13.25655051 </i>
    <i name="e_wo_entrp">    -13.25655051 </i>
    <i name="e_0_energy">    -13.25655051 </i>
   </energy>
  </scstep>
  <scstep>
   <time name="total">    2.14    1.39</time>
   <energy>
    <i name="e_fr_energy">    -13.42074334 </i>
    <i name="e_wo_entrp">    -13.42074334 </i>
    <i name="e_0_energy">    -13.42074334 </i>
   </energy>
  </scstep>
  <scstep>
   <time name="total">    2.17    1.41</time>
   <energy>
    <i name="e_fr_energy">    -13.63284193 </i>
    <i name="e_wo_entrp">    -13.63284193 </i>
    <i name="e_0_energy">    -13.63284193 </i>
   </energy>
  </scstep>
  <scstep>
   <time name="total">    2.24    1.41</time>
   <energy>
    <i name="e_fr_energy">    -13.68524789 </i>
    <i name="e_wo_entrp">    -13.68524789 </i>
    <i name="e_0_energy">    -13.68524789 </i>
   </energy>
  </scstep>
  <scstep>
   <time name="total">    2.26    1.42</time>
   <energy>
    <i name="e_fr_energy">    -13.69479991 </i>
    <i name="e_wo_entrp">    -13.69479991 </i>
    <i name="e_0_energy">    -13.69479991 </i>
   </energy>
  </scstep>
  <scstep>
   <time name="total">    2.24    1.40</time>
   <energy>
    <i name="e_fr_energy">    -13.69239919 </i>
    <i name="e_wo_entrp">    -13.69239919 </i>
    <i name="e_0_energy">    -13.69239919 </i>
   </energy>
  </scstep>
  <scstep>
   <time name="total">    2.29    1.43</time>
   <energy>
    <i name="e_fr_energy">    -13.70177674 </i>
    <i name="e_wo_entrp">    -13.70177674 </i>
    <i name="e_0_energy">    -13.70177674 </i>
   </energy>
  </scstep>
  <scstep>
   <time name="total">    2.28    1.43</time>
   <energy>
    <i name="e_fr_energy">    -13.69693514 </i>
    <i name="e_wo_entrp">    -13.69693514 </i>
    <i name="e_0_energy">    -13.69693514 </i>
   </energy>
  </scstep>
  <scstep>
   <time name="total">    2.23    1.40</time>
   <energy>
    <i name="e_fr_energy">    -13.70062345 </i>
    <i name="e_wo_entrp">    -13.70062345 </i>
    <i name="e_0_energy">    -13.70062345 </i>
   </energy>
  </scstep>
  <scstep>
   <time name="total">    2.24    1.40</time>
   <energy>
    <i name="e_fr_energy">    -13.70013368 </i>
    <i name="e_wo_entrp">    -13.70013368 </i>
    <i name="e_0_energy">    -13.70013368 </i>
   </energy>
  </scstep>
  <scstep>
   <time name="total">    2.28    1.43</time>
   <energy>
    <i name="e_fr_energy">    -13.69959917 </i>
    <i name="e_wo_entrp">    -13.69959917 </i>
    <i name="e_0_energy">    -13.69959917 </i>
   </energy>
  </scstep>
  <scstep>
   <time name="total">    2.18    1.38</time>
   <energy>
    <i name="e_fr_energy">    -13.70000303 </i>
    <i name="e_wo_entrp">    -13.70000303 </i>
    <i name="e_0_energy">    -13.70000303 </i>
   </energy>
  </scstep>
  <scstep>
   <time name="total">    2.15    1.36</time>
   <energy>
    <i name="e_fr_energy">    -13.69958070 </i>
    <i name="e_wo_entrp">    -13.69958070 </i>
    <i name="e_0_energy">    -13.69958070 </i>
   </energy>
  </scstep>
  <scstep>
   <time name="total">    2.15    1.36</time>
   <energy>
    <i name="e_fr_energy">    -13.70349900 </i>
    <i name="e_wo_entrp">    -13.70349900 </i>
    <i name="e_0_energy">    -13.70349900 </i>
   </energy>
  </scstep>
  <scstep>
   <time name="total">    2.09    1.33</time>
   <energy>
    <i name="e_fr_energy">    -13.70046328 </i>
    <i name="e_wo_entrp">    -13.70046328 </i>
    <i name="e_0_energy">    -13.70046328 </i>
   </energy>
  </scstep>
  <scstep>
   <time name="total">    2.09    1.33</time>
   <energy>
    <i name="e_fr_energy">    -13.70223262 </i>
    <i name="e_wo_entrp">    -13.70223262 </i>
    <i name="e_0_energy">    -13.70223262 </i>
   </energy>
  </scstep>
  <scstep>
   <time name="total">    2.09    1.33</time>
   <energy>
    <i name="e_fr_energy">    -13.70243264 </i>
    <i name="e_wo_entrp">    -13.70243264 </i>
    <i name="e_0_energy">    -13.70243264 </i>
   </energy>
  </scstep>
  <scstep>
   <time name="total">    2.08    1.33</time>
   <energy>
    <i name="e_fr_energy">    -13.70102346 </i>
    <i name="e_wo_entrp">    -13.70102346 </i>
    <i name="e_0_energy">    -13.70102346 </i>
   </energy>
  </scstep>
  <scstep>
   <time name="total">    2.08    1.32</time>
   <energy>
    <i name="e_fr_energy">    -13.69921074 </i>
    <i name="e_wo_entrp">    -13.69921074 </i>
    <i name="e_0_energy">    -13.69921074 </i>
   </energy>
  </scstep>
  <scstep>
   <time name="total">    2.07    1.32</time>
   <energy>
    <i name="e_fr_energy">    -13.70155294 </i>
    <i name="e_wo_entrp">    -13.70155294 </i>
    <i name="e_0_energy">    -13.70155294 </i>
   </energy>
  </scstep>
  <scstep>
   <time name="total">    2.11    1.34</time>
   <energy>
    <i name="e_fr_energy">    -13.70028438 </i>
    <i name="e_wo_entrp">    -13.70028438 </i>
    <i name="e_0_energy">    -13.70028438 </i>
   </energy>
  </scstep>
  <scstep>
   <time name="total">    2.08    1.33</time>
   <energy>
    <i name="e_fr_energy">    -13.70132774 </i>
    <i name="e_wo_entrp">    -13.70132774 </i>
    <i name="e_0_energy">    -13.70132774 </i>
   </energy>
  </scstep>
  <scstep>
   <time name="total">    2.08    1.33</time>
   <energy>
    <i name="e_fr_energy">    -13.70086447 </i>
    <i name="e_wo_entrp">    -13.70086447 </i>
    <i name="e_0_energy">    -13.70086447 </i>
   </energy>
  </scstep>
  <scstep>
   <time name="total">    2.08    1.33</time>
   <energy>
    <i name="e_fr_energy">    -13.70050018 </i>
    <i name="e_wo_entrp">    -13.70050018 </i>
    <i name="e_0_energy">    -13.70050018 </i>
   </energy>
  </scstep>
  <scstep>
   <time name="total">    2.09    1.33</time>
   <energy>
    <i name="e_fr_energy">    -13.70273603 </i>
    <i name="e_wo_entrp">    -13.70273603 </i>
    <i name="e_0_energy">    -13.70273603 </i>
   </energy>
  </scstep>
  <scstep>
   <time name="total">    2.10    1.34</time>
   <energy>
    <i name="e_fr_energy">    -13.69945275 </i>
    <i name="e_wo_entrp">    -13.69945275 </i>
    <i name="e_0_energy">    -13.69945275 </i>
   </energy>
  </scstep>
  <scstep>
   <time name="total">    2.08    1.33</time>
   <energy>
    <i name="e_fr_energy">    -13.69975875 </i>
    <i name="e_wo_entrp">    -13.69975875 </i>
    <i name="e_0_energy">    -13.69975875 </i>
   </energy>
  </scstep>
  <scstep>
   <time name="total">    2.11    1.34</time>
   <energy>
    <i name="e_fr_energy">    -13.70214840 </i>
    <i name="e_wo_entrp">    -13.70214840 </i>
    <i name="e_0_energy">    -13.70214840 </i>
   </energy>
  </scstep>
  <kpoints>
   <generation param="Gamma">
    <v type="int" name="divisions">       8        9        3 </v>
    <v name="usershift">      0.00000000       0.00000000       0.00000000 </v>
    <v name="genvec1">      0.12500000       0.00000000       0.00000000 </v>
    <v name="genvec2">      0.00000000       0.11111111       0.00000000 </v>
    <v name="genvec3">      0.00000000       0.00000000       0.33333333 </v>
    <v name="shift">      0.00000000       0.00000000       0.00000000 </v>
   </generation>
   <varray name="kpointlist" >
    <v>       0.00000000       0.00000000       0.00000000 </v>
    <v>       0.12500000       0.00000000       0.00000000 </v>
    <v>       0.25000000       0.00000000       0.00000000 </v>
    <v>       0.37500000       0.00000000       0.00000000 </v>
    <v>       0.50000000       0.00000000       0.00000000 </v>
    <v>       0.00000000       0.11111111       0.00000000 </v>
    <v>       0.12500000       0.11111111       0.00000000 </v>
    <v>       0.25000000       0.11111111       0.00000000 </v>
    <v>       0.37500000       0.11111111       0.00000000 </v>
    <v>       0.50000000       0.11111111       0.00000000 </v>
    <v>       0.00000000       0.22222222       0.00000000 </v>
    <v>       0.12500000       0.22222222       0.00000000 </v>
    <v>       0.25000000       0.22222222       0.00000000 </v>
    <v>       0.37500000       0.22222222       0.00000000 </v>
    <v>       0.50000000       0.22222222       0.00000000 </v>
    <v>       0.00000000       0.33333333       0.00000000 </v>
    <v>       0.12500000       0.33333333       0.00000000 </v>
    <v>       0.25000000       0.33333333       0.00000000 </v>
    <v>       0.37500000       0.33333333       0.00000000 </v>
    <v>       0.50000000       0.33333333       0.00000000 </v>
    <v>       0.00000000       0.44444444       0.00000000 </v>
    <v>       0.12500000       0.44444444       0.00000000 </v>
    <v>       0.25000000       0.44444444       0.00000000 </v>
    <v>       0.37500000       0.44444444       0.00000000 </v>
    <v>       0.50000000       0.44444444       0.00000000 </v>
    <v>       0.00000000       0.00000000       0.33333333 </v>
    <v>       0.12500000       0.00000000       0.33333333 </v>
    <v>       0.25000000       0.00000000       0.33333333 </v>
    <v>       0.37500000       0.00000000       0.33333333 </v>
    <v>       0.50000000       0.00000000       0.33333333 </v>
    <v>       0.00000000       0.11111111       0.33333333 </v>
    <v>       0.12500000       0.11111111       0.33333333 </v>
    <v>       0.25000000       0.11111111       0.33333333 </v>
    <v>       0.37500000       0.11111111       0.33333333 </v>
    <v>       0.50000000       0.11111111       0.33333333 </v>
    <v>       0.00000000       0.22222222       0.33333333 </v>
    <v>       0.12500000       0.22222222       0.33333333 </v>
    <v>       0.25000000       0.22222222       0.33333333 </v>
    <v>       0.37500000       0.22222222       0.33333333 </v>
    <v>       0.50000000       0.22222222       0.33333333 </v>
    <v>       0.00000000       0.33333333       0.33333333 </v>
    <v>       0.12500000       0.33333333       0.33333333 </v>
    <v>       0.25000000       0.33333333       0.33333333 </v>
    <v>       0.37500000       0.33333333       0.33333333 </v>
    <v>       0.50000000       0.33333333       0.33333333 </v>
    <v>       0.00000000       0.44444444       0.33333333 </v>
    <v>       0.12500000       0.44444444       0.33333333 </v>
    <v>       0.25000000       0.44444444       0.33333333 </v>
    <v>       0.37500000       0.44444444       0.33333333 </v>
    <v>       0.50000000       0.44444444       0.33333333 </v>
   </varray>
   <varray name="weights" >
    <v>       0.00462963 </v>
    <v>       0.00925926 </v>
    <v>       0.00925926 </v>
    <v>       0.00925926 </v>
    <v>       0.00462963 </v>
    <v>       0.00925926 </v>
    <v>       0.01851852 </v>
    <v>       0.01851852 </v>
    <v>       0.01851852 </v>
    <v>       0.00925926 </v>
    <v>       0.00925926 </v>
    <v>       0.01851852 </v>
    <v>       0.01851852 </v>
    <v>       0.01851852 </v>
    <v>       0.00925926 </v>
    <v>       0.00925926 </v>
    <v>       0.01851852 </v>
    <v>       0.01851852 </v>
    <v>       0.01851852 </v>
    <v>       0.00925926 </v>
    <v>       0.00925926 </v>
    <v>       0.01851852 </v>
    <v>       0.01851852 </v>
    <v>       0.01851852 </v>
    <v>       0.00925926 </v>
    <v>       0.00925926 </v>
    <v>       0.01851852 </v>
    <v>       0.01851852 </v>
    <v>       0.01851852 </v>
    <v>       0.00925926 </v>
    <v>       0.01851852 </v>
    <v>       0.03703704 </v>
    <v>       0.03703704 </v>
    <v>       0.03703704 </v>
    <v>       0.01851852 </v>
    <v>       0.01851852 </v>
    <v>       0.03703704 </v>
    <v>       0.03703704 </v>
    <v>       0.03703704 </v>
    <v>       0.01851852 </v>
    <v>       0.01851852 </v>
    <v>       0.03703704 </v>
    <v>       0.03703704 </v>
    <v>       0.03703704 </v>
    <v>       0.01851852 </v>
    <v>       0.01851852 </v>
    <v>       0.03703704 </v>
    <v>       0.03703704 </v>
    <v>       0.03703704 </v>
    <v>       0.01851852 </v>
   </varray>
  </kpoints>
  <scstep>
   <time name="total">    1.55    1.05</time>
   <energy>
    <i name="e_fr_energy">     -3.63883638 </i>
    <i name="e_wo_entrp">     -3.63883638 </i>
    <i name="e_0_energy">     -3.63883638 </i>
   </energy>
  </scstep>
  <scstep>
   <time name="total">    2.28    1.39</time>
   <energy>
    <i name="e_fr_energy">    -16.59744283 </i>
    <i name="e_wo_entrp">    -16.59744283 </i>
    <i name="e_0_energy">    -16.59744283 </i>
   </energy>
  </scstep>
  <scstep>
   <time name="total">    2.10    1.33</time>
   <energy>
    <i name="e_fr_energy">    -16.31654161 </i>
    <i name="e_wo_entrp">    -16.31654161 </i>
    <i name="e_0_energy">    -16.31654161 </i>
   </energy>
  </scstep>
  <scstep>
   <time name="total">    2.13    1.34</time>
   <energy>
    <i name="e_fr_energy">    -16.76425699 </i>
    <i name="e_wo_entrp">    -16.76425699 </i>
    <i name="e_0_energy">    -16.76425699 </i>
   </energy>
  </scstep>
  <scstep>
   <time name="total">    2.16    1.39</time>
   <energy>
    <i name="e_fr_energy">    -16.88606179 </i>
    <i name="e_wo_entrp">    -16.88606179 </i>
    <i name="e_0_energy">    -16.88606179 </i>
   </energy>
  </scstep>
  <scstep>
   <time name="total">    2.25    1.40</time>
   <energy>
    <i name="e_fr_energy">    -16.90501602 </i>
    <i name="e_wo_entrp">    -16.90501602 </i>
    <i name="e_0_energy">    -16.90501602 </i>
   </energy>
  </scstep>
  <scstep>
   <time name="total">    2.21    1.38</time>
   <energy>
    <i name="e_fr_energy">    -16.90478478 </i>
    <i name="e_wo_entrp">    -16.90478478 </i>
    <i name="e_0_energy">    -16.90478478 </i>
   </energy>
  </scstep>
  <scstep>
   <time name="total">    2.28    1.41</time>
   <energy>
    <i name="e_fr_energy">    -16.90906360 </i>
    <i name="e_wo_entrp">    -16.90906360 </i>
    <i name="e_0_energy">    -16.90906360 </i>
   </energy>
  </scstep>
  <scstep>
   <time name="total">    2.23    1.39</time>
   <energy>
    <i name="e_fr_energy">    -16.90674148 </i>
    <i name="e_wo_entrp">    -16.90674148 </i>
    <i name="e_0_energy">    -16.90674148 </i>
   </energy>
  </scstep>
  <scstep>
   <time name="total">    2.23    1.39</time>
   <energy>
    <i name="e_fr_energy">    -16.90850040 </i>
    <i name="e_wo_entrp">    -16.90850040 </i>
    <i name="e_0_energy">    -16.90850040 </i>
   </energy>
  </scstep>
  <scstep>
   <time name="total">    2.30    1.42</time>
   <energy>
    <i name="e_fr_energy">    -16.90610375 </i>
    <i name="e_wo_entrp">    -16.90610375 </i>
    <i name="e_0_energy">    -16.90610375 </i>
   </energy>
  </scstep>
  <scstep>
   <time name="total">    2.27    1.41</time>
   <energy>
    <i name="e_fr_energy">    -16.90727319 </i>
    <i name="e_wo_entrp">    -16.90727319 </i>
    <i name="e_0_energy">    -16.90727319 </i>
   </energy>
  </scstep>
  <scstep>
   <time name="total">    2.20    1.37</time>
   <energy>
    <i name="e_fr_energy">    -16.90710915 </i>
    <i name="e_wo_entrp">    -16.90710915 </i>
    <i name="e_0_energy">    -16.90710915 </i>
   </energy>
  </scstep>
  <scstep>
   <time name="total">    2.17    1.36</time>
   <energy>
    <i name="e_fr_energy">    -16.90721037 </i>
    <i name="e_wo_entrp">    -16.90721037 </i>
    <i name="e_0_energy">    -16.90721037 </i>
   </energy>
  </scstep>
  <scstep>
   <time name="total">    2.09    1.32</time>
   <energy>
    <i name="e_fr_energy">    -16.90699819 </i>
    <i name="e_wo_entrp">    -16.90699819 </i>
    <i name="e_0_energy">    -16.90699819 </i>
   </energy>
  </scstep>
  <scstep>
   <time name="total">    2.09    1.32</time>
   <energy>
    <i name="e_fr_energy">    -16.90721762 </i>
    <i name="e_wo_entrp">    -16.90721762 </i>
    <i name="e_0_energy">    -16.90721762 </i>
   </energy>
  </scstep>
  <scstep>
   <time name="total">    2.12    1.33</time>
   <energy>
    <i name="e_fr_energy">    -16.90663447 </i>
    <i name="e_wo_entrp">    -16.90663447 </i>
    <i name="e_0_energy">    -16.90663447 </i>
   </energy>
  </scstep>
  <scstep>
   <time name="total">    2.05    1.30</time>
   <energy>
    <i name="e_fr_energy">    -16.90666577 </i>
    <i name="e_wo_entrp">    -16.90666577 </i>
    <i name="e_0_energy">    -16.90666577 </i>
   </energy>
  </scstep>
  <scstep>
   <time name="total">    2.07    1.31</time>
   <energy>
    <i name="e_fr_energy">    -16.90667858 </i>
    <i name="e_wo_entrp">    -16.90667858 </i>
    <i name="e_0_energy">    -16.90667858 </i>
   </energy>
  </scstep>
  <scstep>
   <time name="total">    2.05    1.30</time>
   <energy>
    <i name="e_fr_energy">    -16.90735860 </i>
    <i name="e_wo_entrp">    -16.90735860 </i>
    <i name="e_0_energy">    -16.90735860 </i>
   </energy>
  </scstep>
  <scstep>
   <time name="total">    2.05    1.30</time>
   <energy>
    <i name="e_fr_energy">    -16.90749855 </i>
    <i name="e_wo_entrp">    -16.90749855 </i>
    <i name="e_0_energy">    -16.90749855 </i>
   </energy>
  </scstep>
  <scstep>
   <time name="total">    2.08    1.31</time>
   <energy>
    <i name="e_fr_energy">    -16.90713016 </i>
    <i name="e_wo_entrp">    -16.90713016 </i>
    <i name="e_0_energy">    -16.90713016 </i>
   </energy>
  </scstep>
  <scstep>
   <time name="total">    2.06    1.30</time>
   <energy>
    <i name="e_fr_energy">    -16.90665876 </i>
    <i name="e_wo_entrp">    -16.90665876 </i>
    <i name="e_0_energy">    -16.90665876 </i>
   </energy>
  </scstep>
  <scstep>
   <time name="total">    2.09    1.32</time>
   <energy>
    <i name="e_fr_energy">    -16.90685096 </i>
    <i name="e_wo_entrp">    -16.90685096 </i>
    <i name="e_0_energy">    -16.90685096 </i>
   </energy>
  </scstep>
  <scstep>
   <time name="total">    2.12    1.34</time>
   <energy>
    <i name="e_fr_energy">    -16.90749826 </i>
    <i name="e_wo_entrp">    -16.90749826 </i>
    <i name="e_0_energy">    -16.90749826 </i>
   </energy>
  </scstep>
  <scstep>
   <time name="total">    2.11    1.33</time>
   <energy>
    <i name="e_fr_energy">    -16.90680431 </i>
    <i name="e_wo_entrp">    -16.90680431 </i>
    <i name="e_0_energy">    -16.90680431 </i>
   </energy>
  </scstep>
  <scstep>
   <time name="total">    2.12    1.33</time>
   <energy>
    <i name="e_fr_energy">    -16.90682162 </i>
    <i name="e_wo_entrp">    -16.90682162 </i>
    <i name="e_0_energy">    -16.90682162 </i>
   </energy>
  </scstep>
  <scstep>
   <time name="total">    2.10    1.32</time>
   <energy>
    <i name="e_fr_energy">    -16.90688943 </i>
    <i name="e_wo_entrp">    -16.90688943 </i>
    <i name="e_0_energy">    -16.90688943 </i>
   </energy>
  </scstep>
  <scstep>
   <time name="total">    2.11    1.33</time>
   <energy>
    <i name="e_fr_energy">    -16.90733340 </i>
    <i name="e_wo_entrp">    -16.90733340 </i>
    <i name="e_0_energy">    -16.90733340 </i>
   </energy>
  </scstep>
  <kpoints>
   <generation param="Gamma">
    <v type="int" name="divisions">       8        9        3 </v>
    <v name="usershift">      0.00000000       0.00000000       0.00000000 </v>
    <v name="genvec1">      0.12500000       0.00000000       0.00000000 </v>
    <v name="genvec2">      0.00000000       0.11111111       0.00000000 </v>
    <v name="genvec3">      0.00000000       0.00000000       0.33333333 </v>
    <v name="shift">      0.00000000       0.00000000       0.00000000 </v>
   </generation>
   <varray name="kpointlist" >
    <v>       0.00000000       0.00000000       0.00000000 </v>
    <v>       0.12500000       0.00000000       0.00000000 </v>
    <v>       0.25000000       0.00000000       0.00000000 </v>
    <v>       0.37500000       0.00000000       0.00000000 </v>
    <v>       0.50000000       0.00000000       0.00000000 </v>
    <v>       0.00000000       0.11111111       0.00000000 </v>
    <v>       0.12500000       0.11111111       0.00000000 </v>
    <v>       0.25000000       0.11111111       0.00000000 </v>
    <v>       0.37500000       0.11111111       0.00000000 </v>
    <v>       0.50000000       0.11111111       0.00000000 </v>
    <v>       0.00000000       0.22222222       0.00000000 </v>
    <v>       0.12500000       0.22222222       0.00000000 </v>
    <v>       0.25000000       0.22222222       0.00000000 </v>
    <v>       0.37500000       0.22222222       0.00000000 </v>
    <v>       0.50000000       0.22222222       0.00000000 </v>
    <v>       0.00000000       0.33333333       0.00000000 </v>
    <v>       0.12500000       0.33333333       0.00000000 </v>
    <v>       0.25000000       0.33333333       0.00000000 </v>
    <v>       0.37500000       0.33333333       0.00000000 </v>
    <v>       0.50000000       0.33333333       0.00000000 </v>
    <v>       0.00000000       0.44444444       0.00000000 </v>
    <v>       0.12500000       0.44444444       0.00000000 </v>
    <v>       0.25000000       0.44444444       0.00000000 </v>
    <v>       0.37500000       0.44444444       0.00000000 </v>
    <v>       0.50000000       0.44444444       0.00000000 </v>
    <v>       0.00000000       0.00000000       0.33333333 </v>
    <v>       0.12500000       0.00000000       0.33333333 </v>
    <v>       0.25000000       0.00000000       0.33333333 </v>
    <v>       0.37500000       0.00000000       0.33333333 </v>
    <v>       0.50000000       0.00000000       0.33333333 </v>
    <v>       0.00000000       0.11111111       0.33333333 </v>
    <v>       0.12500000       0.11111111       0.33333333 </v>
    <v>       0.25000000       0.11111111       0.33333333 </v>
    <v>       0.37500000       0.11111111       0.33333333 </v>
    <v>       0.50000000       0.11111111       0.33333333 </v>
    <v>       0.00000000       0.22222222       0.33333333 </v>
    <v>       0.12500000       0.22222222       0.33333333 </v>
    <v>       0.25000000       0.22222222       0.33333333 </v>
    <v>       0.37500000       0.22222222       0.33333333 </v>
    <v>       0.50000000       0.22222222       0.33333333 </v>
    <v>       0.00000000       0.33333333       0.33333333 </v>
    <v>       0.12500000       0.33333333       0.33333333 </v>
    <v>       0.25000000       0.33333333       0.33333333 </v>
    <v>       0.37500000       0.33333333       0.33333333 </v>
    <v>       0.50000000       0.33333333       0.33333333 </v>
    <v>       0.00000000       0.44444444       0.33333333 </v>
    <v>       0.12500000       0.44444444       0.33333333 </v>
    <v>       0.25000000       0.44444444       0.33333333 </v>
    <v>       0.37500000       0.44444444       0.33333333 </v>
    <v>       0.50000000       0.44444444       0.33333333 </v>
   </varray>
   <varray name="weights" >
    <v>       0.00462963 </v>
    <v>       0.00925926 </v>
    <v>       0.00925926 </v>
    <v>       0.00925926 </v>
    <v>       0.00462963 </v>
    <v>       0.00925926 </v>
    <v>       0.01851852 </v>
    <v>       0.01851852 </v>
    <v>       0.01851852 </v>
    <v>       0.00925926 </v>
    <v>       0.00925926 </v>
    <v>       0.01851852 </v>
    <v>       0.01851852 </v>
    <v>       0.01851852 </v>
    <v>       0.00925926 </v>
    <v>       0.00925926 </v>
    <v>       0.01851852 </v>
    <v>       0.01851852 </v>
    <v>       0.01851852 </v>
    <v>       0.00925926 </v>
    <v>       0.00925926 </v>
    <v>       0.01851852 </v>
    <v>       0.01851852 </v>
    <v>       0.01851852 </v>
    <v>       0.00925926 </v>
    <v>       0.00925926 </v>
    <v>       0.01851852 </v>
    <v>       0.01851852 </v>
    <v>       0.01851852 </v>
    <v>       0.00925926 </v>
    <v>       0.01851852 </v>
    <v>       0.03703704 </v>
    <v>       0.03703704 </v>
    <v>       0.03703704 </v>
    <v>       0.01851852 </v>
    <v>       0.01851852 </v>
    <v>       0.03703704 </v>
    <v>       0.03703704 </v>
    <v>       0.03703704 </v>
    <v>       0.01851852 </v>
    <v>       0.01851852 </v>
    <v>       0.03703704 </v>
    <v>       0.03703704 </v>
    <v>       0.03703704 </v>
    <v>       0.01851852 </v>
    <v>       0.01851852 </v>
    <v>       0.03703704 </v>
    <v>       0.03703704 </v>
    <v>       0.03703704 </v>
    <v>       0.01851852 </v>
   </varray>
  </kpoints>
  <scstep>
   <time name="total">    1.58    1.07</time>
   <energy>
    <i name="e_fr_energy">     -4.10312918 </i>
    <i name="e_wo_entrp">     -4.10312918 </i>
    <i name="e_0_energy">     -4.10312918 </i>
   </energy>
  </scstep>
  <scstep>
   <time name="total">    2.26    1.39</time>
   <energy>
    <i name="e_fr_energy">    -15.57980997 </i>
    <i name="e_wo_entrp">    -15.57980997 </i>
    <i name="e_0_energy">    -15.57980997 </i>
   </energy>
  </scstep>
  <scstep>
   <time name="total">    2.14    1.36</time>
   <energy>
    <i name="e_fr_energy">    -15.20827139 </i>
    <i name="e_wo_entrp">    -15.20827139 </i>
    <i name="e_0_energy">    -15.20827139 </i>
   </energy>
  </scstep>
  <scstep>
   <time name="total">    2.14    1.36</time>
   <energy>
    <i name="e_fr_energy">    -15.43193166 </i>
    <i name="e_wo_entrp">    -15.43193166 </i>
    <i name="e_0_energy">    -15.43193166 </i>
   </energy>
  </scstep>
  <scstep>
   <time name="total">    2.16    1.37</time>
   <energy>
    <i name="e_fr_energy">    -15.56764987 </i>
    <i name="e_wo_entrp">    -15.56764987 </i>
    <i name="e_0_energy">    -15.56764987 </i>
   </energy>
  </scstep>
  <scstep>
   <time name="total">    2.20    1.38</time>
   <energy>
    <i name="e_fr_energy">    -15.63206019 </i>
    <i name="e_wo_entrp">    -15.63206019 </i>
    <i name="e_0_energy">    -15.63206019 </i>
   </energy>
  </scstep>
  <scstep>
   <time name="total">    2.28    1.42</time>
   <energy>
    <i name="e_fr_energy">    -15.63246905 </i>
    <i name="e_wo_entrp">    -15.63246905 </i>
    <i name="e_0_energy">    -15.63246905 </i>
   </energy>
  </scstep>
  <scstep>
   <time name="total">    2.22    1.39</time>
   <energy>
    <i name="e_fr_energy">    -15.63845976 </i>
    <i name="e_wo_entrp">    -15.63845976 </i>
    <i name="e_0_energy">    -15.63845976 </i>
   </energy>
  </scstep>
  <scstep>
   <time name="total">    2.26    1.41</time>
   <energy>
    <i name="e_fr_energy">    -15.63551515 </i>
    <i name="e_wo_entrp">    -15.63551515 </i>
    <i name="e_0_energy">    -15.63551515 </i>
   </energy>
  </scstep>
  <scstep>
   <time name="total">    2.23    1.39</time>
   <energy>
    <i name="e_fr_energy">    -15.63644869 </i>
    <i name="e_wo_entrp">    -15.63644869 </i>
    <i name="e_0_energy">    -15.63644869 </i>
   </energy>
  </scstep>
  <scstep>
   <time name="total">    2.21    1.39</time>
   <energy>
    <i name="e_fr_energy">    -15.63476798 </i>
    <i name="e_wo_entrp">    -15.63476798 </i>
    <i name="e_0_energy">    -15.63476798 </i>
   </energy>
  </scstep>
  <scstep>
   <time name="total">    2.29    1.42</time>
   <energy>
    <i name="e_fr_energy">    -15.63884580 </i>
    <i name="e_wo_entrp">    -15.63884580 </i>
    <i name="e_0_energy">    -15.63884580 </i>
   </energy>
  </scstep>
  <scstep>
   <time name="total">    2.22    1.39</time>
   <energy>
    <i name="e_fr_energy">    -15.63400849 </i>
    <i name="e_wo_entrp">    -15.63400849 </i>
    <i name="e_0_energy">    -15.63400849 </i>
   </energy>
  </scstep>
  <scstep>
   <time name="total">    2.19    1.38</time>
   <energy>
    <i name="e_fr_energy">    -15.63820726 </i>
    <i name="e_wo_entrp">    -15.63820726 </i>
    <i name="e_0_energy">    -15.63820726 </i>
   </energy>
  </scstep>
  <scstep>
   <time name="total">    2.16    1.36</time>
   <energy>
    <i name="e_fr_energy">    -15.63337544 </i>
    <i name="e_wo_entrp">    -15.63337544 </i>
    <i name="e_0_energy">    -15.63337544 </i>
   </energy>
  </scstep>
  <scstep>
   <time name="total">    2.08    1.32</time>
   <energy>
    <i name="e_fr_energy">    -15.63531801 </i>
    <i name="e_wo_entrp">    -15.63531801 </i>
    <i name="e_0_energy">    -15.63531801 </i>
   </energy>
  </scstep>
  <scstep>
   <time name="total">    2.06    1.31</time>
   <energy>
    <i name="e_fr_energy">    -15.63378543 </i>
    <i name="e_wo_entrp">    -15.63378543 </i>
    <i name="e_0_energy">    -15.63378543 </i>
   </energy>
  </scstep>
  <scstep>
   <time name="total">    2.06    1.31</time>
   <energy>
    <i name="e_fr_energy">    -15.63298659 </i>
    <i name="e_wo_entrp">    -15.63298659 </i>
    <i name="e_0_energy">    -15.63298659 </i>
   </energy>
  </scstep>
  <kpoints>
   <generation param="Gamma">
    <v type="int" name="divisions">       8        9        3 </v>
    <v name="usershift">      0.00000000       0.00000000       0.00000000 </v>
    <v name="genvec1">      0.12500000       0.00000000       0.00000000 </v>
    <v name="genvec2">      0.00000000       0.11111111       0.00000000 </v>
    <v name="genvec3">      0.00000000       0.00000000       0.33333333 </v>
    <v name="shift">      0.00000000       0.00000000       0.00000000 </v>
   </generation>
   <varray name="kpointlist" >
    <v>       0.00000000       0.00000000       0.00000000 </v>
    <v>       0.12500000       0.00000000       0.00000000 </v>
    <v>       0.25000000       0.00000000       0.00000000 </v>
    <v>       0.37500000       0.00000000       0.00000000 </v>
    <v>       0.50000000       0.00000000       0.00000000 </v>
    <v>       0.00000000       0.11111111       0.00000000 </v>
    <v>       0.12500000       0.11111111       0.00000000 </v>
    <v>       0.25000000       0.11111111       0.00000000 </v>
    <v>       0.37500000       0.11111111       0.00000000 </v>
    <v>       0.50000000       0.11111111       0.00000000 </v>
    <v>       0.00000000       0.22222222       0.00000000 </v>
    <v>       0.12500000       0.22222222       0.00000000 </v>
    <v>       0.25000000       0.22222222       0.00000000 </v>
    <v>       0.37500000       0.22222222       0.00000000 </v>
    <v>       0.50000000       0.22222222       0.00000000 </v>
    <v>       0.00000000       0.33333333       0.00000000 </v>
    <v>       0.12500000       0.33333333       0.00000000 </v>
    <v>       0.25000000       0.33333333       0.00000000 </v>
    <v>       0.37500000       0.33333333       0.00000000 </v>
    <v>       0.50000000       0.33333333       0.00000000 </v>
    <v>       0.00000000       0.44444444       0.00000000 </v>
    <v>       0.12500000       0.44444444       0.00000000 </v>
    <v>       0.25000000       0.44444444       0.00000000 </v>
    <v>       0.37500000       0.44444444       0.00000000 </v>
    <v>       0.50000000       0.44444444       0.00000000 </v>
    <v>       0.00000000       0.00000000       0.33333333 </v>
    <v>       0.12500000       0.00000000       0.33333333 </v>
    <v>       0.25000000       0.00000000       0.33333333 </v>
    <v>       0.37500000       0.00000000       0.33333333 </v>
    <v>       0.50000000       0.00000000       0.33333333 </v>
    <v>       0.00000000       0.11111111       0.33333333 </v>
    <v>       0.12500000       0.11111111       0.33333333 </v>
    <v>       0.25000000       0.11111111       0.33333333 </v>
    <v>       0.37500000       0.11111111       0.33333333 </v>
    <v>       0.50000000       0.11111111       0.33333333 </v>
    <v>       0.00000000       0.22222222       0.33333333 </v>
    <v>       0.12500000       0.22222222       0.33333333 </v>
    <v>       0.25000000       0.22222222       0.33333333 </v>
    <v>       0.37500000       0.22222222       0.33333333 </v>
    <v>       0.50000000       0.22222222       0.33333333 </v>
    <v>       0.00000000       0.33333333       0.33333333 </v>
    <v>       0.12500000       0.33333333       0.33333333 </v>
    <v>       0.25000000       0.33333333       0.33333333 </v>
    <v>       0.37500000       0.33333333       0.33333333 </v>
    <v>       0.50000000       0.33333333       0.33333333 </v>
    <v>       0.00000000       0.44444444       0.33333333 </v>
    <v>       0.12500000       0.44444444       0.33333333 </v>
    <v>       0.25000000       0.44444444       0.33333333 </v>
    <v>       0.37500000       0.44444444       0.33333333 </v>
    <v>       0.50000000       0.44444444       0.33333333 </v>
   </varray>
   <varray name="weights" >
    <v>       0.00462963 </v>
    <v>       0.00925926 </v>
    <v>       0.00925926 </v>
    <v>       0.00925926 </v>
    <v>       0.00462963 </v>
    <v>       0.00925926 </v>
    <v>       0.01851852 </v>
    <v>       0.01851852 </v>
    <v>       0.01851852 </v>
    <v>       0.00925926 </v>
    <v>       0.00925926 </v>
    <v>       0.01851852 </v>
    <v>       0.01851852 </v>
    <v>       0.01851852 </v>
    <v>       0.00925926 </v>
    <v>       0.00925926 </v>
    <v>       0.01851852 </v>
    <v>       0.01851852 </v>
    <v>       0.01851852 </v>
    <v>       0.00925926 </v>
    <v>       0.00925926 </v>
    <v>       0.01851852 </v>
    <v>       0.01851852 </v>
    <v>       0.01851852 </v>
    <v>       0.00925926 </v>
    <v>       0.00925926 </v>
    <v>       0.01851852 </v>
    <v>       0.01851852 </v>
    <v>       0.01851852 </v>
    <v>       0.00925926 </v>
    <v>       0.01851852 </v>
    <v>       0.03703704 </v>
    <v>       0.03703704 </v>
    <v>       0.03703704 </v>
    <v>       0.01851852 </v>
    <v>       0.01851852 </v>
    <v>       0.03703704 </v>
    <v>       0.03703704 </v>
    <v>       0.03703704 </v>
    <v>       0.01851852 </v>
    <v>       0.01851852 </v>
    <v>       0.03703704 </v>
    <v>       0.03703704 </v>
    <v>       0.03703704 </v>
    <v>       0.01851852 </v>
    <v>       0.01851852 </v>
    <v>       0.03703704 </v>
    <v>       0.03703704 </v>
    <v>       0.03703704 </v>
    <v>       0.01851852 </v>
   </varray>
  </kpoints>
  <varray name="dielectric_dft" >
   <v>      24.19282635      -0.00000000       0.00000000 </v>
   <v>       0.00000000      29.47929807       0.00000000 </v>
   <v>       0.00000000       0.00000000      27.67576830 </v>
  </varray>
  <varray name="epsilon" >
   <v>      24.19282635      -0.00000000       0.00000000 </v>
   <v>       0.00000000      29.47929807       0.00000000 </v>
   <v>       0.00000000       0.00000000      27.67576830 </v>
  </varray>
  <kpoints>
   <generation param="Gamma">
    <v type="int" name="divisions">       8        9        3 </v>
    <v name="usershift">      0.00000000       0.00000000       0.00000000 </v>
    <v name="genvec1">      0.12500000       0.00000000       0.00000000 </v>
    <v name="genvec2">      0.00000000       0.11111111       0.00000000 </v>
    <v name="genvec3">      0.00000000       0.00000000       0.33333333 </v>
    <v name="shift">      0.00000000       0.00000000       0.00000000 </v>
   </generation>
   <varray name="kpointlist" >
    <v>       0.00000000       0.00000000       0.00000000 </v>
    <v>       0.12500000       0.00000000       0.00000000 </v>
    <v>       0.25000000       0.00000000       0.00000000 </v>
    <v>       0.37500000       0.00000000       0.00000000 </v>
    <v>       0.50000000       0.00000000       0.00000000 </v>
    <v>       0.00000000       0.11111111       0.00000000 </v>
    <v>       0.12500000       0.11111111       0.00000000 </v>
    <v>       0.25000000       0.11111111       0.00000000 </v>
    <v>       0.37500000       0.11111111       0.00000000 </v>
    <v>       0.50000000       0.11111111       0.00000000 </v>
    <v>       0.00000000       0.22222222       0.00000000 </v>
    <v>       0.12500000       0.22222222       0.00000000 </v>
    <v>       0.25000000       0.22222222       0.00000000 </v>
    <v>       0.37500000       0.22222222       0.00000000 </v>
    <v>       0.50000000       0.22222222       0.00000000 </v>
    <v>       0.00000000       0.33333333       0.00000000 </v>
    <v>       0.12500000       0.33333333       0.00000000 </v>
    <v>       0.25000000       0.33333333       0.00000000 </v>
    <v>       0.37500000       0.33333333       0.00000000 </v>
    <v>       0.50000000       0.33333333       0.00000000 </v>
    <v>       0.00000000       0.44444444       0.00000000 </v>
    <v>       0.12500000       0.44444444       0.00000000 </v>
    <v>       0.25000000       0.44444444       0.00000000 </v>
    <v>       0.37500000       0.44444444       0.00000000 </v>
    <v>       0.50000000       0.44444444       0.00000000 </v>
    <v>       0.00000000       0.00000000       0.33333333 </v>
    <v>       0.12500000       0.00000000       0.33333333 </v>
    <v>       0.25000000       0.00000000       0.33333333 </v>
    <v>       0.37500000       0.00000000       0.33333333 </v>
    <v>       0.50000000       0.00000000       0.33333333 </v>
    <v>       0.00000000       0.11111111       0.33333333 </v>
    <v>       0.12500000       0.11111111       0.33333333 </v>
    <v>       0.25000000       0.11111111       0.33333333 </v>
    <v>       0.37500000       0.11111111       0.33333333 </v>
    <v>       0.50000000       0.11111111       0.33333333 </v>
    <v>       0.00000000       0.22222222       0.33333333 </v>
    <v>       0.12500000       0.22222222       0.33333333 </v>
    <v>       0.25000000       0.22222222       0.33333333 </v>
    <v>       0.37500000       0.22222222       0.33333333 </v>
    <v>       0.50000000       0.22222222       0.33333333 </v>
    <v>       0.00000000       0.33333333       0.33333333 </v>
    <v>       0.12500000       0.33333333       0.33333333 </v>
    <v>       0.25000000       0.33333333       0.33333333 </v>
    <v>       0.37500000       0.33333333       0.33333333 </v>
    <v>       0.50000000       0.33333333       0.33333333 </v>
    <v>       0.00000000       0.44444444       0.33333333 </v>
    <v>       0.12500000       0.44444444       0.33333333 </v>
    <v>       0.25000000       0.44444444       0.33333333 </v>
    <v>       0.37500000       0.44444444       0.33333333 </v>
    <v>       0.50000000       0.44444444       0.33333333 </v>
   </varray>
   <varray name="weights" >
    <v>       0.00462963 </v>
    <v>       0.00925926 </v>
    <v>       0.00925926 </v>
    <v>       0.00925926 </v>
    <v>       0.00462963 </v>
    <v>       0.00925926 </v>
    <v>       0.01851852 </v>
    <v>       0.01851852 </v>
    <v>       0.01851852 </v>
    <v>       0.00925926 </v>
    <v>       0.00925926 </v>
    <v>       0.01851852 </v>
    <v>       0.01851852 </v>
    <v>       0.01851852 </v>
    <v>       0.00925926 </v>
    <v>       0.00925926 </v>
    <v>       0.01851852 </v>
    <v>       0.01851852 </v>
    <v>       0.01851852 </v>
    <v>       0.00925926 </v>
    <v>       0.00925926 </v>
    <v>       0.01851852 </v>
    <v>       0.01851852 </v>
    <v>       0.01851852 </v>
    <v>       0.00925926 </v>
    <v>       0.00925926 </v>
    <v>       0.01851852 </v>
    <v>       0.01851852 </v>
    <v>       0.01851852 </v>
    <v>       0.00925926 </v>
    <v>       0.01851852 </v>
    <v>       0.03703704 </v>
    <v>       0.03703704 </v>
    <v>       0.03703704 </v>
    <v>       0.01851852 </v>
    <v>       0.01851852 </v>
    <v>       0.03703704 </v>
    <v>       0.03703704 </v>
    <v>       0.03703704 </v>
    <v>       0.01851852 </v>
    <v>       0.01851852 </v>
    <v>       0.03703704 </v>
    <v>       0.03703704 </v>
    <v>       0.03703704 </v>
    <v>       0.01851852 </v>
    <v>       0.01851852 </v>
    <v>       0.03703704 </v>
    <v>       0.03703704 </v>
    <v>       0.03703704 </v>
    <v>       0.01851852 </v>
   </varray>
  </kpoints>
  <array name="born_charges" >
   <dimension dim="1">ion</dimension>
   <set>
    <v>       3.97793449       0.00000000      -0.59113066 </v>
    <v>       0.00000000       4.57836286       0.00000000 </v>
    <v>       0.09572362       0.00000000       4.24703700 </v>
   </set>
   <set>
    <v>       3.97793449       0.00000000       0.59113066 </v>
    <v>       0.00000000       4.57836286       0.00000000 </v>
    <v>      -0.09572362       0.00000000       4.24703700 </v>
   </set>
   <set>
    <v>       3.97793449       0.00000000       0.59113066 </v>
    <v>       0.00000000       4.57836286       0.00000000 </v>
    <v>      -0.09572362       0.00000000       4.24703700 </v>
   </set>
   <set>
    <v>       3.97793449       0.00000000      -0.59113066 </v>
    <v>       0.00000000       4.57836286       0.00000000 </v>
    <v>       0.09572362       0.00000000       4.24703700 </v>
   </set>
   <set>
    <v>      -3.97793449      -0.00000000       0.57999675 </v>
    <v>       0.00000000      -4.57836286       0.00000000 </v>
    <v>       0.69779123       0.00000000      -4.24703700 </v>
   </set>
   <set>
    <v>      -3.97793449      -0.00000000      -0.57999675 </v>
    <v>       0.00000000      -4.57836286       0.00000000 </v>
    <v>      -0.69779123       0.00000000      -4.24703700 </v>
   </set>
   <set>
    <v>      -3.97793449      -0.00000000      -0.57999675 </v>
    <v>       0.00000000      -4.57836286       0.00000000 </v>
    <v>      -0.69779123       0.00000000      -4.24703700 </v>
   </set>
   <set>
    <v>      -3.97793449      -0.00000000       0.57999675 </v>
    <v>       0.00000000      -4.57836286       0.00000000 </v>
    <v>       0.69779123       0.00000000      -4.24703700 </v>
   </set>
  </array>
  <time name="totalsc">  392.53  242.71</time>
  <eigenvalues>
   <array>
    <dimension dim="1">band</dimension>
    <dimension dim="2">kpoint</dimension>
    <dimension dim="3">spin</dimension>
    <field>eigene</field>
    <field>occ</field>
    <set>
     <set comment="spin 1">
      <set comment="kpoint 1">
       <r>  -15.4198    1.0000 </r>
       <r>  -15.4008    1.0000 </r>
       <r>  -15.3997    1.0000 </r>
       <r>  -15.3939    1.0000 </r>
       <r>  -15.3936    1.0000 </r>
       <r>  -15.3913    1.0000 </r>
       <r>  -15.3878    1.0000 </r>
       <r>  -15.3847    1.0000 </r>
       <r>  -15.3827    1.0000 </r>
       <r>  -15.3811    1.0000 </r>
       <r>  -15.3775    1.0000 </r>
       <r>  -15.3767    1.0000 </r>
       <r>  -15.3664    1.0000 </r>
       <r>  -15.3614    1.0000 </r>
       <r>  -15.3461    1.0000 </r>
       <r>  -15.3362    1.0000 </r>
       <r>  -15.3361    1.0000 </r>
       <r>  -15.3279    1.0000 </r>
       <r>  -15.3149    1.0000 </r>
       <r>  -15.3057    1.0000 </r>
       <r>   -8.1762    1.0000 </r>
       <r>   -7.7621    1.0000 </r>
       <r>   -7.1049    1.0000 </r>
       <r>   -6.4989    1.0000 </r>
       <r>   -1.4613    1.0000 </r>
       <r>   -0.2061    1.0000 </r>
       <r>    0.0136    1.0000 </r>
       <r>    0.8599    1.0000 </r>
       <r>    0.9878    1.0000 </r>
       <r>    2.3139    1.0000 </r>
       <r>    2.3259    1.0000 </r>
       <r>    2.4406    1.0000 </r>
       <r>    2.8965    1.0000 </r>
       <r>    2.9099    1.0000 </r>
       <r>    3.4137    1.0000 </r>
       <r>    3.9187    1.0000 </r>
       <r>    4.2225    1.0000 </r>
       <r>    4.5911    1.0000 </r>
       <r>    5.1375    1.0000 </r>
       <r>    5.2947    1.0000 </r>
       <r>    6.3237    0.0000 </r>
       <r>    8.7711    0.0000 </r>
       <r>    8.8828    0.0000 </r>
       <r>    8.9226    0.0000 </r>
       <r>    9.1629    0.0000 </r>
       <r>    9.3549    0.0000 </r>
       <r>   10.0799    0.0000 </r>
       <r>   10.3903    0.0000 </r>
       <r>   10.5165    0.0000 </r>
       <r>   10.7528    0.0000 </r>
       <r>   11.3485    0.0000 </r>
       <r>   11.8001    0.0000 </r>
       <r>   12.0457    0.0000 </r>
       <r>   12.0875    0.0000 </r>
       <r>   12.1520    0.0000 </r>
       <r>   12.6166    0.0000 </r>
       <r>   12.6843    0.0000 </r>
       <r>   13.6061    0.0000 </r>
       <r>   14.3956    0.0000 </r>
       <r>   14.4101    0.0000 </r>
       <r>   14.5484    0.0000 </r>
       <r>   14.6935    0.0000 </r>
       <r>   15.0293    0.0000 </r>
       <r>   15.0341    0.0000 </r>
      </set>
      <set comment="kpoint 2">
       <r>  -15.4186    1.0000 </r>
       <r>  -15.4010    1.0000 </r>
       <r>  -15.3984    1.0000 </r>
       <r>  -15.3938    1.0000 </r>
       <r>  -15.3931    1.0000 </r>
       <r>  -15.3926    1.0000 </r>
       <r>  -15.3885    1.0000 </r>
       <r>  -15.3849    1.0000 </r>
       <r>  -15.3816    1.0000 </r>
       <r>  -15.3814    1.0000 </r>
       <r>  -15.3783    1.0000 </r>
       <r>  -15.3745    1.0000 </r>
       <r>  -15.3653    1.0000 </r>
       <r>  -15.3617    1.0000 </r>
       <r>  -15.3462    1.0000 </r>
       <r>  -15.3368    1.0000 </r>
       <r>  -15.3357    1.0000 </r>
       <r>  -15.3284    1.0000 </r>
       <r>  -15.3145    1.0000 </r>
       <r>  -15.3060    1.0000 </r>
       <r>   -8.1020    1.0000 </r>
       <r>   -7.6948    1.0000 </r>
       <r>   -7.0822    1.0000 </r>
       <r>   -6.5080    1.0000 </r>
       <r>   -1.7468    1.0000 </r>
       <r>   -0.3998    1.0000 </r>
       <r>   -0.2477    1.0000 </r>
       <r>    0.4776    1.0000 </r>
       <r>    0.8689    1.0000 </r>
       <r>    2.3549    1.0000 </r>
       <r>    2.4374    1.0000 </r>
       <r>    2.8619    1.0000 </r>
       <r>    3.0102    1.0000 </r>
       <r>    3.4353    1.0000 </r>
       <r>    3.4976    1.0000 </r>
       <r>    3.9934    1.0000 </r>
       <r>    4.2718    1.0000 </r>
       <r>    4.9232    1.0000 </r>
       <r>    4.9663    1.0000 </r>
       <r>    5.3466    1.0000 </r>
       <r>    6.3393    0.0000 </r>
       <r>    8.1903    0.0000 </r>
       <r>    8.8463    0.0000 </r>
       <r>    8.9852    0.0000 </r>
       <r>    9.0634    0.0000 </r>
       <r>    9.1548    0.0000 </r>
       <r>    9.9481    0.0000 </r>
       <r>   10.2390    0.0000 </r>
       <r>   10.2947    0.0000 </r>
       <r>   10.3913    0.0000 </r>
       <r>   11.2804    0.0000 </r>
       <r>   11.2847    0.0000 </r>
       <r>   11.5644    0.0000 </r>
       <r>   12.0159    0.0000 </r>
       <r>   12.1019    0.0000 </r>
       <r>   12.6189    0.0000 </r>
       <r>   13.0622    0.0000 </r>
       <r>   13.6662    0.0000 </r>
       <r>   13.9958    0.0000 </r>
       <r>   14.5712    0.0000 </r>
       <r>   14.8800    0.0000 </r>
       <r>   15.3455    0.0000 </r>
       <r>   15.3935    0.0000 </r>
       <r>   15.6540    0.0000 </r>
      </set>
      <set comment="kpoint 3">
       <r>  -15.4153    1.0000 </r>
       <r>  -15.4018    1.0000 </r>
       <r>  -15.3958    1.0000 </r>
       <r>  -15.3955    1.0000 </r>
       <r>  -15.3953    1.0000 </r>
       <r>  -15.3914    1.0000 </r>
       <r>  -15.3890    1.0000 </r>
       <r>  -15.3860    1.0000 </r>
       <r>  -15.3819    1.0000 </r>
       <r>  -15.3805    1.0000 </r>
       <r>  -15.3780    1.0000 </r>
       <r>  -15.3697    1.0000 </r>
       <r>  -15.3642    1.0000 </r>
       <r>  -15.3615    1.0000 </r>
       <r>  -15.3460    1.0000 </r>
       <r>  -15.3384    1.0000 </r>
       <r>  -15.3345    1.0000 </r>
       <r>  -15.3294    1.0000 </r>
       <r>  -15.3135    1.0000 </r>
       <r>  -15.3070    1.0000 </r>
       <r>   -7.8922    1.0000 </r>
       <r>   -7.5045    1.0000 </r>
       <r>   -7.0479    1.0000 </r>
       <r>   -6.5568    1.0000 </r>
       <r>   -2.2719    1.0000 </r>
       <r>   -1.1193    1.0000 </r>
       <r>   -0.7979    1.0000 </r>
       <r>    0.0352    1.0000 </r>
       <r>    0.8775    1.0000 </r>
       <r>    2.6441    1.0000 </r>
       <r>    2.7568    1.0000 </r>
       <r>    3.2944    1.0000 </r>
       <r>    3.4845    1.0000 </r>
       <r>    3.7053    1.0000 </r>
       <r>    3.8929    1.0000 </r>
       <r>    4.3682    1.0000 </r>
       <r>    4.6251    1.0000 </r>
       <r>    4.7571    1.0000 </r>
       <r>    5.2833    1.0000 </r>
       <r>    5.5825    1.0000 </r>
       <r>    6.6694    0.0000 </r>
       <r>    7.1742    0.0000 </r>
       <r>    7.9144    0.0000 </r>
       <r>    8.1018    0.0000 </r>
       <r>    8.8550    0.0000 </r>
       <r>    8.9364    0.0000 </r>
       <r>    9.3300    0.0000 </r>
       <r>    9.4501    0.0000 </r>
       <r>   10.3246    0.0000 </r>
       <r>   10.5851    0.0000 </r>
       <r>   10.5894    0.0000 </r>
       <r>   11.1446    0.0000 </r>
       <r>   11.2451    0.0000 </r>
       <r>   12.2859    0.0000 </r>
       <r>   12.6802    0.0000 </r>
       <r>   12.6817    0.0000 </r>
       <r>   13.3198    0.0000 </r>
       <r>   13.5420    0.0000 </r>
       <r>   14.1449    0.0000 </r>
       <r>   14.6976    0.0000 </r>
       <r>   15.1817    0.0000 </r>
       <r>   15.5422    0.0000 </r>
       <r>   15.9259    0.0000 </r>
       <r>   16.2931    0.0000 </r>
      </set>
      <set comment="kpoint 4">
       <r>  -15.4110    1.0000 </r>
       <r>  -15.4036    1.0000 </r>
       <r>  -15.3981    1.0000 </r>
       <r>  -15.3977    1.0000 </r>
       <r>  -15.3933    1.0000 </r>
       <r>  -15.3906    1.0000 </r>
       <r>  -15.3884    1.0000 </r>
       <r>  -15.3872    1.0000 </r>
       <r>  -15.3826    1.0000 </r>
       <r>  -15.3826    1.0000 </r>
       <r>  -15.3729    1.0000 </r>
       <r>  -15.3656    1.0000 </r>
       <r>  -15.3649    1.0000 </r>
       <r>  -15.3605    1.0000 </r>
       <r>  -15.3446    1.0000 </r>
       <r>  -15.3402    1.0000 </r>
       <r>  -15.3330    1.0000 </r>
       <r>  -15.3305    1.0000 </r>
       <r>  -15.3120    1.0000 </r>
       <r>  -15.3085    1.0000 </r>
       <r>   -7.5916    1.0000 </r>
       <r>   -7.2281    1.0000 </r>
       <r>   -7.0920    1.0000 </r>
       <r>   -6.6917    1.0000 </r>
       <r>   -2.5977    1.0000 </r>
       <r>   -1.9608    1.0000 </r>
       <r>   -1.0485    1.0000 </r>
       <r>   -0.5609    1.0000 </r>
       <r>    1.3255    1.0000 </r>
       <r>    2.5375    1.0000 </r>
       <r>    3.2267    1.0000 </r>
       <r>    3.7036    1.0000 </r>
       <r>    3.8643    1.0000 </r>
       <r>    4.0831    1.0000 </r>
       <r>    4.1849    1.0000 </r>
       <r>    4.3587    1.0000 </r>
       <r>    4.6934    1.0000 </r>
       <r>    5.1682    1.0000 </r>
       <r>    5.6617    1.0000 </r>
       <r>    5.8683    1.0000 </r>
       <r>    6.6668    0.0000 </r>
       <r>    7.0768    0.0000 </r>
       <r>    7.2404    0.0000 </r>
       <r>    7.3236    0.0000 </r>
       <r>    7.9151    0.0000 </r>
       <r>    8.0112    0.0000 </r>
       <r>    8.6644    0.0000 </r>
       <r>    8.9046    0.0000 </r>
       <r>    9.3219    0.0000 </r>
       <r>    9.6149    0.0000 </r>
       <r>   11.4589    0.0000 </r>
       <r>   11.7581    0.0000 </r>
       <r>   12.4099    0.0000 </r>
       <r>   12.7023    0.0000 </r>
       <r>   13.1004    0.0000 </r>
       <r>   13.6002    0.0000 </r>
       <r>   13.6385    0.0000 </r>
       <r>   14.1547    0.0000 </r>
       <r>   14.2858    0.0000 </r>
       <r>   14.6403    0.0000 </r>
       <r>   14.7551    0.0000 </r>
       <r>   15.7206    0.0000 </r>
       <r>   16.5452    0.0000 </r>
       <r>   16.6269    0.0000 </r>
      </set>
      <set comment="kpoint 5">
       <r>  -15.4068    1.0000 </r>
       <r>  -15.4068    1.0000 </r>
       <r>  -15.3989    1.0000 </r>
       <r>  -15.3989    1.0000 </r>
       <r>  -15.3914    1.0000 </r>
       <r>  -15.3914    1.0000 </r>
       <r>  -15.3879    1.0000 </r>
       <r>  -15.3879    1.0000 </r>
       <r>  -15.3832    1.0000 </r>
       <r>  -15.3832    1.0000 </r>
       <r>  -15.3684    1.0000 </r>
       <r>  -15.3684    1.0000 </r>
       <r>  -15.3616    1.0000 </r>
       <r>  -15.3616    1.0000 </r>
       <r>  -15.3423    1.0000 </r>
       <r>  -15.3423    1.0000 </r>
       <r>  -15.3316    1.0000 </r>
       <r>  -15.3316    1.0000 </r>
       <r>  -15.3102    1.0000 </r>
       <r>  -15.3102    1.0000 </r>
       <r>   -7.2875    1.0000 </r>
       <r>   -7.2875    1.0000 </r>
       <r>   -6.9310    1.0000 </r>
       <r>   -6.9310    1.0000 </r>
       <r>   -2.4970    1.0000 </r>
       <r>   -2.4970    1.0000 </r>
       <r>   -0.9683    1.0000 </r>
       <r>   -0.9683    1.0000 </r>
       <r>    1.9472    1.0000 </r>
       <r>    1.9472    1.0000 </r>
       <r>    3.6919    1.0000 </r>
       <r>    3.6919    1.0000 </r>
       <r>    4.1134    1.0000 </r>
       <r>    4.1134    1.0000 </r>
       <r>    4.4448    1.0000 </r>
       <r>    4.4448    1.0000 </r>
       <r>    5.0146    1.0000 </r>
       <r>    5.0146    1.0000 </r>
       <r>    5.6387    1.0000 </r>
       <r>    5.6387    1.0000 </r>
       <r>    7.0664    0.0000 </r>
       <r>    7.0664    0.0000 </r>
       <r>    7.2448    0.0000 </r>
       <r>    7.2448    0.0000 </r>
       <r>    7.5518    0.0000 </r>
       <r>    7.5518    0.0000 </r>
       <r>    8.3614    0.0000 </r>
       <r>    8.3614    0.0000 </r>
       <r>    8.9729    0.0000 </r>
       <r>    8.9729    0.0000 </r>
       <r>   11.9156    0.0000 </r>
       <r>   11.9156    0.0000 </r>
       <r>   13.1034    0.0000 </r>
       <r>   13.1034    0.0000 </r>
       <r>   13.7824    0.0000 </r>
       <r>   13.7824    0.0000 </r>
       <r>   13.8975    0.0000 </r>
       <r>   13.8975    0.0000 </r>
       <r>   15.0998    0.0000 </r>
       <r>   15.0998    0.0000 </r>
       <r>   15.6227    0.0000 </r>
       <r>   15.6227    0.0000 </r>
       <r>   16.0075    0.0000 </r>
       <r>   16.0075    0.0000 </r>
      </set>
      <set comment="kpoint 6">
       <r>  -15.4161    1.0000 </r>
       <r>  -15.3981    1.0000 </r>
       <r>  -15.3980    1.0000 </r>
       <r>  -15.3940    1.0000 </r>
       <r>  -15.3928    1.0000 </r>
       <r>  -15.3924    1.0000 </r>
       <r>  -15.3919    1.0000 </r>
       <r>  -15.3866    1.0000 </r>
       <r>  -15.3831    1.0000 </r>
       <r>  -15.3802    1.0000 </r>
       <r>  -15.3797    1.0000 </r>
       <r>  -15.3741    1.0000 </r>
       <r>  -15.3644    1.0000 </r>
       <r>  -15.3616    1.0000 </r>
       <r>  -15.3445    1.0000 </r>
       <r>  -15.3368    1.0000 </r>
       <r>  -15.3349    1.0000 </r>
       <r>  -15.3294    1.0000 </r>
       <r>  -15.3154    1.0000 </r>
       <r>  -15.3073    1.0000 </r>
       <r>   -8.1043    1.0000 </r>
       <r>   -7.7013    1.0000 </r>
       <r>   -7.0663    1.0000 </r>
       <r>   -6.4969    1.0000 </r>
       <r>   -1.5752    1.0000 </r>
       <r>   -0.4590    1.0000 </r>
       <r>    0.0081    1.0000 </r>
       <r>    0.4284    1.0000 </r>
       <r>    0.8981    1.0000 </r>
       <r>    2.2273    1.0000 </r>
       <r>    2.5190    1.0000 </r>
       <r>    2.6324    1.0000 </r>
       <r>    2.8945    1.0000 </r>
       <r>    2.9758    1.0000 </r>
       <r>    3.6220    1.0000 </r>
       <r>    3.9546    1.0000 </r>
       <r>    4.2340    1.0000 </r>
       <r>    4.8323    1.0000 </r>
       <r>    5.1563    1.0000 </r>
       <r>    5.2337    1.0000 </r>
       <r>    6.4406    0.0000 </r>
       <r>    8.3077    0.0000 </r>
       <r>    8.8311    0.0000 </r>
       <r>    9.0618    0.0000 </r>
       <r>    9.1820    0.0000 </r>
       <r>    9.3007    0.0000 </r>
       <r>    9.7601    0.0000 </r>
       <r>   10.1701    0.0000 </r>
       <r>   10.2410    0.0000 </r>
       <r>   10.6573    0.0000 </r>
       <r>   11.0915    0.0000 </r>
       <r>   11.3989    0.0000 </r>
       <r>   11.7734    0.0000 </r>
       <r>   11.7861    0.0000 </r>
       <r>   12.2805    0.0000 </r>
       <r>   12.3755    0.0000 </r>
       <r>   12.6018    0.0000 </r>
       <r>   13.9349    0.0000 </r>
       <r>   14.1365    0.0000 </r>
       <r>   14.4897    0.0000 </r>
       <r>   15.1148    0.0000 </r>
       <r>   15.2024    0.0000 </r>
       <r>   15.2617    0.0000 </r>
       <r>   15.4137    0.0000 </r>
      </set>
      <set comment="kpoint 7">
       <r>  -15.4152    1.0000 </r>
       <r>  -15.3982    1.0000 </r>
       <r>  -15.3971    1.0000 </r>
       <r>  -15.3941    1.0000 </r>
       <r>  -15.3939    1.0000 </r>
       <r>  -15.3921    1.0000 </r>
       <r>  -15.3918    1.0000 </r>
       <r>  -15.3871    1.0000 </r>
       <r>  -15.3833    1.0000 </r>
       <r>  -15.3822    1.0000 </r>
       <r>  -15.3777    1.0000 </r>
       <r>  -15.3724    1.0000 </r>
       <r>  -15.3638    1.0000 </r>
       <r>  -15.3614    1.0000 </r>
       <r>  -15.3447    1.0000 </r>
       <r>  -15.3363    1.0000 </r>
       <r>  -15.3356    1.0000 </r>
       <r>  -15.3297    1.0000 </r>
       <r>  -15.3150    1.0000 </r>
       <r>  -15.3076    1.0000 </r>
       <r>   -8.0310    1.0000 </r>
       <r>   -7.6351    1.0000 </r>
       <r>   -7.0436    1.0000 </r>
       <r>   -6.5038    1.0000 </r>
       <r>   -1.7934    1.0000 </r>
       <r>   -0.5496    1.0000 </r>
       <r>   -0.2831    1.0000 </r>
       <r>    0.2878    1.0000 </r>
       <r>    0.8131    1.0000 </r>
       <r>    2.0055    1.0000 </r>
       <r>    2.1731    1.0000 </r>
       <r>    3.1763    1.0000 </r>
       <r>    3.2139    1.0000 </r>
       <r>    3.3445    1.0000 </r>
       <r>    3.4163    1.0000 </r>
       <r>    4.0479    1.0000 </r>
       <r>    4.5020    1.0000 </r>
       <r>    4.9966    1.0000 </r>
       <r>    5.2326    1.0000 </r>
       <r>    5.3138    1.0000 </r>
       <r>    6.4705    0.0000 </r>
       <r>    7.8039    0.0000 </r>
       <r>    8.4170    0.0000 </r>
       <r>    8.7301    0.0000 </r>
       <r>    8.9872    0.0000 </r>
       <r>    9.2892    0.0000 </r>
       <r>    9.5944    0.0000 </r>
       <r>    9.9715    0.0000 </r>
       <r>   10.2607    0.0000 </r>
       <r>   10.8812    0.0000 </r>
       <r>   10.9911    0.0000 </r>
       <r>   11.3337    0.0000 </r>
       <r>   11.5782    0.0000 </r>
       <r>   12.1108    0.0000 </r>
       <r>   12.3376    0.0000 </r>
       <r>   12.7119    0.0000 </r>
       <r>   12.9394    0.0000 </r>
       <r>   13.9741    0.0000 </r>
       <r>   14.1996    0.0000 </r>
       <r>   14.5127    0.0000 </r>
       <r>   14.8214    0.0000 </r>
       <r>   15.0155    0.0000 </r>
       <r>   15.2402    0.0000 </r>
       <r>   15.5509    0.0000 </r>
      </set>
      <set comment="kpoint 8">
       <r>  -15.4126    1.0000 </r>
       <r>  -15.3991    1.0000 </r>
       <r>  -15.3969    1.0000 </r>
       <r>  -15.3964    1.0000 </r>
       <r>  -15.3948    1.0000 </r>
       <r>  -15.3908    1.0000 </r>
       <r>  -15.3905    1.0000 </r>
       <r>  -15.3882    1.0000 </r>
       <r>  -15.3843    1.0000 </r>
       <r>  -15.3839    1.0000 </r>
       <r>  -15.3747    1.0000 </r>
       <r>  -15.3678    1.0000 </r>
       <r>  -15.3638    1.0000 </r>
       <r>  -15.3600    1.0000 </r>
       <r>  -15.3445    1.0000 </r>
       <r>  -15.3371    1.0000 </r>
       <r>  -15.3351    1.0000 </r>
       <r>  -15.3305    1.0000 </r>
       <r>  -15.3141    1.0000 </r>
       <r>  -15.3084    1.0000 </r>
       <r>   -7.8244    1.0000 </r>
       <r>   -7.4486    1.0000 </r>
       <r>   -7.0086    1.0000 </r>
       <r>   -6.5458    1.0000 </r>
       <r>   -2.2292    1.0000 </r>
       <r>   -1.0881    1.0000 </r>
       <r>   -0.7967    1.0000 </r>
       <r>   -0.0556    1.0000 </r>
       <r>    0.9559    1.0000 </r>
       <r>    1.9959    1.0000 </r>
       <r>    2.1636    1.0000 </r>
       <r>    3.1969    1.0000 </r>
       <r>    3.5669    1.0000 </r>
       <r>    3.6341    1.0000 </r>
       <r>    4.0187    1.0000 </r>
       <r>    4.0781    1.0000 </r>
       <r>    4.8311    1.0000 </r>
       <r>    5.1052    1.0000 </r>
       <r>    5.3427    1.0000 </r>
       <r>    5.5398    1.0000 </r>
       <r>    6.7859    0.0000 </r>
       <r>    7.2791    0.0000 </r>
       <r>    7.5165    0.0000 </r>
       <r>    7.6795    0.0000 </r>
       <r>    8.8680    0.0000 </r>
       <r>    8.9556    0.0000 </r>
       <r>    9.2959    0.0000 </r>
       <r>    9.8374    0.0000 </r>
       <r>   10.3731    0.0000 </r>
       <r>   10.5870    0.0000 </r>
       <r>   10.9430    0.0000 </r>
       <r>   11.4078    0.0000 </r>
       <r>   11.7746    0.0000 </r>
       <r>   11.9617    0.0000 </r>
       <r>   12.7763    0.0000 </r>
       <r>   13.0569    0.0000 </r>
       <r>   13.5387    0.0000 </r>
       <r>   13.9946    0.0000 </r>
       <r>   14.0071    0.0000 </r>
       <r>   14.4060    0.0000 </r>
       <r>   14.8032    0.0000 </r>
       <r>   15.5586    0.0000 </r>
       <r>   15.7418    0.0000 </r>
       <r>   16.2223    0.0000 </r>
      </set>
      <set comment="kpoint 9">
       <r>  -15.4091    1.0000 </r>
       <r>  -15.4020    1.0000 </r>
       <r>  -15.3987    1.0000 </r>
       <r>  -15.3984    1.0000 </r>
       <r>  -15.3939    1.0000 </r>
       <r>  -15.3917    1.0000 </r>
       <r>  -15.3890    1.0000 </r>
       <r>  -15.3879    1.0000 </r>
       <r>  -15.3855    1.0000 </r>
       <r>  -15.3845    1.0000 </r>
       <r>  -15.3709    1.0000 </r>
       <r>  -15.3649    1.0000 </r>
       <r>  -15.3631    1.0000 </r>
       <r>  -15.3589    1.0000 </r>
       <r>  -15.3430    1.0000 </r>
       <r>  -15.3388    1.0000 </r>
       <r>  -15.3337    1.0000 </r>
       <r>  -15.3314    1.0000 </r>
       <r>  -15.3127    1.0000 </r>
       <r>  -15.3097    1.0000 </r>
       <r>   -7.5300    1.0000 </r>
       <r>   -7.1798    1.0000 </r>
       <r>   -7.0486    1.0000 </r>
       <r>   -6.6691    1.0000 </r>
       <r>   -2.5112    1.0000 </r>
       <r>   -1.8849    1.0000 </r>
       <r>   -0.9847    1.0000 </r>
       <r>   -0.5449    1.0000 </r>
       <r>    1.3927    1.0000 </r>
       <r>    2.2220    1.0000 </r>
       <r>    2.4309    1.0000 </r>
       <r>    3.2931    1.0000 </r>
       <r>    3.3849    1.0000 </r>
       <r>    3.6379    1.0000 </r>
       <r>    4.1268    1.0000 </r>
       <r>    4.4508    1.0000 </r>
       <r>    4.9997    1.0000 </r>
       <r>    5.1275    1.0000 </r>
       <r>    5.4262    1.0000 </r>
       <r>    5.5053    1.0000 </r>
       <r>    6.9267    0.0000 </r>
       <r>    7.0849    0.0000 </r>
       <r>    7.1755    0.0000 </r>
       <r>    7.4858    0.0000 </r>
       <r>    8.3609    0.0000 </r>
       <r>    8.4787    0.0000 </r>
       <r>    8.7848    0.0000 </r>
       <r>    9.4814    0.0000 </r>
       <r>    9.9429    0.0000 </r>
       <r>   10.2611    0.0000 </r>
       <r>   11.3616    0.0000 </r>
       <r>   11.6313    0.0000 </r>
       <r>   11.9679    0.0000 </r>
       <r>   12.7421    0.0000 </r>
       <r>   12.8767    0.0000 </r>
       <r>   13.2075    0.0000 </r>
       <r>   14.0467    0.0000 </r>
       <r>   14.3585    0.0000 </r>
       <r>   14.3911    0.0000 </r>
       <r>   14.8428    0.0000 </r>
       <r>   15.3245    0.0000 </r>
       <r>   15.6848    0.0000 </r>
       <r>   16.7786    0.0000 </r>
       <r>   16.8892    0.0000 </r>
      </set>
      <set comment="kpoint 10">
       <r>  -15.4055    1.0000 </r>
       <r>  -15.4055    1.0000 </r>
       <r>  -15.3993    1.0000 </r>
       <r>  -15.3993    1.0000 </r>
       <r>  -15.3931    1.0000 </r>
       <r>  -15.3931    1.0000 </r>
       <r>  -15.3883    1.0000 </r>
       <r>  -15.3883    1.0000 </r>
       <r>  -15.3851    1.0000 </r>
       <r>  -15.3851    1.0000 </r>
       <r>  -15.3673    1.0000 </r>
       <r>  -15.3673    1.0000 </r>
       <r>  -15.3599    1.0000 </r>
       <r>  -15.3599    1.0000 </r>
       <r>  -15.3408    1.0000 </r>
       <r>  -15.3408    1.0000 </r>
       <r>  -15.3324    1.0000 </r>
       <r>  -15.3324    1.0000 </r>
       <r>  -15.3112    1.0000 </r>
       <r>  -15.3112    1.0000 </r>
       <r>   -7.2353    1.0000 </r>
       <r>   -7.2353    1.0000 </r>
       <r>   -6.8944    1.0000 </r>
       <r>   -6.8944    1.0000 </r>
       <r>   -2.4035    1.0000 </r>
       <r>   -2.4035    1.0000 </r>
       <r>   -0.9056    1.0000 </r>
       <r>   -0.9056    1.0000 </r>
       <r>    1.9425    1.0000 </r>
       <r>    1.9425    1.0000 </r>
       <r>    2.9879    1.0000 </r>
       <r>    2.9879    1.0000 </r>
       <r>    3.4111    1.0000 </r>
       <r>    3.4111    1.0000 </r>
       <r>    4.2917    1.0000 </r>
       <r>    4.2917    1.0000 </r>
       <r>    5.2339    1.0000 </r>
       <r>    5.2339    1.0000 </r>
       <r>    5.3945    1.0000 </r>
       <r>    5.3945    1.0000 </r>
       <r>    6.8747    0.0000 </r>
       <r>    6.8747    0.0000 </r>
       <r>    7.3072    0.0000 </r>
       <r>    7.3072    0.0000 </r>
       <r>    8.5186    0.0000 </r>
       <r>    8.5186    0.0000 </r>
       <r>    8.8604    0.0000 </r>
       <r>    8.8604    0.0000 </r>
       <r>    9.6884    0.0000 </r>
       <r>    9.6884    0.0000 </r>
       <r>   11.7584    0.0000 </r>
       <r>   11.7584    0.0000 </r>
       <r>   12.2157    0.0000 </r>
       <r>   12.2157    0.0000 </r>
       <r>   13.7459    0.0000 </r>
       <r>   13.7459    0.0000 </r>
       <r>   14.5045    0.0000 </r>
       <r>   14.5045    0.0000 </r>
       <r>   15.4221    0.0000 </r>
       <r>   15.4221    0.0000 </r>
       <r>   15.7144    0.0000 </r>
       <r>   15.7144    0.0000 </r>
       <r>   16.2076    0.0000 </r>
       <r>   16.2076    0.0000 </r>
      </set>
      <set comment="kpoint 11">
       <r>  -15.4064    1.0000 </r>
       <r>  -15.3983    1.0000 </r>
       <r>  -15.3958    1.0000 </r>
       <r>  -15.3946    1.0000 </r>
       <r>  -15.3944    1.0000 </r>
       <r>  -15.3943    1.0000 </r>
       <r>  -15.3897    1.0000 </r>
       <r>  -15.3886    1.0000 </r>
       <r>  -15.3857    1.0000 </r>
       <r>  -15.3851    1.0000 </r>
       <r>  -15.3763    1.0000 </r>
       <r>  -15.3692    1.0000 </r>
       <r>  -15.3626    1.0000 </r>
       <r>  -15.3602    1.0000 </r>
       <r>  -15.3403    1.0000 </r>
       <r>  -15.3390    1.0000 </r>
       <r>  -15.3339    1.0000 </r>
       <r>  -15.3318    1.0000 </r>
       <r>  -15.3163    1.0000 </r>
       <r>  -15.3111    1.0000 </r>
       <r>   -7.8965    1.0000 </r>
       <r>   -7.5303    1.0000 </r>
       <r>   -6.9709    1.0000 </r>
       <r>   -6.5157    1.0000 </r>
       <r>   -1.8610    1.0000 </r>
       <r>   -0.9735    1.0000 </r>
       <r>   -0.4350    1.0000 </r>
       <r>   -0.2042    1.0000 </r>
       <r>    0.8922    1.0000 </r>
       <r>    2.4069    1.0000 </r>
       <r>    2.7484    1.0000 </r>
       <r>    2.9224    1.0000 </r>
       <r>    2.9748    1.0000 </r>
       <r>    3.1999    1.0000 </r>
       <r>    3.9403    1.0000 </r>
       <r>    4.0838    1.0000 </r>
       <r>    4.3028    1.0000 </r>
       <r>    5.0432    1.0000 </r>
       <r>    5.1767    1.0000 </r>
       <r>    5.4430    1.0000 </r>
       <r>    6.7162    0.0000 </r>
       <r>    7.0555    0.0000 </r>
       <r>    8.4018    0.0000 </r>
       <r>    8.5090    0.0000 </r>
       <r>    8.6111    0.0000 </r>
       <r>    9.1709    0.0000 </r>
       <r>    9.2971    0.0000 </r>
       <r>    9.7470    0.0000 </r>
       <r>   10.4318    0.0000 </r>
       <r>   10.6122    0.0000 </r>
       <r>   10.7102    0.0000 </r>
       <r>   10.8714    0.0000 </r>
       <r>   11.4690    0.0000 </r>
       <r>   11.5060    0.0000 </r>
       <r>   12.1553    0.0000 </r>
       <r>   12.6699    0.0000 </r>
       <r>   13.1407    0.0000 </r>
       <r>   13.4844    0.0000 </r>
       <r>   14.7148    0.0000 </r>
       <r>   14.7725    0.0000 </r>
       <r>   15.3772    0.0000 </r>
       <r>   15.3864    0.0000 </r>
       <r>   15.5748    0.0000 </r>
       <r>   16.1287    0.0000 </r>
      </set>
      <set comment="kpoint 12">
       <r>  -15.4071    1.0000 </r>
       <r>  -15.3983    1.0000 </r>
       <r>  -15.3975    1.0000 </r>
       <r>  -15.3951    1.0000 </r>
       <r>  -15.3943    1.0000 </r>
       <r>  -15.3933    1.0000 </r>
       <r>  -15.3891    1.0000 </r>
       <r>  -15.3888    1.0000 </r>
       <r>  -15.3860    1.0000 </r>
       <r>  -15.3860    1.0000 </r>
       <r>  -15.3751    1.0000 </r>
       <r>  -15.3675    1.0000 </r>
       <r>  -15.3633    1.0000 </r>
       <r>  -15.3589    1.0000 </r>
       <r>  -15.3406    1.0000 </r>
       <r>  -15.3383    1.0000 </r>
       <r>  -15.3340    1.0000 </r>
       <r>  -15.3324    1.0000 </r>
       <r>  -15.3161    1.0000 </r>
       <r>  -15.3113    1.0000 </r>
       <r>   -7.8263    1.0000 </r>
       <r>   -7.4679    1.0000 </r>
       <r>   -6.9481    1.0000 </r>
       <r>   -6.5154    1.0000 </r>
       <r>   -1.9355    1.0000 </r>
       <r>   -0.9292    1.0000 </r>
       <r>   -0.5414    1.0000 </r>
       <r>   -0.2903    1.0000 </r>
       <r>    0.9557    1.0000 </r>
       <r>    1.7330    1.0000 </r>
       <r>    2.0584    1.0000 </r>
       <r>    2.9252    1.0000 </r>
       <r>    3.3680    1.0000 </r>
       <r>    3.6117    1.0000 </r>
       <r>    3.7034    1.0000 </r>
       <r>    4.0806    1.0000 </r>
       <r>    4.7691    1.0000 </r>
       <r>    5.0752    1.0000 </r>
       <r>    5.2292    1.0000 </r>
       <r>    5.4606    1.0000 </r>
       <r>    6.7565    0.0000 </r>
       <r>    7.1350    0.0000 </r>
       <r>    7.6693    0.0000 </r>
       <r>    7.8116    0.0000 </r>
       <r>    8.9382    0.0000 </r>
       <r>    9.0335    0.0000 </r>
       <r>    9.6434    0.0000 </r>
       <r>    9.9014    0.0000 </r>
       <r>   10.4830    0.0000 </r>
       <r>   10.5676    0.0000 </r>
       <r>   10.7291    0.0000 </r>
       <r>   11.4071    0.0000 </r>
       <r>   11.4360    0.0000 </r>
       <r>   12.4393    0.0000 </r>
       <r>   12.4596    0.0000 </r>
       <r>   12.9277    0.0000 </r>
       <r>   13.3336    0.0000 </r>
       <r>   13.8730    0.0000 </r>
       <r>   13.9717    0.0000 </r>
       <r>   14.3703    0.0000 </r>
       <r>   14.7689    0.0000 </r>
       <r>   15.5246    0.0000 </r>
       <r>   15.7000    0.0000 </r>
       <r>   15.9636    0.0000 </r>
      </set>
      <set comment="kpoint 13">
       <r>  -15.4088    1.0000 </r>
       <r>  -15.4018    1.0000 </r>
       <r>  -15.3979    1.0000 </r>
       <r>  -15.3967    1.0000 </r>
       <r>  -15.3945    1.0000 </r>
       <r>  -15.3925    1.0000 </r>
       <r>  -15.3901    1.0000 </r>
       <r>  -15.3878    1.0000 </r>
       <r>  -15.3860    1.0000 </r>
       <r>  -15.3858    1.0000 </r>
       <r>  -15.3724    1.0000 </r>
       <r>  -15.3638    1.0000 </r>
       <r>  -15.3634    1.0000 </r>
       <r>  -15.3568    1.0000 </r>
       <r>  -15.3404    1.0000 </r>
       <r>  -15.3371    1.0000 </r>
       <r>  -15.3342    1.0000 </r>
       <r>  -15.3336    1.0000 </r>
       <r>  -15.3154    1.0000 </r>
       <r>  -15.3117    1.0000 </r>
       <r>   -7.6306    1.0000 </r>
       <r>   -7.2940    1.0000 </r>
       <r>   -6.9097    1.0000 </r>
       <r>   -6.5349    1.0000 </r>
       <r>   -2.1247    1.0000 </r>
       <r>   -1.0423    1.0000 </r>
       <r>   -0.8567    1.0000 </r>
       <r>   -0.3790    1.0000 </r>
       <r>    1.1893    1.0000 </r>
       <r>    1.3012    1.0000 </r>
       <r>    1.5656    1.0000 </r>
       <r>    2.7002    1.0000 </r>
       <r>    2.8119    1.0000 </r>
       <r>    3.7930    1.0000 </r>
       <r>    3.9181    1.0000 </r>
       <r>    4.2929    1.0000 </r>
       <r>    4.6948    1.0000 </r>
       <r>    4.9418    1.0000 </r>
       <r>    5.0445    1.0000 </r>
       <r>    5.3070    1.0000 </r>
       <r>    6.7338    0.0000 </r>
       <r>    7.1929    0.0000 </r>
       <r>    7.8411    0.0000 </r>
       <r>    8.2830    0.0000 </r>
       <r>    8.5226    0.0000 </r>
       <r>    8.9606    0.0000 </r>
       <r>    9.3073    0.0000 </r>
       <r>   10.3246    0.0000 </r>
       <r>   10.8388    0.0000 </r>
       <r>   10.9591    0.0000 </r>
       <r>   11.0136    0.0000 </r>
       <r>   11.4401    0.0000 </r>
       <r>   11.6882    0.0000 </r>
       <r>   12.7310    0.0000 </r>
       <r>   12.9863    0.0000 </r>
       <r>   13.2475    0.0000 </r>
       <r>   13.8093    0.0000 </r>
       <r>   13.9150    0.0000 </r>
       <r>   14.1805    0.0000 </r>
       <r>   14.7099    0.0000 </r>
       <r>   15.1750    0.0000 </r>
       <r>   15.3699    0.0000 </r>
       <r>   16.0591    0.0000 </r>
       <r>   16.1503    0.0000 </r>
      </set>
      <set comment="kpoint 14">
       <r>  -15.4103    1.0000 </r>
       <r>  -15.4066    1.0000 </r>
       <r>  -15.3987    1.0000 </r>
       <r>  -15.3983    1.0000 </r>
       <r>  -15.3948    1.0000 </r>
       <r>  -15.3920    1.0000 </r>
       <r>  -15.3914    1.0000 </r>
       <r>  -15.3893    1.0000 </r>
       <r>  -15.3841    1.0000 </r>
       <r>  -15.3839    1.0000 </r>
       <r>  -15.3692    1.0000 </r>
       <r>  -15.3645    1.0000 </r>
       <r>  -15.3590    1.0000 </r>
       <r>  -15.3556    1.0000 </r>
       <r>  -15.3390    1.0000 </r>
       <r>  -15.3358    1.0000 </r>
       <r>  -15.3353    1.0000 </r>
       <r>  -15.3342    1.0000 </r>
       <r>  -15.3144    1.0000 </r>
       <r>  -15.3124    1.0000 </r>
       <r>   -7.3575    1.0000 </r>
       <r>   -7.0498    1.0000 </r>
       <r>   -6.9355    1.0000 </r>
       <r>   -6.6208    1.0000 </r>
       <r>   -2.2622    1.0000 </r>
       <r>   -1.6749    1.0000 </r>
       <r>   -0.8315    1.0000 </r>
       <r>   -0.5545    1.0000 </r>
       <r>    1.3660    1.0000 </r>
       <r>    1.5568    1.0000 </r>
       <r>    1.5915    1.0000 </r>
       <r>    2.5127    1.0000 </r>
       <r>    2.6264    1.0000 </r>
       <r>    3.3012    1.0000 </r>
       <r>    3.4403    1.0000 </r>
       <r>    4.0772    1.0000 </r>
       <r>    4.3442    1.0000 </r>
       <r>    4.8196    1.0000 </r>
       <r>    4.8245    1.0000 </r>
       <r>    5.3046    1.0000 </r>
       <r>    6.5240    0.0000 </r>
       <r>    7.7971    0.0000 </r>
       <r>    7.9237    0.0000 </r>
       <r>    8.8407    0.0000 </r>
       <r>    9.0088    0.0000 </r>
       <r>    9.3102    0.0000 </r>
       <r>    9.5340    0.0000 </r>
       <r>   10.4876    0.0000 </r>
       <r>   10.6338    0.0000 </r>
       <r>   11.0062    0.0000 </r>
       <r>   11.1115    0.0000 </r>
       <r>   11.5408    0.0000 </r>
       <r>   11.6001    0.0000 </r>
       <r>   11.8946    0.0000 </r>
       <r>   12.9409    0.0000 </r>
       <r>   13.7400    0.0000 </r>
       <r>   14.0203    0.0000 </r>
       <r>   14.5348    0.0000 </r>
       <r>   15.0436    0.0000 </r>
       <r>   15.6938    0.0000 </r>
       <r>   15.8524    0.0000 </r>
       <r>   16.2554    0.0000 </r>
       <r>   16.4086    0.0000 </r>
       <r>   16.8638    0.0000 </r>
      </set>
      <set comment="kpoint 15">
       <r>  -15.4098    1.0000 </r>
       <r>  -15.4098    1.0000 </r>
       <r>  -15.3994    1.0000 </r>
       <r>  -15.3994    1.0000 </r>
       <r>  -15.3932    1.0000 </r>
       <r>  -15.3932    1.0000 </r>
       <r>  -15.3909    1.0000 </r>
       <r>  -15.3909    1.0000 </r>
       <r>  -15.3831    1.0000 </r>
       <r>  -15.3831    1.0000 </r>
       <r>  -15.3663    1.0000 </r>
       <r>  -15.3663    1.0000 </r>
       <r>  -15.3562    1.0000 </r>
       <r>  -15.3562    1.0000 </r>
       <r>  -15.3370    1.0000 </r>
       <r>  -15.3370    1.0000 </r>
       <r>  -15.3347    1.0000 </r>
       <r>  -15.3347    1.0000 </r>
       <r>  -15.3133    1.0000 </r>
       <r>  -15.3133    1.0000 </r>
       <r>   -7.0935    1.0000 </r>
       <r>   -7.0935    1.0000 </r>
       <r>   -6.8020    1.0000 </r>
       <r>   -6.8020    1.0000 </r>
       <r>   -2.1299    1.0000 </r>
       <r>   -2.1299    1.0000 </r>
       <r>   -0.7506    1.0000 </r>
       <r>   -0.7506    1.0000 </r>
       <r>    1.6982    1.0000 </r>
       <r>    1.6982    1.0000 </r>
       <r>    1.9804    1.0000 </r>
       <r>    1.9804    1.0000 </r>
       <r>    2.7636    1.0000 </r>
       <r>    2.7636    1.0000 </r>
       <r>    3.5018    1.0000 </r>
       <r>    3.5018    1.0000 </r>
       <r>    4.5136    1.0000 </r>
       <r>    4.5136    1.0000 </r>
       <r>    5.0080    1.0000 </r>
       <r>    5.0080    1.0000 </r>
       <r>    7.0608    0.0000 </r>
       <r>    7.0608    0.0000 </r>
       <r>    8.6223    0.0000 </r>
       <r>    8.6223    0.0000 </r>
       <r>    9.6268    0.0000 </r>
       <r>    9.6268    0.0000 </r>
       <r>   10.1823    0.0000 </r>
       <r>   10.1823    0.0000 </r>
       <r>   10.5584    0.0000 </r>
       <r>   10.5584    0.0000 </r>
       <r>   11.2315    0.0000 </r>
       <r>   11.2315    0.0000 </r>
       <r>   11.6383    0.0000 </r>
       <r>   11.6383    0.0000 </r>
       <r>   13.2181    0.0000 </r>
       <r>   13.2181    0.0000 </r>
       <r>   15.2701    0.0000 </r>
       <r>   15.2701    0.0000 </r>
       <r>   15.7396    0.0000 </r>
       <r>   15.7396    0.0000 </r>
       <r>   16.0932    0.0000 </r>
       <r>   16.0932    0.0000 </r>
       <r>   17.0436    0.0000 </r>
       <r>   17.0436    0.0000 </r>
      </set>
      <set comment="kpoint 16">
       <r>  -15.4032    1.0000 </r>
       <r>  -15.3997    1.0000 </r>
       <r>  -15.3989    1.0000 </r>
       <r>  -15.3963    1.0000 </r>
       <r>  -15.3925    1.0000 </r>
       <r>  -15.3913    1.0000 </r>
       <r>  -15.3896    1.0000 </r>
       <r>  -15.3896    1.0000 </r>
       <r>  -15.3875    1.0000 </r>
       <r>  -15.3797    1.0000 </r>
       <r>  -15.3737    1.0000 </r>
       <r>  -15.3656    1.0000 </r>
       <r>  -15.3628    1.0000 </r>
       <r>  -15.3558    1.0000 </r>
       <r>  -15.3427    1.0000 </r>
       <r>  -15.3411    1.0000 </r>
       <r>  -15.3344    1.0000 </r>
       <r>  -15.3276    1.0000 </r>
       <r>  -15.3173    1.0000 </r>
       <r>  -15.3158    1.0000 </r>
       <r>   -7.5793    1.0000 </r>
       <r>   -7.2870    1.0000 </r>
       <r>   -6.8823    1.0000 </r>
       <r>   -6.6184    1.0000 </r>
       <r>   -2.1473    1.0000 </r>
       <r>   -1.3777    1.0000 </r>
       <r>   -1.2872    1.0000 </r>
       <r>   -0.7088    1.0000 </r>
       <r>    1.2287    1.0000 </r>
       <r>    2.7102    1.0000 </r>
       <r>    2.9657    1.0000 </r>
       <r>    3.1432    1.0000 </r>
       <r>    3.2461    1.0000 </r>
       <r>    3.4944    1.0000 </r>
       <r>    4.1061    1.0000 </r>
       <r>    4.2264    1.0000 </r>
       <r>    4.5770    1.0000 </r>
       <r>    4.9741    1.0000 </r>
       <r>    5.1166    1.0000 </r>
       <r>    5.7423    1.0000 </r>
       <r>    6.3152    0.0000 </r>
       <r>    7.0820    0.0000 </r>
       <r>    7.5267    0.0000 </r>
       <r>    7.6250    0.0000 </r>
       <r>    7.8430    0.0000 </r>
       <r>    8.3576    0.0000 </r>
       <r>    8.4324    0.0000 </r>
       <r>    9.2769    0.0000 </r>
       <r>    9.6930    0.0000 </r>
       <r>    9.8992    0.0000 </r>
       <r>   10.7338    0.0000 </r>
       <r>   11.1013    0.0000 </r>
       <r>   12.1165    0.0000 </r>
       <r>   12.6885    0.0000 </r>
       <r>   12.8296    0.0000 </r>
       <r>   13.1274    0.0000 </r>
       <r>   14.0014    0.0000 </r>
       <r>   14.0974    0.0000 </r>
       <r>   14.1478    0.0000 </r>
       <r>   14.6544    0.0000 </r>
       <r>   15.3751    0.0000 </r>
       <r>   15.4800    0.0000 </r>
       <r>   15.8796    0.0000 </r>
       <r>   16.4939    0.0000 </r>
      </set>
      <set comment="kpoint 17">
       <r>  -15.4064    1.0000 </r>
       <r>  -15.4025    1.0000 </r>
       <r>  -15.3993    1.0000 </r>
       <r>  -15.3974    1.0000 </r>
       <r>  -15.3925    1.0000 </r>
       <r>  -15.3904    1.0000 </r>
       <r>  -15.3898    1.0000 </r>
       <r>  -15.3876    1.0000 </r>
       <r>  -15.3866    1.0000 </r>
       <r>  -15.3799    1.0000 </r>
       <r>  -15.3731    1.0000 </r>
       <r>  -15.3657    1.0000 </r>
       <r>  -15.3614    1.0000 </r>
       <r>  -15.3549    1.0000 </r>
       <r>  -15.3422    1.0000 </r>
       <r>  -15.3406    1.0000 </r>
       <r>  -15.3345    1.0000 </r>
       <r>  -15.3281    1.0000 </r>
       <r>  -15.3172    1.0000 </r>
       <r>  -15.3158    1.0000 </r>
       <r>   -7.5160    1.0000 </r>
       <r>   -7.2320    1.0000 </r>
       <r>   -6.8572    1.0000 </r>
       <r>   -6.6042    1.0000 </r>
       <r>   -2.1046    1.0000 </r>
       <r>   -1.2849    1.0000 </r>
       <r>   -1.2266    1.0000 </r>
       <r>   -0.7457    1.0000 </r>
       <r>    1.3167    1.0000 </r>
       <r>    1.8235    1.0000 </r>
       <r>    2.2174    1.0000 </r>
       <r>    2.9605    1.0000 </r>
       <r>    3.4358    1.0000 </r>
       <r>    3.4987    1.0000 </r>
       <r>    4.0463    1.0000 </r>
       <r>    4.0611    1.0000 </r>
       <r>    4.6523    1.0000 </r>
       <r>    5.0318    1.0000 </r>
       <r>    5.1261    1.0000 </r>
       <r>    5.2296    1.0000 </r>
       <r>    6.8971    0.0000 </r>
       <r>    6.9910    0.0000 </r>
       <r>    7.0799    0.0000 </r>
       <r>    7.4346    0.0000 </r>
       <r>    8.4830    0.0000 </r>
       <r>    8.8463    0.0000 </r>
       <r>    9.0823    0.0000 </r>
       <r>    9.4077    0.0000 </r>
       <r>   10.1422    0.0000 </r>
       <r>   10.5735    0.0000 </r>
       <r>   10.8602    0.0000 </r>
       <r>   10.9890    0.0000 </r>
       <r>   11.7136    0.0000 </r>
       <r>   12.9067    0.0000 </r>
       <r>   13.0049    0.0000 </r>
       <r>   13.1744    0.0000 </r>
       <r>   13.8127    0.0000 </r>
       <r>   14.1399    0.0000 </r>
       <r>   14.2749    0.0000 </r>
       <r>   14.7334    0.0000 </r>
       <r>   15.3038    0.0000 </r>
       <r>   16.0209    0.0000 </r>
       <r>   16.4359    0.0000 </r>
       <r>   16.5692    0.0000 </r>
      </set>
      <set comment="kpoint 18">
       <r>  -15.4120    1.0000 </r>
       <r>  -15.4082    1.0000 </r>
       <r>  -15.4021    1.0000 </r>
       <r>  -15.4009    1.0000 </r>
       <r>  -15.3930    1.0000 </r>
       <r>  -15.3900    1.0000 </r>
       <r>  -15.3874    1.0000 </r>
       <r>  -15.3846    1.0000 </r>
       <r>  -15.3845    1.0000 </r>
       <r>  -15.3808    1.0000 </r>
       <r>  -15.3714    1.0000 </r>
       <r>  -15.3656    1.0000 </r>
       <r>  -15.3579    1.0000 </r>
       <r>  -15.3532    1.0000 </r>
       <r>  -15.3407    1.0000 </r>
       <r>  -15.3395    1.0000 </r>
       <r>  -15.3343    1.0000 </r>
       <r>  -15.3293    1.0000 </r>
       <r>  -15.3167    1.0000 </r>
       <r>  -15.3156    1.0000 </r>
       <r>   -7.3430    1.0000 </r>
       <r>   -7.0822    1.0000 </r>
       <r>   -6.8079    1.0000 </r>
       <r>   -6.5818    1.0000 </r>
       <r>   -2.0055    1.0000 </r>
       <r>   -1.1550    1.0000 </r>
       <r>   -1.0332    1.0000 </r>
       <r>   -0.8216    1.0000 </r>
       <r>    1.0347    1.0000 </r>
       <r>    1.4498    1.0000 </r>
       <r>    1.5465    1.0000 </r>
       <r>    2.2851    1.0000 </r>
       <r>    2.5730    1.0000 </r>
       <r>    3.4118    1.0000 </r>
       <r>    3.5013    1.0000 </r>
       <r>    3.9494    1.0000 </r>
       <r>    4.2872    1.0000 </r>
       <r>    4.3662    1.0000 </r>
       <r>    4.7353    1.0000 </r>
       <r>    5.2716    1.0000 </r>
       <r>    6.3984    0.0000 </r>
       <r>    7.8323    0.0000 </r>
       <r>    8.2027    0.0000 </r>
       <r>    8.5358    0.0000 </r>
       <r>    8.8439    0.0000 </r>
       <r>    9.2931    0.0000 </r>
       <r>    9.8010    0.0000 </r>
       <r>   10.2435    0.0000 </r>
       <r>   10.6099    0.0000 </r>
       <r>   10.7578    0.0000 </r>
       <r>   11.3975    0.0000 </r>
       <r>   11.5249    0.0000 </r>
       <r>   11.7575    0.0000 </r>
       <r>   11.8066    0.0000 </r>
       <r>   13.2815    0.0000 </r>
       <r>   14.0090    0.0000 </r>
       <r>   14.0824    0.0000 </r>
       <r>   14.1991    0.0000 </r>
       <r>   14.9116    0.0000 </r>
       <r>   15.2582    0.0000 </r>
       <r>   15.9040    0.0000 </r>
       <r>   15.9340    0.0000 </r>
       <r>   16.1474    0.0000 </r>
       <r>   16.7122    0.0000 </r>
      </set>
      <set comment="kpoint 19">
       <r>  -15.4163    1.0000 </r>
       <r>  -15.4140    1.0000 </r>
       <r>  -15.4054    1.0000 </r>
       <r>  -15.4049    1.0000 </r>
       <r>  -15.3926    1.0000 </r>
       <r>  -15.3906    1.0000 </r>
       <r>  -15.3852    1.0000 </r>
       <r>  -15.3831    1.0000 </r>
       <r>  -15.3820    1.0000 </r>
       <r>  -15.3815    1.0000 </r>
       <r>  -15.3692    1.0000 </r>
       <r>  -15.3659    1.0000 </r>
       <r>  -15.3541    1.0000 </r>
       <r>  -15.3518    1.0000 </r>
       <r>  -15.3390    1.0000 </r>
       <r>  -15.3383    1.0000 </r>
       <r>  -15.3333    1.0000 </r>
       <r>  -15.3305    1.0000 </r>
       <r>  -15.3162    1.0000 </r>
       <r>  -15.3156    1.0000 </r>
       <r>   -7.1119    1.0000 </r>
       <r>   -6.8836    1.0000 </r>
       <r>   -6.8025    1.0000 </r>
       <r>   -6.6006    1.0000 </r>
       <r>   -1.8908    1.0000 </r>
       <r>   -1.3962    1.0000 </r>
       <r>   -0.7446    1.0000 </r>
       <r>   -0.7141    1.0000 </r>
       <r>    0.7346    1.0000 </r>
       <r>    1.1420    1.0000 </r>
       <r>    1.5520    1.0000 </r>
       <r>    1.8508    1.0000 </r>
       <r>    2.1864    1.0000 </r>
       <r>    2.6807    1.0000 </r>
       <r>    2.9332    1.0000 </r>
       <r>    3.4811    1.0000 </r>
       <r>    3.6070    1.0000 </r>
       <r>    4.1086    1.0000 </r>
       <r>    4.6522    1.0000 </r>
       <r>    4.7935    1.0000 </r>
       <r>    6.8285    0.0000 </r>
       <r>    8.4248    0.0000 </r>
       <r>    8.9508    0.0000 </r>
       <r>    9.1820    0.0000 </r>
       <r>    9.9186    0.0000 </r>
       <r>    9.9190    0.0000 </r>
       <r>   10.3544    0.0000 </r>
       <r>   10.6779    0.0000 </r>
       <r>   10.7306    0.0000 </r>
       <r>   10.9564    0.0000 </r>
       <r>   11.5139    0.0000 </r>
       <r>   11.6434    0.0000 </r>
       <r>   11.8474    0.0000 </r>
       <r>   12.1877    0.0000 </r>
       <r>   12.7379    0.0000 </r>
       <r>   13.4391    0.0000 </r>
       <r>   15.1687    0.0000 </r>
       <r>   15.3310    0.0000 </r>
       <r>   15.7485    0.0000 </r>
       <r>   15.8257    0.0000 </r>
       <r>   16.0755    0.0000 </r>
       <r>   16.5581    0.0000 </r>
       <r>   16.8624    0.0000 </r>
       <r>   17.1808    0.0000 </r>
      </set>
      <set comment="kpoint 20">
       <r>  -15.4172    1.0000 </r>
       <r>  -15.4172    1.0000 </r>
       <r>  -15.4067    1.0000 </r>
       <r>  -15.4067    1.0000 </r>
       <r>  -15.3917    1.0000 </r>
       <r>  -15.3917    1.0000 </r>
       <r>  -15.3838    1.0000 </r>
       <r>  -15.3838    1.0000 </r>
       <r>  -15.3811    1.0000 </r>
       <r>  -15.3811    1.0000 </r>
       <r>  -15.3672    1.0000 </r>
       <r>  -15.3672    1.0000 </r>
       <r>  -15.3519    1.0000 </r>
       <r>  -15.3519    1.0000 </r>
       <r>  -15.3381    1.0000 </r>
       <r>  -15.3381    1.0000 </r>
       <r>  -15.3318    1.0000 </r>
       <r>  -15.3318    1.0000 </r>
       <r>  -15.3157    1.0000 </r>
       <r>  -15.3157    1.0000 </r>
       <r>   -6.9061    1.0000 </r>
       <r>   -6.9061    1.0000 </r>
       <r>   -6.7037    1.0000 </r>
       <r>   -6.7037    1.0000 </r>
       <r>   -1.7049    1.0000 </r>
       <r>   -1.7049    1.0000 </r>
       <r>   -0.6348    1.0000 </r>
       <r>   -0.6348    1.0000 </r>
       <r>    0.9932    1.0000 </r>
       <r>    0.9932    1.0000 </r>
       <r>    1.4285    1.0000 </r>
       <r>    1.4285    1.0000 </r>
       <r>    2.2803    1.0000 </r>
       <r>    2.2803    1.0000 </r>
       <r>    2.9944    1.0000 </r>
       <r>    2.9944    1.0000 </r>
       <r>    3.6535    1.0000 </r>
       <r>    3.6535    1.0000 </r>
       <r>    4.6318    1.0000 </r>
       <r>    4.6318    1.0000 </r>
       <r>    7.5952    0.0000 </r>
       <r>    7.5952    0.0000 </r>
       <r>    9.5105    0.0000 </r>
       <r>    9.5105    0.0000 </r>
       <r>   10.3778    0.0000 </r>
       <r>   10.3778    0.0000 </r>
       <r>   10.7516    0.0000 </r>
       <r>   10.7516    0.0000 </r>
       <r>   10.8865    0.0000 </r>
       <r>   10.8865    0.0000 </r>
       <r>   11.7048    0.0000 </r>
       <r>   11.7048    0.0000 </r>
       <r>   11.9957    0.0000 </r>
       <r>   11.9957    0.0000 </r>
       <r>   12.7807    0.0000 </r>
       <r>   12.7807    0.0000 </r>
       <r>   15.8794    0.0000 </r>
       <r>   15.8794    0.0000 </r>
       <r>   16.4495    0.0000 </r>
       <r>   16.4495    0.0000 </r>
       <r>   16.6466    0.0000 </r>
       <r>   16.6466    0.0000 </r>
       <r>   17.3017    0.0000 </r>
       <r>   17.3018    0.0000 </r>
      </set>
      <set comment="kpoint 21">
       <r>  -15.4055    1.0000 </r>
       <r>  -15.4042    1.0000 </r>
       <r>  -15.3999    1.0000 </r>
       <r>  -15.3983    1.0000 </r>
       <r>  -15.3904    1.0000 </r>
       <r>  -15.3904    1.0000 </r>
       <r>  -15.3895    1.0000 </r>
       <r>  -15.3876    1.0000 </r>
       <r>  -15.3810    1.0000 </r>
       <r>  -15.3740    1.0000 </r>
       <r>  -15.3724    1.0000 </r>
       <r>  -15.3715    1.0000 </r>
       <r>  -15.3559    1.0000 </r>
       <r>  -15.3514    1.0000 </r>
       <r>  -15.3488    1.0000 </r>
       <r>  -15.3470    1.0000 </r>
       <r>  -15.3277    1.0000 </r>
       <r>  -15.3230    1.0000 </r>
       <r>  -15.3213    1.0000 </r>
       <r>  -15.3193    1.0000 </r>
       <r>   -7.2052    1.0000 </r>
       <r>   -7.0427    1.0000 </r>
       <r>   -6.8906    1.0000 </r>
       <r>   -6.8565    1.0000 </r>
       <r>   -2.2129    1.0000 </r>
       <r>   -1.9204    1.0000 </r>
       <r>   -1.4620    1.0000 </r>
       <r>   -1.2010    1.0000 </r>
       <r>    1.7706    1.0000 </r>
       <r>    2.3724    1.0000 </r>
       <r>    3.3433    1.0000 </r>
       <r>    3.5545    1.0000 </r>
       <r>    3.6785    1.0000 </r>
       <r>    3.7538    1.0000 </r>
       <r>    3.8209    1.0000 </r>
       <r>    4.3463    1.0000 </r>
       <r>    4.9151    1.0000 </r>
       <r>    4.9413    1.0000 </r>
       <r>    5.0223    1.0000 </r>
       <r>    5.1666    1.0000 </r>
       <r>    6.8101    0.0000 </r>
       <r>    6.9099    0.0000 </r>
       <r>    7.0111    0.0000 </r>
       <r>    7.3705    0.0000 </r>
       <r>    7.4383    0.0000 </r>
       <r>    7.6479    0.0000 </r>
       <r>    8.1943    0.0000 </r>
       <r>    8.5824    0.0000 </r>
       <r>    8.9600    0.0000 </r>
       <r>    9.1405    0.0000 </r>
       <r>   10.9490    0.0000 </r>
       <r>   11.1188    0.0000 </r>
       <r>   12.7647    0.0000 </r>
       <r>   12.9494    0.0000 </r>
       <r>   13.3645    0.0000 </r>
       <r>   13.5834    0.0000 </r>
       <r>   14.4725    0.0000 </r>
       <r>   14.9044    0.0000 </r>
       <r>   15.1275    0.0000 </r>
       <r>   15.6623    0.0000 </r>
       <r>   15.7443    0.0000 </r>
       <r>   16.2482    0.0000 </r>
       <r>   16.5699    0.0000 </r>
       <r>   16.7197    0.0000 </r>
      </set>
      <set comment="kpoint 22">
       <r>  -15.4084    1.0000 </r>
       <r>  -15.4070    1.0000 </r>
       <r>  -15.4013    1.0000 </r>
       <r>  -15.4001    1.0000 </r>
       <r>  -15.3909    1.0000 </r>
       <r>  -15.3903    1.0000 </r>
       <r>  -15.3878    1.0000 </r>
       <r>  -15.3869    1.0000 </r>
       <r>  -15.3799    1.0000 </r>
       <r>  -15.3741    1.0000 </r>
       <r>  -15.3721    1.0000 </r>
       <r>  -15.3710    1.0000 </r>
       <r>  -15.3551    1.0000 </r>
       <r>  -15.3515    1.0000 </r>
       <r>  -15.3472    1.0000 </r>
       <r>  -15.3461    1.0000 </r>
       <r>  -15.3279    1.0000 </r>
       <r>  -15.3240    1.0000 </r>
       <r>  -15.3205    1.0000 </r>
       <r>  -15.3192    1.0000 </r>
       <r>   -7.1543    1.0000 </r>
       <r>   -6.9986    1.0000 </r>
       <r>   -6.8584    1.0000 </r>
       <r>   -6.8233    1.0000 </r>
       <r>   -2.1170    1.0000 </r>
       <r>   -1.8214    1.0000 </r>
       <r>   -1.3771    1.0000 </r>
       <r>   -1.1577    1.0000 </r>
       <r>    1.8101    1.0000 </r>
       <r>    2.1408    1.0000 </r>
       <r>    2.3901    1.0000 </r>
       <r>    2.9431    1.0000 </r>
       <r>    3.2117    1.0000 </r>
       <r>    3.2549    1.0000 </r>
       <r>    4.2368    1.0000 </r>
       <r>    4.3167    1.0000 </r>
       <r>    4.3328    1.0000 </r>
       <r>    4.5764    1.0000 </r>
       <r>    5.1635    1.0000 </r>
       <r>    5.2184    1.0000 </r>
       <r>    6.6283    0.0000 </r>
       <r>    6.6288    0.0000 </r>
       <r>    7.3014    0.0000 </r>
       <r>    7.5887    0.0000 </r>
       <r>    8.4040    0.0000 </r>
       <r>    8.5280    0.0000 </r>
       <r>    8.8451    0.0000 </r>
       <r>    9.2912    0.0000 </r>
       <r>    9.4159    0.0000 </r>
       <r>   10.0493    0.0000 </r>
       <r>   10.7749    0.0000 </r>
       <r>   10.8884    0.0000 </r>
       <r>   11.8473    0.0000 </r>
       <r>   12.1947    0.0000 </r>
       <r>   14.0403    0.0000 </r>
       <r>   14.4205    0.0000 </r>
       <r>   14.6809    0.0000 </r>
       <r>   14.9281    0.0000 </r>
       <r>   15.1799    0.0000 </r>
       <r>   15.3265    0.0000 </r>
       <r>   15.7973    0.0000 </r>
       <r>   16.2195    0.0000 </r>
       <r>   16.4768    0.0000 </r>
       <r>   16.5408    0.0000 </r>
      </set>
      <set comment="kpoint 23">
       <r>  -15.4146    1.0000 </r>
       <r>  -15.4133    1.0000 </r>
       <r>  -15.4054    1.0000 </r>
       <r>  -15.4049    1.0000 </r>
       <r>  -15.3907    1.0000 </r>
       <r>  -15.3897    1.0000 </r>
       <r>  -15.3852    1.0000 </r>
       <r>  -15.3852    1.0000 </r>
       <r>  -15.3778    1.0000 </r>
       <r>  -15.3744    1.0000 </r>
       <r>  -15.3713    1.0000 </r>
       <r>  -15.3700    1.0000 </r>
       <r>  -15.3527    1.0000 </r>
       <r>  -15.3506    1.0000 </r>
       <r>  -15.3441    1.0000 </r>
       <r>  -15.3438    1.0000 </r>
       <r>  -15.3281    1.0000 </r>
       <r>  -15.3253    1.0000 </r>
       <r>  -15.3195    1.0000 </r>
       <r>  -15.3188    1.0000 </r>
       <r>   -7.0204    1.0000 </r>
       <r>   -6.8848    1.0000 </r>
       <r>   -6.7834    1.0000 </r>
       <r>   -6.7437    1.0000 </r>
       <r>   -1.8473    1.0000 </r>
       <r>   -1.5439    1.0000 </r>
       <r>   -1.1459    1.0000 </r>
       <r>   -1.0622    1.0000 </r>
       <r>    1.2373    1.0000 </r>
       <r>    1.7309    1.0000 </r>
       <r>    1.7456    1.0000 </r>
       <r>    1.9915    1.0000 </r>
       <r>    2.4610    1.0000 </r>
       <r>    2.9329    1.0000 </r>
       <r>    3.3370    1.0000 </r>
       <r>    3.5542    1.0000 </r>
       <r>    3.6070    1.0000 </r>
       <r>    4.0771    1.0000 </r>
       <r>    4.8247    1.0000 </r>
       <r>    4.9975    1.0000 </r>
       <r>    6.7405    0.0000 </r>
       <r>    7.4539    0.0000 </r>
       <r>    8.5815    0.0000 </r>
       <r>    8.9167    0.0000 </r>
       <r>    9.5007    0.0000 </r>
       <r>    9.6012    0.0000 </r>
       <r>   10.0116    0.0000 </r>
       <r>   10.2296    0.0000 </r>
       <r>   10.3247    0.0000 </r>
       <r>   10.6048    0.0000 </r>
       <r>   10.7890    0.0000 </r>
       <r>   11.4343    0.0000 </r>
       <r>   11.4931    0.0000 </r>
       <r>   11.5563    0.0000 </r>
       <r>   13.3732    0.0000 </r>
       <r>   13.6447    0.0000 </r>
       <r>   15.2084    0.0000 </r>
       <r>   15.4315    0.0000 </r>
       <r>   15.6495    0.0000 </r>
       <r>   16.2845    0.0000 </r>
       <r>   16.3902    0.0000 </r>
       <r>   16.6838    0.0000 </r>
       <r>   16.9430    0.0000 </r>
       <r>   17.1660    0.0000 </r>
      </set>
      <set comment="kpoint 24">
       <r>  -15.4202    1.0000 </r>
       <r>  -15.4193    1.0000 </r>
       <r>  -15.4098    1.0000 </r>
       <r>  -15.4095    1.0000 </r>
       <r>  -15.3906    1.0000 </r>
       <r>  -15.3898    1.0000 </r>
       <r>  -15.3836    1.0000 </r>
       <r>  -15.3832    1.0000 </r>
       <r>  -15.3762    1.0000 </r>
       <r>  -15.3748    1.0000 </r>
       <r>  -15.3705    1.0000 </r>
       <r>  -15.3695    1.0000 </r>
       <r>  -15.3499    1.0000 </r>
       <r>  -15.3490    1.0000 </r>
       <r>  -15.3415    1.0000 </r>
       <r>  -15.3414    1.0000 </r>
       <r>  -15.3277    1.0000 </r>
       <r>  -15.3262    1.0000 </r>
       <r>  -15.3188    1.0000 </r>
       <r>  -15.3185    1.0000 </r>
       <r>   -6.8581    1.0000 </r>
       <r>   -6.7524    1.0000 </r>
       <r>   -6.7232    1.0000 </r>
       <r>   -6.6718    1.0000 </r>
       <r>   -1.4836    1.0000 </r>
       <r>   -1.2132    1.0000 </r>
       <r>   -0.9582    1.0000 </r>
       <r>   -0.8642    1.0000 </r>
       <r>    0.6196    1.0000 </r>
       <r>    1.0071    1.0000 </r>
       <r>    1.2673    1.0000 </r>
       <r>    1.5573    1.0000 </r>
       <r>    2.0459    1.0000 </r>
       <r>    2.2135    1.0000 </r>
       <r>    2.7165    1.0000 </r>
       <r>    3.1540    1.0000 </r>
       <r>    3.3051    1.0000 </r>
       <r>    3.4375    1.0000 </r>
       <r>    4.5078    1.0000 </r>
       <r>    4.5586    1.0000 </r>
       <r>    7.5050    0.0000 </r>
       <r>    8.2652    0.0000 </r>
       <r>    9.0515    0.0000 </r>
       <r>    9.3807    0.0000 </r>
       <r>   10.2475    0.0000 </r>
       <r>   10.3020    0.0000 </r>
       <r>   10.4237    0.0000 </r>
       <r>   10.8208    0.0000 </r>
       <r>   10.8273    0.0000 </r>
       <r>   11.3386    0.0000 </r>
       <r>   11.8044    0.0000 </r>
       <r>   11.9255    0.0000 </r>
       <r>   12.0724    0.0000 </r>
       <r>   12.4250    0.0000 </r>
       <r>   12.8073    0.0000 </r>
       <r>   13.0853    0.0000 </r>
       <r>   15.5907    0.0000 </r>
       <r>   15.7586    0.0000 </r>
       <r>   16.6796    0.0000 </r>
       <r>   16.7573    0.0000 </r>
       <r>   16.9860    0.0000 </r>
       <r>   17.1373    0.0000 </r>
       <r>   17.5913    0.0000 </r>
       <r>   17.6310    0.0000 </r>
      </set>
      <set comment="kpoint 25">
       <r>  -15.4221    1.0000 </r>
       <r>  -15.4221    1.0000 </r>
       <r>  -15.4115    1.0000 </r>
       <r>  -15.4115    1.0000 </r>
       <r>  -15.3902    1.0000 </r>
       <r>  -15.3902    1.0000 </r>
       <r>  -15.3827    1.0000 </r>
       <r>  -15.3827    1.0000 </r>
       <r>  -15.3753    1.0000 </r>
       <r>  -15.3753    1.0000 </r>
       <r>  -15.3698    1.0000 </r>
       <r>  -15.3698    1.0000 </r>
       <r>  -15.3485    1.0000 </r>
       <r>  -15.3485    1.0000 </r>
       <r>  -15.3405    1.0000 </r>
       <r>  -15.3405    1.0000 </r>
       <r>  -15.3269    1.0000 </r>
       <r>  -15.3269    1.0000 </r>
       <r>  -15.3185    1.0000 </r>
       <r>  -15.3185    1.0000 </r>
       <r>   -6.7424    1.0000 </r>
       <r>   -6.7424    1.0000 </r>
       <r>   -6.6680    1.0000 </r>
       <r>   -6.6680    1.0000 </r>
       <r>   -1.2114    1.0000 </r>
       <r>   -1.2114    1.0000 </r>
       <r>   -0.7660    1.0000 </r>
       <r>   -0.7660    1.0000 </r>
       <r>    0.5475    1.0000 </r>
       <r>    0.5475    1.0000 </r>
       <r>    1.1683    1.0000 </r>
       <r>    1.1683    1.0000 </r>
       <r>    1.9139    1.0000 </r>
       <r>    1.9139    1.0000 </r>
       <r>    2.6520    1.0000 </r>
       <r>    2.6520    1.0000 </r>
       <r>    3.3528    1.0000 </r>
       <r>    3.3528    1.0000 </r>
       <r>    4.3798    1.0000 </r>
       <r>    4.3798    1.0000 </r>
       <r>    8.2122    0.0000 </r>
       <r>    8.2122    0.0000 </r>
       <r>    9.0778    0.0000 </r>
       <r>    9.0778    0.0000 </r>
       <r>   10.3539    0.0000 </r>
       <r>   10.3539    0.0000 </r>
       <r>   10.7915    0.0000 </r>
       <r>   10.7915    0.0000 </r>
       <r>   11.7101    0.0000 </r>
       <r>   11.7101    0.0000 </r>
       <r>   12.3620    0.0000 </r>
       <r>   12.3620    0.0000 </r>
       <r>   12.6740    0.0000 </r>
       <r>   12.6740    0.0000 </r>
       <r>   12.8644    0.0000 </r>
       <r>   12.8644    0.0000 </r>
       <r>   15.9984    0.0000 </r>
       <r>   15.9984    0.0000 </r>
       <r>   16.6981    0.0000 </r>
       <r>   16.6981    0.0000 </r>
       <r>   16.9481    0.0000 </r>
       <r>   16.9481    0.0000 </r>
       <r>   17.8001    0.0000 </r>
       <r>   17.8005    0.0000 </r>
      </set>
      <set comment="kpoint 26">
       <r>  -15.4163    1.0000 </r>
       <r>  -15.4075    1.0000 </r>
       <r>  -15.3981    1.0000 </r>
       <r>  -15.3954    1.0000 </r>
       <r>  -15.3922    1.0000 </r>
       <r>  -15.3899    1.0000 </r>
       <r>  -15.3896    1.0000 </r>
       <r>  -15.3863    1.0000 </r>
       <r>  -15.3802    1.0000 </r>
       <r>  -15.3789    1.0000 </r>
       <r>  -15.3783    1.0000 </r>
       <r>  -15.3766    1.0000 </r>
       <r>  -15.3659    1.0000 </r>
       <r>  -15.3632    1.0000 </r>
       <r>  -15.3442    1.0000 </r>
       <r>  -15.3402    1.0000 </r>
       <r>  -15.3323    1.0000 </r>
       <r>  -15.3292    1.0000 </r>
       <r>  -15.3124    1.0000 </r>
       <r>  -15.3078    1.0000 </r>
       <r>   -8.1037    1.0000 </r>
       <r>   -7.9125    1.0000 </r>
       <r>   -6.9074    1.0000 </r>
       <r>   -6.6202    1.0000 </r>
       <r>   -1.3195    1.0000 </r>
       <r>   -0.8748    1.0000 </r>
       <r>    0.7136    1.0000 </r>
       <r>    0.8400    1.0000 </r>
       <r>    1.2223    1.0000 </r>
       <r>    2.0479    1.0000 </r>
       <r>    2.4191    1.0000 </r>
       <r>    2.5461    1.0000 </r>
       <r>    2.6746    1.0000 </r>
       <r>    3.0399    1.0000 </r>
       <r>    3.6876    1.0000 </r>
       <r>    3.7032    1.0000 </r>
       <r>    3.7209    1.0000 </r>
       <r>    4.0709    1.0000 </r>
       <r>    5.2381    1.0000 </r>
       <r>    5.3114    1.0000 </r>
       <r>    7.6321    0.0000 </r>
       <r>    8.4573    0.0000 </r>
       <r>    8.5460    0.0000 </r>
       <r>    9.0402    0.0000 </r>
       <r>    9.4904    0.0000 </r>
       <r>    9.6368    0.0000 </r>
       <r>    9.8923    0.0000 </r>
       <r>   10.1174    0.0000 </r>
       <r>   10.6446    0.0000 </r>
       <r>   10.8259    0.0000 </r>
       <r>   11.3381    0.0000 </r>
       <r>   11.3797    0.0000 </r>
       <r>   11.6209    0.0000 </r>
       <r>   11.8817    0.0000 </r>
       <r>   12.2123    0.0000 </r>
       <r>   12.4699    0.0000 </r>
       <r>   13.0254    0.0000 </r>
       <r>   13.4172    0.0000 </r>
       <r>   13.9277    0.0000 </r>
       <r>   14.3301    0.0000 </r>
       <r>   14.5251    0.0000 </r>
       <r>   14.5375    0.0000 </r>
       <r>   14.8560    0.0000 </r>
       <r>   14.8684    0.0000 </r>
      </set>
      <set comment="kpoint 27">
       <r>  -15.4153    1.0000 </r>
       <r>  -15.4071    1.0000 </r>
       <r>  -15.3969    1.0000 </r>
       <r>  -15.3945    1.0000 </r>
       <r>  -15.3928    1.0000 </r>
       <r>  -15.3907    1.0000 </r>
       <r>  -15.3903    1.0000 </r>
       <r>  -15.3866    1.0000 </r>
       <r>  -15.3806    1.0000 </r>
       <r>  -15.3788    1.0000 </r>
       <r>  -15.3778    1.0000 </r>
       <r>  -15.3748    1.0000 </r>
       <r>  -15.3651    1.0000 </r>
       <r>  -15.3632    1.0000 </r>
       <r>  -15.3443    1.0000 </r>
       <r>  -15.3403    1.0000 </r>
       <r>  -15.3325    1.0000 </r>
       <r>  -15.3295    1.0000 </r>
       <r>  -15.3122    1.0000 </r>
       <r>  -15.3080    1.0000 </r>
       <r>   -8.0310    1.0000 </r>
       <r>   -7.8434    1.0000 </r>
       <r>   -6.8923    1.0000 </r>
       <r>   -6.6212    1.0000 </r>
       <r>   -1.5866    1.0000 </r>
       <r>   -1.0996    1.0000 </r>
       <r>    0.2725    1.0000 </r>
       <r>    0.5024    1.0000 </r>
       <r>    1.2683    1.0000 </r>
       <r>    2.2042    1.0000 </r>
       <r>    2.5290    1.0000 </r>
       <r>    2.7796    1.0000 </r>
       <r>    2.8348    1.0000 </r>
       <r>    3.2258    1.0000 </r>
       <r>    3.7770    1.0000 </r>
       <r>    3.8833    1.0000 </r>
       <r>    4.1283    1.0000 </r>
       <r>    4.2474    1.0000 </r>
       <r>    5.1295    1.0000 </r>
       <r>    5.3116    1.0000 </r>
       <r>    7.5887    0.0000 </r>
       <r>    8.2950    0.0000 </r>
       <r>    8.7411    0.0000 </r>
       <r>    8.9949    0.0000 </r>
       <r>    8.9983    0.0000 </r>
       <r>    9.3219    0.0000 </r>
       <r>    9.4279    0.0000 </r>
       <r>    9.9369    0.0000 </r>
       <r>   10.4697    0.0000 </r>
       <r>   10.8594    0.0000 </r>
       <r>   10.9916    0.0000 </r>
       <r>   11.2801    0.0000 </r>
       <r>   11.3796    0.0000 </r>
       <r>   11.5339    0.0000 </r>
       <r>   12.1379    0.0000 </r>
       <r>   12.6689    0.0000 </r>
       <r>   12.9751    0.0000 </r>
       <r>   13.4840    0.0000 </r>
       <r>   13.9346    0.0000 </r>
       <r>   14.1468    0.0000 </r>
       <r>   15.0355    0.0000 </r>
       <r>   15.2523    0.0000 </r>
       <r>   15.4245    0.0000 </r>
       <r>   15.5305    0.0000 </r>
      </set>
      <set comment="kpoint 28">
       <r>  -15.4126    1.0000 </r>
       <r>  -15.4061    1.0000 </r>
       <r>  -15.3949    1.0000 </r>
       <r>  -15.3946    1.0000 </r>
       <r>  -15.3934    1.0000 </r>
       <r>  -15.3927    1.0000 </r>
       <r>  -15.3910    1.0000 </r>
       <r>  -15.3878    1.0000 </r>
       <r>  -15.3812    1.0000 </r>
       <r>  -15.3799    1.0000 </r>
       <r>  -15.3748    1.0000 </r>
       <r>  -15.3708    1.0000 </r>
       <r>  -15.3640    1.0000 </r>
       <r>  -15.3627    1.0000 </r>
       <r>  -15.3441    1.0000 </r>
       <r>  -15.3406    1.0000 </r>
       <r>  -15.3327    1.0000 </r>
       <r>  -15.3304    1.0000 </r>
       <r>  -15.3118    1.0000 </r>
       <r>  -15.3086    1.0000 </r>
       <r>   -7.8262    1.0000 </r>
       <r>   -7.6502    1.0000 </r>
       <r>   -6.8763    1.0000 </r>
       <r>   -6.6487    1.0000 </r>
       <r>   -2.0973    1.0000 </r>
       <r>   -1.6110    1.0000 </r>
       <r>   -0.4901    1.0000 </r>
       <r>   -0.1384    1.0000 </r>
       <r>    1.4547    1.0000 </r>
       <r>    2.4955    1.0000 </r>
       <r>    2.8428    1.0000 </r>
       <r>    3.0773    1.0000 </r>
       <r>    3.3258    1.0000 </r>
       <r>    3.6325    1.0000 </r>
       <r>    3.9534    1.0000 </r>
       <r>    4.2504    1.0000 </r>
       <r>    4.4996    1.0000 </r>
       <r>    4.7542    1.0000 </r>
       <r>    5.0953    1.0000 </r>
       <r>    5.3955    1.0000 </r>
       <r>    7.4628    0.0000 </r>
       <r>    7.7906    0.0000 </r>
       <r>    8.0749    0.0000 </r>
       <r>    8.3018    0.0000 </r>
       <r>    8.5127    0.0000 </r>
       <r>    8.6354    0.0000 </r>
       <r>    9.1168    0.0000 </r>
       <r>    9.8389    0.0000 </r>
       <r>    9.8745    0.0000 </r>
       <r>   10.3721    0.0000 </r>
       <r>   10.6821    0.0000 </r>
       <r>   10.8291    0.0000 </r>
       <r>   11.4179    0.0000 </r>
       <r>   11.6905    0.0000 </r>
       <r>   12.6063    0.0000 </r>
       <r>   13.1153    0.0000 </r>
       <r>   13.3000    0.0000 </r>
       <r>   13.8910    0.0000 </r>
       <r>   14.2035    0.0000 </r>
       <r>   14.2147    0.0000 </r>
       <r>   15.2398    0.0000 </r>
       <r>   15.6488    0.0000 </r>
       <r>   16.4069    0.0000 </r>
       <r>   16.5512    0.0000 </r>
      </set>
      <set comment="kpoint 29">
       <r>  -15.4092    1.0000 </r>
       <r>  -15.4056    1.0000 </r>
       <r>  -15.3971    1.0000 </r>
       <r>  -15.3962    1.0000 </r>
       <r>  -15.3928    1.0000 </r>
       <r>  -15.3916    1.0000 </r>
       <r>  -15.3914    1.0000 </r>
       <r>  -15.3896    1.0000 </r>
       <r>  -15.3816    1.0000 </r>
       <r>  -15.3807    1.0000 </r>
       <r>  -15.3708    1.0000 </r>
       <r>  -15.3674    1.0000 </r>
       <r>  -15.3636    1.0000 </r>
       <r>  -15.3617    1.0000 </r>
       <r>  -15.3431    1.0000 </r>
       <r>  -15.3410    1.0000 </r>
       <r>  -15.3325    1.0000 </r>
       <r>  -15.3312    1.0000 </r>
       <r>  -15.3111    1.0000 </r>
       <r>  -15.3094    1.0000 </r>
       <r>   -7.5370    1.0000 </r>
       <r>   -7.3873    1.0000 </r>
       <r>   -6.9243    1.0000 </r>
       <r>   -6.7562    1.0000 </r>
       <r>   -2.4467    1.0000 </r>
       <r>   -2.1169    1.0000 </r>
       <r>   -1.0262    1.0000 </r>
       <r>   -0.7614    1.0000 </r>
       <r>    1.8752    1.0000 </r>
       <r>    2.8089    1.0000 </r>
       <r>    3.2831    1.0000 </r>
       <r>    3.2992    1.0000 </r>
       <r>    3.4960    1.0000 </r>
       <r>    3.9513    1.0000 </r>
       <r>    4.0739    1.0000 </r>
       <r>    4.2794    1.0000 </r>
       <r>    4.8129    1.0000 </r>
       <r>    4.9824    1.0000 </r>
       <r>    5.6206    1.0000 </r>
       <r>    5.8217    1.0000 </r>
       <r>    6.8891    0.0000 </r>
       <r>    7.3024    0.0000 </r>
       <r>    7.3890    0.0000 </r>
       <r>    7.7219    0.0000 </r>
       <r>    7.7611    0.0000 </r>
       <r>    8.1490    0.0000 </r>
       <r>    8.6043    0.0000 </r>
       <r>    9.0713    0.0000 </r>
       <r>    9.4220    0.0000 </r>
       <r>    9.4521    0.0000 </r>
       <r>   10.9303    0.0000 </r>
       <r>   11.1943    0.0000 </r>
       <r>   12.5602    0.0000 </r>
       <r>   12.8016    0.0000 </r>
       <r>   13.1972    0.0000 </r>
       <r>   13.5596    0.0000 </r>
       <r>   13.8608    0.0000 </r>
       <r>   14.3124    0.0000 </r>
       <r>   14.5718    0.0000 </r>
       <r>   14.5929    0.0000 </r>
       <r>   15.3827    0.0000 </r>
       <r>   15.5676    0.0000 </r>
       <r>   15.5825    0.0000 </r>
       <r>   16.3832    0.0000 </r>
      </set>
      <set comment="kpoint 30">
       <r>  -15.4065    1.0000 </r>
       <r>  -15.4065    1.0000 </r>
       <r>  -15.3977    1.0000 </r>
       <r>  -15.3977    1.0000 </r>
       <r>  -15.3919    1.0000 </r>
       <r>  -15.3919    1.0000 </r>
       <r>  -15.3910    1.0000 </r>
       <r>  -15.3910    1.0000 </r>
       <r>  -15.3813    1.0000 </r>
       <r>  -15.3813    1.0000 </r>
       <r>  -15.3677    1.0000 </r>
       <r>  -15.3677    1.0000 </r>
       <r>  -15.3622    1.0000 </r>
       <r>  -15.3622    1.0000 </r>
       <r>  -15.3418    1.0000 </r>
       <r>  -15.3418    1.0000 </r>
       <r>  -15.3319    1.0000 </r>
       <r>  -15.3319    1.0000 </r>
       <r>  -15.3102    1.0000 </r>
       <r>  -15.3102    1.0000 </r>
       <r>   -7.2850    1.0000 </r>
       <r>   -7.2850    1.0000 </r>
       <r>   -6.9347    1.0000 </r>
       <r>   -6.9347    1.0000 </r>
       <r>   -2.4418    1.0000 </r>
       <r>   -2.4418    1.0000 </r>
       <r>   -1.1126    1.0000 </r>
       <r>   -1.1126    1.0000 </r>
       <r>    2.4434    1.0000 </r>
       <r>    2.4434    1.0000 </r>
       <r>    3.5854    1.0000 </r>
       <r>    3.5854    1.0000 </r>
       <r>    3.7020    1.0000 </r>
       <r>    3.7020    1.0000 </r>
       <r>    4.0976    1.0000 </r>
       <r>    4.0976    1.0000 </r>
       <r>    5.3372    1.0000 </r>
       <r>    5.3372    1.0000 </r>
       <r>    5.7113    1.0000 </r>
       <r>    5.7113    1.0000 </r>
       <r>    6.9202    0.0000 </r>
       <r>    6.9202    0.0000 </r>
       <r>    7.2899    0.0000 </r>
       <r>    7.2899    0.0000 </r>
       <r>    7.6002    0.0000 </r>
       <r>    7.6002    0.0000 </r>
       <r>    8.8645    0.0000 </r>
       <r>    8.8645    0.0000 </r>
       <r>    8.8940    0.0000 </r>
       <r>    8.8940    0.0000 </r>
       <r>   11.2115    0.0000 </r>
       <r>   11.2115    0.0000 </r>
       <r>   13.4912    0.0000 </r>
       <r>   13.4912    0.0000 </r>
       <r>   14.1192    0.0000 </r>
       <r>   14.1192    0.0000 </r>
       <r>   14.2043    0.0000 </r>
       <r>   14.2043    0.0000 </r>
       <r>   14.5168    0.0000 </r>
       <r>   14.5168    0.0000 </r>
       <r>   15.7726    0.0000 </r>
       <r>   15.7726    0.0000 </r>
       <r>   15.8008    0.0000 </r>
       <r>   15.8008    0.0000 </r>
      </set>
      <set comment="kpoint 31">
       <r>  -15.4129    1.0000 </r>
       <r>  -15.4047    1.0000 </r>
       <r>  -15.3968    1.0000 </r>
       <r>  -15.3944    1.0000 </r>
       <r>  -15.3928    1.0000 </r>
       <r>  -15.3914    1.0000 </r>
       <r>  -15.3911    1.0000 </r>
       <r>  -15.3880    1.0000 </r>
       <r>  -15.3826    1.0000 </r>
       <r>  -15.3808    1.0000 </r>
       <r>  -15.3769    1.0000 </r>
       <r>  -15.3745    1.0000 </r>
       <r>  -15.3642    1.0000 </r>
       <r>  -15.3628    1.0000 </r>
       <r>  -15.3428    1.0000 </r>
       <r>  -15.3393    1.0000 </r>
       <r>  -15.3328    1.0000 </r>
       <r>  -15.3304    1.0000 </r>
       <r>  -15.3132    1.0000 </r>
       <r>  -15.3092    1.0000 </r>
       <r>   -8.0335    1.0000 </r>
       <r>   -7.8472    1.0000 </r>
       <r>   -6.8790    1.0000 </r>
       <r>   -6.6095    1.0000 </r>
       <r>   -1.4364    1.0000 </r>
       <r>   -1.0053    1.0000 </r>
       <r>    0.4363    1.0000 </r>
       <r>    0.4538    1.0000 </r>
       <r>    1.2372    1.0000 </r>
       <r>    2.1106    1.0000 </r>
       <r>    2.3385    1.0000 </r>
       <r>    2.6596    1.0000 </r>
       <r>    2.8617    1.0000 </r>
       <r>    3.1494    1.0000 </r>
       <r>    3.6676    1.0000 </r>
       <r>    3.7681    1.0000 </r>
       <r>    4.0629    1.0000 </r>
       <r>    4.1066    1.0000 </r>
       <r>    5.2673    1.0000 </r>
       <r>    5.3049    1.0000 </r>
       <r>    7.7272    0.0000 </r>
       <r>    8.4342    0.0000 </r>
       <r>    8.6658    0.0000 </r>
       <r>    8.9271    0.0000 </r>
       <r>    9.0875    0.0000 </r>
       <r>    9.4121    0.0000 </r>
       <r>    9.4208    0.0000 </r>
       <r>    9.9598    0.0000 </r>
       <r>   10.5489    0.0000 </r>
       <r>   11.0318    0.0000 </r>
       <r>   11.0319    0.0000 </r>
       <r>   11.3091    0.0000 </r>
       <r>   11.5002    0.0000 </r>
       <r>   11.6229    0.0000 </r>
       <r>   11.8347    0.0000 </r>
       <r>   12.2276    0.0000 </r>
       <r>   12.5813    0.0000 </r>
       <r>   13.5773    0.0000 </r>
       <r>   13.8676    0.0000 </r>
       <r>   14.3787    0.0000 </r>
       <r>   15.2798    0.0000 </r>
       <r>   15.2976    0.0000 </r>
       <r>   15.3376    0.0000 </r>
       <r>   15.4511    0.0000 </r>
      </set>
      <set comment="kpoint 32">
       <r>  -15.4121    1.0000 </r>
       <r>  -15.4045    1.0000 </r>
       <r>  -15.3956    1.0000 </r>
       <r>  -15.3939    1.0000 </r>
       <r>  -15.3934    1.0000 </r>
       <r>  -15.3923    1.0000 </r>
       <r>  -15.3912    1.0000 </r>
       <r>  -15.3883    1.0000 </r>
       <r>  -15.3830    1.0000 </r>
       <r>  -15.3814    1.0000 </r>
       <r>  -15.3757    1.0000 </r>
       <r>  -15.3729    1.0000 </r>
       <r>  -15.3638    1.0000 </r>
       <r>  -15.3625    1.0000 </r>
       <r>  -15.3428    1.0000 </r>
       <r>  -15.3392    1.0000 </r>
       <r>  -15.3331    1.0000 </r>
       <r>  -15.3307    1.0000 </r>
       <r>  -15.3130    1.0000 </r>
       <r>  -15.3093    1.0000 </r>
       <r>   -7.9617    1.0000 </r>
       <r>   -7.7791    1.0000 </r>
       <r>   -6.8636    1.0000 </r>
       <r>   -6.6091    1.0000 </r>
       <r>   -1.6355    1.0000 </r>
       <r>   -1.1601    1.0000 </r>
       <r>    0.1005    1.0000 </r>
       <r>    0.2690    1.0000 </r>
       <r>    1.3006    1.0000 </r>
       <r>    2.0356    1.0000 </r>
       <r>    2.2531    1.0000 </r>
       <r>    2.5809    1.0000 </r>
       <r>    3.0823    1.0000 </r>
       <r>    3.4291    1.0000 </r>
       <r>    3.5910    1.0000 </r>
       <r>    3.7476    1.0000 </r>
       <r>    4.4897    1.0000 </r>
       <r>    4.7372    1.0000 </r>
       <r>    5.1666    1.0000 </r>
       <r>    5.3256    1.0000 </r>
       <r>    7.6535    0.0000 </r>
       <r>    7.9170    0.0000 </r>
       <r>    8.3035    0.0000 </r>
       <r>    8.7428    0.0000 </r>
       <r>    8.9061    0.0000 </r>
       <r>    9.1927    0.0000 </r>
       <r>    9.6434    0.0000 </r>
       <r>    9.9757    0.0000 </r>
       <r>   10.3137    0.0000 </r>
       <r>   10.4914    0.0000 </r>
       <r>   10.8827    0.0000 </r>
       <r>   10.9933    0.0000 </r>
       <r>   11.7538    0.0000 </r>
       <r>   12.0182    0.0000 </r>
       <r>   12.1343    0.0000 </r>
       <r>   12.5161    0.0000 </r>
       <r>   12.9790    0.0000 </r>
       <r>   13.7408    0.0000 </r>
       <r>   14.0791    0.0000 </r>
       <r>   14.6222    0.0000 </r>
       <r>   14.8195    0.0000 </r>
       <r>   15.2147    0.0000 </r>
       <r>   15.5398    0.0000 </r>
       <r>   15.7645    0.0000 </r>
      </set>
      <set comment="kpoint 33">
       <r>  -15.4100    1.0000 </r>
       <r>  -15.4038    1.0000 </r>
       <r>  -15.3969    1.0000 </r>
       <r>  -15.3959    1.0000 </r>
       <r>  -15.3927    1.0000 </r>
       <r>  -15.3917    1.0000 </r>
       <r>  -15.3914    1.0000 </r>
       <r>  -15.3889    1.0000 </r>
       <r>  -15.3837    1.0000 </r>
       <r>  -15.3825    1.0000 </r>
       <r>  -15.3730    1.0000 </r>
       <r>  -15.3694    1.0000 </r>
       <r>  -15.3631    1.0000 </r>
       <r>  -15.3613    1.0000 </r>
       <r>  -15.3426    1.0000 </r>
       <r>  -15.3393    1.0000 </r>
       <r>  -15.3335    1.0000 </r>
       <r>  -15.3315    1.0000 </r>
       <r>  -15.3125    1.0000 </r>
       <r>  -15.3097    1.0000 </r>
       <r>   -7.7601    1.0000 </r>
       <r>   -7.5893    1.0000 </r>
       <r>   -6.8460    1.0000 </r>
       <r>   -6.6317    1.0000 </r>
       <r>   -2.0552    1.0000 </r>
       <r>   -1.5730    1.0000 </r>
       <r>   -0.5096    1.0000 </r>
       <r>   -0.2049    1.0000 </r>
       <r>    1.5026    1.0000 </r>
       <r>    2.0496    1.0000 </r>
       <r>    2.2734    1.0000 </r>
       <r>    2.9122    1.0000 </r>
       <r>    3.0848    1.0000 </r>
       <r>    3.4470    1.0000 </r>
       <r>    4.0504    1.0000 </r>
       <r>    4.2123    1.0000 </r>
       <r>    4.9341    1.0000 </r>
       <r>    5.0675    1.0000 </r>
       <r>    5.1775    1.0000 </r>
       <r>    5.3794    1.0000 </r>
       <r>    7.2687    0.0000 </r>
       <r>    7.4267    0.0000 </r>
       <r>    7.8535    0.0000 </r>
       <r>    8.0323    0.0000 </r>
       <r>    8.6655    0.0000 </r>
       <r>    9.0115    0.0000 </r>
       <r>    9.3443    0.0000 </r>
       <r>    9.5081    0.0000 </r>
       <r>   10.1614    0.0000 </r>
       <r>   10.3133    0.0000 </r>
       <r>   10.8497    0.0000 </r>
       <r>   10.9423    0.0000 </r>
       <r>   12.0042    0.0000 </r>
       <r>   12.0995    0.0000 </r>
       <r>   12.8992    0.0000 </r>
       <r>   12.9943    0.0000 </r>
       <r>   13.4087    0.0000 </r>
       <r>   13.8890    0.0000 </r>
       <r>   14.1669    0.0000 </r>
       <r>   14.7421    0.0000 </r>
       <r>   14.9051    0.0000 </r>
       <r>   15.5162    0.0000 </r>
       <r>   15.8912    0.0000 </r>
       <r>   16.2314    0.0000 </r>
      </set>
      <set comment="kpoint 34">
       <r>  -15.4074    1.0000 </r>
       <r>  -15.4034    1.0000 </r>
       <r>  -15.4000    1.0000 </r>
       <r>  -15.3987    1.0000 </r>
       <r>  -15.3926    1.0000 </r>
       <r>  -15.3923    1.0000 </r>
       <r>  -15.3898    1.0000 </r>
       <r>  -15.3885    1.0000 </r>
       <r>  -15.3841    1.0000 </r>
       <r>  -15.3834    1.0000 </r>
       <r>  -15.3697    1.0000 </r>
       <r>  -15.3668    1.0000 </r>
       <r>  -15.3619    1.0000 </r>
       <r>  -15.3601    1.0000 </r>
       <r>  -15.3416    1.0000 </r>
       <r>  -15.3395    1.0000 </r>
       <r>  -15.3335    1.0000 </r>
       <r>  -15.3324    1.0000 </r>
       <r>  -15.3118    1.0000 </r>
       <r>  -15.3103    1.0000 </r>
       <r>   -7.4772    1.0000 </r>
       <r>   -7.3327    1.0000 </r>
       <r>   -6.8891    1.0000 </r>
       <r>   -6.7299    1.0000 </r>
       <r>   -2.3622    1.0000 </r>
       <r>   -2.0381    1.0000 </r>
       <r>   -0.9686    1.0000 </r>
       <r>   -0.7281    1.0000 </r>
       <r>    1.8728    1.0000 </r>
       <r>    2.3406    1.0000 </r>
       <r>    2.6215    1.0000 </r>
       <r>    3.0240    1.0000 </r>
       <r>    3.3321    1.0000 </r>
       <r>    3.4492    1.0000 </r>
       <r>    3.8569    1.0000 </r>
       <r>    4.3325    1.0000 </r>
       <r>    4.9492    1.0000 </r>
       <r>    5.1393    1.0000 </r>
       <r>    5.2887    1.0000 </r>
       <r>    5.3834    1.0000 </r>
       <r>    7.0866    0.0000 </r>
       <r>    7.3438    0.0000 </r>
       <r>    7.5781    0.0000 </r>
       <r>    7.9345    0.0000 </r>
       <r>    8.2260    0.0000 </r>
       <r>    8.6552    0.0000 </r>
       <r>    8.7327    0.0000 </r>
       <r>    9.0345    0.0000 </r>
       <r>   10.0419    0.0000 </r>
       <r>   10.1985    0.0000 </r>
       <r>   10.8187    0.0000 </r>
       <r>   11.0863    0.0000 </r>
       <r>   12.6007    0.0000 </r>
       <r>   12.8854    0.0000 </r>
       <r>   13.1277    0.0000 </r>
       <r>   13.3936    0.0000 </r>
       <r>   13.9278    0.0000 </r>
       <r>   14.2768    0.0000 </r>
       <r>   14.4517    0.0000 </r>
       <r>   14.6414    0.0000 </r>
       <r>   15.3046    0.0000 </r>
       <r>   15.6853    0.0000 </r>
       <r>   15.9413    0.0000 </r>
       <r>   16.6443    0.0000 </r>
      </set>
      <set comment="kpoint 35">
       <r>  -15.4048    1.0000 </r>
       <r>  -15.4048    1.0000 </r>
       <r>  -15.4006    1.0000 </r>
       <r>  -15.4006    1.0000 </r>
       <r>  -15.3929    1.0000 </r>
       <r>  -15.3929    1.0000 </r>
       <r>  -15.3886    1.0000 </r>
       <r>  -15.3886    1.0000 </r>
       <r>  -15.3840    1.0000 </r>
       <r>  -15.3840    1.0000 </r>
       <r>  -15.3672    1.0000 </r>
       <r>  -15.3672    1.0000 </r>
       <r>  -15.3603    1.0000 </r>
       <r>  -15.3603    1.0000 </r>
       <r>  -15.3403    1.0000 </r>
       <r>  -15.3403    1.0000 </r>
       <r>  -15.3330    1.0000 </r>
       <r>  -15.3330    1.0000 </r>
       <r>  -15.3110    1.0000 </r>
       <r>  -15.3110    1.0000 </r>
       <r>   -7.2330    1.0000 </r>
       <r>   -7.2330    1.0000 </r>
       <r>   -6.8979    1.0000 </r>
       <r>   -6.8979    1.0000 </r>
       <r>   -2.3510    1.0000 </r>
       <r>   -2.3510    1.0000 </r>
       <r>   -1.0415    1.0000 </r>
       <r>   -1.0415    1.0000 </r>
       <r>    2.3422    1.0000 </r>
       <r>    2.3422    1.0000 </r>
       <r>    2.9737    1.0000 </r>
       <r>    2.9737    1.0000 </r>
       <r>    3.3220    1.0000 </r>
       <r>    3.3220    1.0000 </r>
       <r>    3.9633    1.0000 </r>
       <r>    3.9633    1.0000 </r>
       <r>    5.0215    1.0000 </r>
       <r>    5.0215    1.0000 </r>
       <r>    5.3731    1.0000 </r>
       <r>    5.3731    1.0000 </r>
       <r>    7.2388    0.0000 </r>
       <r>    7.2388    0.0000 </r>
       <r>    7.6506    0.0000 </r>
       <r>    7.6506    0.0000 </r>
       <r>    8.2400    0.0000 </r>
       <r>    8.2400    0.0000 </r>
       <r>    8.9048    0.0000 </r>
       <r>    8.9048    0.0000 </r>
       <r>    9.7894    0.0000 </r>
       <r>    9.7894    0.0000 </r>
       <r>   11.0615    0.0000 </r>
       <r>   11.0615    0.0000 </r>
       <r>   12.8170    0.0000 </r>
       <r>   12.8170    0.0000 </r>
       <r>   13.9298    0.0000 </r>
       <r>   13.9298    0.0000 </r>
       <r>   14.3041    0.0000 </r>
       <r>   14.3041    0.0000 </r>
       <r>   15.2156    0.0000 </r>
       <r>   15.2156    0.0000 </r>
       <r>   15.7474    0.0000 </r>
       <r>   15.7474    0.0000 </r>
       <r>   15.9330    0.0000 </r>
       <r>   15.9330    0.0000 </r>
      </set>
      <set comment="kpoint 36">
       <r>  -15.4047    1.0000 </r>
       <r>  -15.4011    1.0000 </r>
       <r>  -15.3951    1.0000 </r>
       <r>  -15.3942    1.0000 </r>
       <r>  -15.3934    1.0000 </r>
       <r>  -15.3918    1.0000 </r>
       <r>  -15.3911    1.0000 </r>
       <r>  -15.3906    1.0000 </r>
       <r>  -15.3869    1.0000 </r>
       <r>  -15.3858    1.0000 </r>
       <r>  -15.3736    1.0000 </r>
       <r>  -15.3706    1.0000 </r>
       <r>  -15.3620    1.0000 </r>
       <r>  -15.3609    1.0000 </r>
       <r>  -15.3394    1.0000 </r>
       <r>  -15.3387    1.0000 </r>
       <r>  -15.3338    1.0000 </r>
       <r>  -15.3327    1.0000 </r>
       <r>  -15.3150    1.0000 </r>
       <r>  -15.3124    1.0000 </r>
       <r>   -7.8313    1.0000 </r>
       <r>   -7.6614    1.0000 </r>
       <r>   -6.8165    1.0000 </r>
       <r>   -6.6020    1.0000 </r>
       <r>   -1.7287    1.0000 </r>
       <r>   -1.3388    1.0000 </r>
       <r>   -0.3433    1.0000 </r>
       <r>   -0.1780    1.0000 </r>
       <r>    1.3748    1.0000 </r>
       <r>    2.3063    1.0000 </r>
       <r>    2.5053    1.0000 </r>
       <r>    2.7809    1.0000 </r>
       <r>    3.2004    1.0000 </r>
       <r>    3.3873    1.0000 </r>
       <r>    3.8075    1.0000 </r>
       <r>    3.9080    1.0000 </r>
       <r>    4.1968    1.0000 </r>
       <r>    4.5006    1.0000 </r>
       <r>    5.2596    1.0000 </r>
       <r>    5.4017    1.0000 </r>
       <r>    7.3121    0.0000 </r>
       <r>    8.0029    0.0000 </r>
       <r>    8.0418    0.0000 </r>
       <r>    8.4901    0.0000 </r>
       <r>    8.6480    0.0000 </r>
       <r>    9.1835    0.0000 </r>
       <r>    9.2764    0.0000 </r>
       <r>    9.8873    0.0000 </r>
       <r>   10.0601    0.0000 </r>
       <r>   10.4714    0.0000 </r>
       <r>   10.6117    0.0000 </r>
       <r>   10.6448    0.0000 </r>
       <r>   11.2844    0.0000 </r>
       <r>   11.4499    0.0000 </r>
       <r>   12.3734    0.0000 </r>
       <r>   12.3778    0.0000 </r>
       <r>   12.8960    0.0000 </r>
       <r>   13.4665    0.0000 </r>
       <r>   14.5406    0.0000 </r>
       <r>   14.7525    0.0000 </r>
       <r>   15.7946    0.0000 </r>
       <r>   15.9402    0.0000 </r>
       <r>   16.0189    0.0000 </r>
       <r>   16.4039    0.0000 </r>
      </set>
      <set comment="kpoint 37">
       <r>  -15.4054    1.0000 </r>
       <r>  -15.4016    1.0000 </r>
       <r>  -15.3966    1.0000 </r>
       <r>  -15.3944    1.0000 </r>
       <r>  -15.3933    1.0000 </r>
       <r>  -15.3915    1.0000 </r>
       <r>  -15.3911    1.0000 </r>
       <r>  -15.3894    1.0000 </r>
       <r>  -15.3873    1.0000 </r>
       <r>  -15.3858    1.0000 </r>
       <r>  -15.3728    1.0000 </r>
       <r>  -15.3694    1.0000 </r>
       <r>  -15.3620    1.0000 </r>
       <r>  -15.3599    1.0000 </r>
       <r>  -15.3395    1.0000 </r>
       <r>  -15.3383    1.0000 </r>
       <r>  -15.3341    1.0000 </r>
       <r>  -15.3332    1.0000 </r>
       <r>  -15.3148    1.0000 </r>
       <r>  -15.3124    1.0000 </r>
       <r>   -7.7628    1.0000 </r>
       <r>   -7.5968    1.0000 </r>
       <r>   -6.7996    1.0000 </r>
       <r>   -6.5966    1.0000 </r>
       <r>   -1.7852    1.0000 </r>
       <r>   -1.3533    1.0000 </r>
       <r>   -0.4074    1.0000 </r>
       <r>   -0.2850    1.0000 </r>
       <r>    1.4336    1.0000 </r>
       <r>    1.8193    1.0000 </r>
       <r>    2.1443    1.0000 </r>
       <r>    2.6472    1.0000 </r>
       <r>    3.0038    1.0000 </r>
       <r>    3.3775    1.0000 </r>
       <r>    3.9264    1.0000 </r>
       <r>    4.0173    1.0000 </r>
       <r>    4.7200    1.0000 </r>
       <r>    4.8818    1.0000 </r>
       <r>    5.2728    1.0000 </r>
       <r>    5.3765    1.0000 </r>
       <r>    7.1244    0.0000 </r>
       <r>    7.3802    0.0000 </r>
       <r>    8.0468    0.0000 </r>
       <r>    8.2615    0.0000 </r>
       <r>    8.7431    0.0000 </r>
       <r>    9.0450    0.0000 </r>
       <r>    9.4558    0.0000 </r>
       <r>    9.6341    0.0000 </r>
       <r>   10.0719    0.0000 </r>
       <r>   10.4237    0.0000 </r>
       <r>   10.7026    0.0000 </r>
       <r>   10.9918    0.0000 </r>
       <r>   11.8396    0.0000 </r>
       <r>   12.2741    0.0000 </r>
       <r>   12.7003    0.0000 </r>
       <r>   12.7274    0.0000 </r>
       <r>   13.1131    0.0000 </r>
       <r>   13.7690    0.0000 </r>
       <r>   14.3561    0.0000 </r>
       <r>   14.6477    0.0000 </r>
       <r>   15.1746    0.0000 </r>
       <r>   15.5710    0.0000 </r>
       <r>   15.7763    0.0000 </r>
       <r>   16.0027    0.0000 </r>
      </set>
      <set comment="kpoint 38">
       <r>  -15.4072    1.0000 </r>
       <r>  -15.4032    1.0000 </r>
       <r>  -15.4004    1.0000 </r>
       <r>  -15.3974    1.0000 </r>
       <r>  -15.3920    1.0000 </r>
       <r>  -15.3913    1.0000 </r>
       <r>  -15.3900    1.0000 </r>
       <r>  -15.3880    1.0000 </r>
       <r>  -15.3866    1.0000 </r>
       <r>  -15.3856    1.0000 </r>
       <r>  -15.3710    1.0000 </r>
       <r>  -15.3674    1.0000 </r>
       <r>  -15.3605    1.0000 </r>
       <r>  -15.3580    1.0000 </r>
       <r>  -15.3391    1.0000 </r>
       <r>  -15.3375    1.0000 </r>
       <r>  -15.3346    1.0000 </r>
       <r>  -15.3344    1.0000 </r>
       <r>  -15.3142    1.0000 </r>
       <r>  -15.3124    1.0000 </r>
       <r>   -7.5722    1.0000 </r>
       <r>   -7.4186    1.0000 </r>
       <r>   -6.7751    1.0000 </r>
       <r>   -6.6024    1.0000 </r>
       <r>   -1.9548    1.0000 </r>
       <r>   -1.4941    1.0000 </r>
       <r>   -0.6400    1.0000 </r>
       <r>   -0.4623    1.0000 </r>
       <r>    1.3806    1.0000 </r>
       <r>    1.5033    1.0000 </r>
       <r>    1.9165    1.0000 </r>
       <r>    2.5315    1.0000 </r>
       <r>    2.5722    1.0000 </r>
       <r>    3.2049    1.0000 </r>
       <r>    4.1339    1.0000 </r>
       <r>    4.3912    1.0000 </r>
       <r>    4.4646    1.0000 </r>
       <r>    4.6166    1.0000 </r>
       <r>    5.2620    1.0000 </r>
       <r>    5.4106    1.0000 </r>
       <r>    7.2701    0.0000 </r>
       <r>    7.6570    0.0000 </r>
       <r>    7.7539    0.0000 </r>
       <r>    8.1911    0.0000 </r>
       <r>    8.4658    0.0000 </r>
       <r>    8.8953    0.0000 </r>
       <r>    9.3324    0.0000 </r>
       <r>    9.9043    0.0000 </r>
       <r>   10.4279    0.0000 </r>
       <r>   10.7834    0.0000 </r>
       <r>   11.0487    0.0000 </r>
       <r>   11.1782    0.0000 </r>
       <r>   12.2113    0.0000 </r>
       <r>   12.9995    0.0000 </r>
       <r>   13.3260    0.0000 </r>
       <r>   13.4121    0.0000 </r>
       <r>   13.6555    0.0000 </r>
       <r>   13.9366    0.0000 </r>
       <r>   14.2098    0.0000 </r>
       <r>   14.6587    0.0000 </r>
       <r>   14.8618    0.0000 </r>
       <r>   15.2711    0.0000 </r>
       <r>   15.9781    0.0000 </r>
       <r>   16.1129    0.0000 </r>
      </set>
      <set comment="kpoint 39">
       <r>  -15.4089    1.0000 </r>
       <r>  -15.4063    1.0000 </r>
       <r>  -15.4028    1.0000 </r>
       <r>  -15.4010    1.0000 </r>
       <r>  -15.3915    1.0000 </r>
       <r>  -15.3905    1.0000 </r>
       <r>  -15.3900    1.0000 </r>
       <r>  -15.3876    1.0000 </r>
       <r>  -15.3851    1.0000 </r>
       <r>  -15.3845    1.0000 </r>
       <r>  -15.3689    1.0000 </r>
       <r>  -15.3666    1.0000 </r>
       <r>  -15.3577    1.0000 </r>
       <r>  -15.3562    1.0000 </r>
       <r>  -15.3380    1.0000 </r>
       <r>  -15.3365    1.0000 </r>
       <r>  -15.3356    1.0000 </r>
       <r>  -15.3351    1.0000 </r>
       <r>  -15.3135    1.0000 </r>
       <r>  -15.3125    1.0000 </r>
       <r>   -7.3104    1.0000 </r>
       <r>   -7.1825    1.0000 </r>
       <r>   -6.8014    1.0000 </r>
       <r>   -6.6700    1.0000 </r>
       <r>   -2.1209    1.0000 </r>
       <r>   -1.8177    1.0000 </r>
       <r>   -0.8377    1.0000 </r>
       <r>   -0.6813    1.0000 </r>
       <r>    1.4157    1.0000 </r>
       <r>    1.5580    1.0000 </r>
       <r>    2.1605    1.0000 </r>
       <r>    2.3105    1.0000 </r>
       <r>    2.5536    1.0000 </r>
       <r>    3.2764    1.0000 </r>
       <r>    3.6998    1.0000 </r>
       <r>    3.8812    1.0000 </r>
       <r>    4.1394    1.0000 </r>
       <r>    4.2165    1.0000 </r>
       <r>    4.9632    1.0000 </r>
       <r>    5.2011    1.0000 </r>
       <r>    7.4376    0.0000 </r>
       <r>    8.0037    0.0000 </r>
       <r>    8.2025    0.0000 </r>
       <r>    8.3735    0.0000 </r>
       <r>    8.9783    0.0000 </r>
       <r>    9.2132    0.0000 </r>
       <r>    9.4209    0.0000 </r>
       <r>    9.9244    0.0000 </r>
       <r>   10.4588    0.0000 </r>
       <r>   10.7882    0.0000 </r>
       <r>   11.1557    0.0000 </r>
       <r>   11.2947    0.0000 </r>
       <r>   12.2008    0.0000 </r>
       <r>   12.6532    0.0000 </r>
       <r>   13.2290    0.0000 </r>
       <r>   13.8116    0.0000 </r>
       <r>   14.0029    0.0000 </r>
       <r>   14.3846    0.0000 </r>
       <r>   14.9396    0.0000 </r>
       <r>   15.1255    0.0000 </r>
       <r>   15.4582    0.0000 </r>
       <r>   15.6030    0.0000 </r>
       <r>   16.5826    0.0000 </r>
       <r>   17.0027    0.0000 </r>
      </set>
      <set comment="kpoint 40">
       <r>  -15.4088    1.0000 </r>
       <r>  -15.4088    1.0000 </r>
       <r>  -15.4030    1.0000 </r>
       <r>  -15.4030    1.0000 </r>
       <r>  -15.3910    1.0000 </r>
       <r>  -15.3910    1.0000 </r>
       <r>  -15.3887    1.0000 </r>
       <r>  -15.3887    1.0000 </r>
       <r>  -15.3841    1.0000 </r>
       <r>  -15.3841    1.0000 </r>
       <r>  -15.3672    1.0000 </r>
       <r>  -15.3672    1.0000 </r>
       <r>  -15.3559    1.0000 </r>
       <r>  -15.3559    1.0000 </r>
       <r>  -15.3367    1.0000 </r>
       <r>  -15.3367    1.0000 </r>
       <r>  -15.3356    1.0000 </r>
       <r>  -15.3356    1.0000 </r>
       <r>  -15.3129    1.0000 </r>
       <r>  -15.3129    1.0000 </r>
       <r>   -7.0915    1.0000 </r>
       <r>   -7.0915    1.0000 </r>
       <r>   -6.8048    1.0000 </r>
       <r>   -6.8048    1.0000 </r>
       <r>   -2.0865    1.0000 </r>
       <r>   -2.0865    1.0000 </r>
       <r>   -0.8567    1.0000 </r>
       <r>   -0.8567    1.0000 </r>
       <r>    1.7756    1.0000 </r>
       <r>    1.7756    1.0000 </r>
       <r>    2.0054    1.0000 </r>
       <r>    2.0054    1.0000 </r>
       <r>    2.9433    1.0000 </r>
       <r>    2.9433    1.0000 </r>
       <r>    3.6559    1.0000 </r>
       <r>    3.6559    1.0000 </r>
       <r>    4.0301    1.0000 </r>
       <r>    4.0301    1.0000 </r>
       <r>    4.8157    1.0000 </r>
       <r>    4.8157    1.0000 </r>
       <r>    7.7710    0.0000 </r>
       <r>    7.7710    0.0000 </r>
       <r>    8.7661    0.0000 </r>
       <r>    8.7661    0.0000 </r>
       <r>    9.0253    0.0000 </r>
       <r>    9.0253    0.0000 </r>
       <r>    9.8936    0.0000 </r>
       <r>    9.8936    0.0000 </r>
       <r>   10.6496    0.0000 </r>
       <r>   10.6496    0.0000 </r>
       <r>   10.9780    0.0000 </r>
       <r>   10.9780    0.0000 </r>
       <r>   12.2949    0.0000 </r>
       <r>   12.2949    0.0000 </r>
       <r>   13.4981    0.0000 </r>
       <r>   13.4981    0.0000 </r>
       <r>   14.6818    0.0000 </r>
       <r>   14.6818    0.0000 </r>
       <r>   15.8853    0.0000 </r>
       <r>   15.8853    0.0000 </r>
       <r>   16.0287    0.0000 </r>
       <r>   16.0287    0.0000 </r>
       <r>   16.6230    0.0000 </r>
       <r>   16.6230    0.0000 </r>
      </set>
      <set comment="kpoint 41">
       <r>  -15.4032    1.0000 </r>
       <r>  -15.4015    1.0000 </r>
       <r>  -15.3982    1.0000 </r>
       <r>  -15.3962    1.0000 </r>
       <r>  -15.3904    1.0000 </r>
       <r>  -15.3902    1.0000 </r>
       <r>  -15.3898    1.0000 </r>
       <r>  -15.3896    1.0000 </r>
       <r>  -15.3874    1.0000 </r>
       <r>  -15.3832    1.0000 </r>
       <r>  -15.3714    1.0000 </r>
       <r>  -15.3684    1.0000 </r>
       <r>  -15.3598    1.0000 </r>
       <r>  -15.3569    1.0000 </r>
       <r>  -15.3425    1.0000 </r>
       <r>  -15.3418    1.0000 </r>
       <r>  -15.3324    1.0000 </r>
       <r>  -15.3291    1.0000 </r>
       <r>  -15.3170    1.0000 </r>
       <r>  -15.3162    1.0000 </r>
       <r>   -7.5256    1.0000 </r>
       <r>   -7.3889    1.0000 </r>
       <r>   -6.7864    1.0000 </r>
       <r>   -6.6638    1.0000 </r>
       <r>   -2.0131    1.0000 </r>
       <r>   -1.6504    1.0000 </r>
       <r>   -1.1487    1.0000 </r>
       <r>   -0.8539    1.0000 </r>
       <r>    1.7205    1.0000 </r>
       <r>    2.6647    1.0000 </r>
       <r>    2.8488    1.0000 </r>
       <r>    3.0845    1.0000 </r>
       <r>    3.2956    1.0000 </r>
       <r>    3.7207    1.0000 </r>
       <r>    3.9704    1.0000 </r>
       <r>    4.0280    1.0000 </r>
       <r>    4.3092    1.0000 </r>
       <r>    4.5047    1.0000 </r>
       <r>    5.3023    1.0000 </r>
       <r>    5.6012    1.0000 </r>
       <r>    6.6034    0.0000 </r>
       <r>    7.1269    0.0000 </r>
       <r>    7.8375    0.0000 </r>
       <r>    7.8724    0.0000 </r>
       <r>    8.3332    0.0000 </r>
       <r>    8.5522    0.0000 </r>
       <r>    8.5654    0.0000 </r>
       <r>    9.1028    0.0000 </r>
       <r>    9.3424    0.0000 </r>
       <r>    9.9526    0.0000 </r>
       <r>   10.0641    0.0000 </r>
       <r>   10.4874    0.0000 </r>
       <r>   12.4103    0.0000 </r>
       <r>   12.7531    0.0000 </r>
       <r>   12.7586    0.0000 </r>
       <r>   13.3994    0.0000 </r>
       <r>   13.7985    0.0000 </r>
       <r>   14.1075    0.0000 </r>
       <r>   14.4945    0.0000 </r>
       <r>   15.1006    0.0000 </r>
       <r>   15.1817    0.0000 </r>
       <r>   15.4158    0.0000 </r>
       <r>   16.3641    0.0000 </r>
       <r>   16.4807    0.0000 </r>
      </set>
      <set comment="kpoint 42">
       <r>  -15.4057    1.0000 </r>
       <r>  -15.4029    1.0000 </r>
       <r>  -15.4005    1.0000 </r>
       <r>  -15.3978    1.0000 </r>
       <r>  -15.3914    1.0000 </r>
       <r>  -15.3900    1.0000 </r>
       <r>  -15.3882    1.0000 </r>
       <r>  -15.3878    1.0000 </r>
       <r>  -15.3865    1.0000 </r>
       <r>  -15.3826    1.0000 </r>
       <r>  -15.3710    1.0000 </r>
       <r>  -15.3681    1.0000 </r>
       <r>  -15.3589    1.0000 </r>
       <r>  -15.3561    1.0000 </r>
       <r>  -15.3421    1.0000 </r>
       <r>  -15.3414    1.0000 </r>
       <r>  -15.3325    1.0000 </r>
       <r>  -15.3294    1.0000 </r>
       <r>  -15.3168    1.0000 </r>
       <r>  -15.3161    1.0000 </r>
       <r>   -7.4640    1.0000 </r>
       <r>   -7.3314    1.0000 </r>
       <r>   -6.7646    1.0000 </r>
       <r>   -6.6476    1.0000 </r>
       <r>   -1.9604    1.0000 </r>
       <r>   -1.5793    1.0000 </r>
       <r>   -1.1009    1.0000 </r>
       <r>   -0.8578    1.0000 </r>
       <r>    1.7100    1.0000 </r>
       <r>    1.9079    1.0000 </r>
       <r>    2.3680    1.0000 </r>
       <r>    2.8206    1.0000 </r>
       <r>    3.1552    1.0000 </r>
       <r>    3.4078    1.0000 </r>
       <r>    3.8749    1.0000 </r>
       <r>    4.2286    1.0000 </r>
       <r>    4.5985    1.0000 </r>
       <r>    4.6528    1.0000 </r>
       <r>    5.0617    1.0000 </r>
       <r>    5.1863    1.0000 </r>
       <r>    7.1400    0.0000 </r>
       <r>    7.2127    0.0000 </r>
       <r>    7.5636    0.0000 </r>
       <r>    7.7759    0.0000 </r>
       <r>    8.5186    0.0000 </r>
       <r>    8.8093    0.0000 </r>
       <r>    8.9404    0.0000 </r>
       <r>    9.3665    0.0000 </r>
       <r>    9.7520    0.0000 </r>
       <r>   10.2065    0.0000 </r>
       <r>   10.5461    0.0000 </r>
       <r>   10.7632    0.0000 </r>
       <r>   12.2647    0.0000 </r>
       <r>   12.8859    0.0000 </r>
       <r>   13.1891    0.0000 </r>
       <r>   13.5402    0.0000 </r>
       <r>   13.8639    0.0000 </r>
       <r>   13.8964    0.0000 </r>
       <r>   14.2790    0.0000 </r>
       <r>   14.9422    0.0000 </r>
       <r>   15.3029    0.0000 </r>
       <r>   15.4460    0.0000 </r>
       <r>   16.5018    0.0000 </r>
       <r>   16.6799    0.0000 </r>
      </set>
      <set comment="kpoint 43">
       <r>  -15.4106    1.0000 </r>
       <r>  -15.4075    1.0000 </r>
       <r>  -15.4046    1.0000 </r>
       <r>  -15.4021    1.0000 </r>
       <r>  -15.3919    1.0000 </r>
       <r>  -15.3905    1.0000 </r>
       <r>  -15.3855    1.0000 </r>
       <r>  -15.3853    1.0000 </r>
       <r>  -15.3842    1.0000 </r>
       <r>  -15.3814    1.0000 </r>
       <r>  -15.3703    1.0000 </r>
       <r>  -15.3676    1.0000 </r>
       <r>  -15.3561    1.0000 </r>
       <r>  -15.3539    1.0000 </r>
       <r>  -15.3411    1.0000 </r>
       <r>  -15.3404    1.0000 </r>
       <r>  -15.3325    1.0000 </r>
       <r>  -15.3301    1.0000 </r>
       <r>  -15.3164    1.0000 </r>
       <r>  -15.3159    1.0000 </r>
       <r>   -7.2962    1.0000 </r>
       <r>   -7.1761    1.0000 </r>
       <r>   -6.7223    1.0000 </r>
       <r>   -6.6196    1.0000 </r>
       <r>   -1.8479    1.0000 </r>
       <r>   -1.4484    1.0000 </r>
       <r>   -0.9772    1.0000 </r>
       <r>   -0.8607    1.0000 </r>
       <r>    1.1578    1.0000 </r>
       <r>    1.3688    1.0000 </r>
       <r>    2.1137    1.0000 </r>
       <r>    2.2358    1.0000 </r>
       <r>    2.4264    1.0000 </r>
       <r>    3.1058    1.0000 </r>
       <r>    3.6061    1.0000 </r>
       <r>    3.8518    1.0000 </r>
       <r>    3.9731    1.0000 </r>
       <r>    4.2992    1.0000 </r>
       <r>    4.7917    1.0000 </r>
       <r>    5.2123    1.0000 </r>
       <r>    7.3053    0.0000 </r>
       <r>    7.8861    0.0000 </r>
       <r>    8.2259    0.0000 </r>
       <r>    8.4222    0.0000 </r>
       <r>    8.7652    0.0000 </r>
       <r>    8.9459    0.0000 </r>
       <r>    9.7479    0.0000 </r>
       <r>   10.0067    0.0000 </r>
       <r>   10.1958    0.0000 </r>
       <r>   10.4790    0.0000 </r>
       <r>   11.4468    0.0000 </r>
       <r>   11.6747    0.0000 </r>
       <r>   12.1676    0.0000 </r>
       <r>   12.6559    0.0000 </r>
       <r>   13.3299    0.0000 </r>
       <r>   13.9486    0.0000 </r>
       <r>   14.1932    0.0000 </r>
       <r>   14.3032    0.0000 </r>
       <r>   14.6391    0.0000 </r>
       <r>   14.8832    0.0000 </r>
       <r>   15.4061    0.0000 </r>
       <r>   16.0007    0.0000 </r>
       <r>   16.1404    0.0000 </r>
       <r>   16.5256    0.0000 </r>
      </set>
      <set comment="kpoint 44">
       <r>  -15.4146    1.0000 </r>
       <r>  -15.4127    1.0000 </r>
       <r>  -15.4081    1.0000 </r>
       <r>  -15.4066    1.0000 </r>
       <r>  -15.3920    1.0000 </r>
       <r>  -15.3910    1.0000 </r>
       <r>  -15.3837    1.0000 </r>
       <r>  -15.3833    1.0000 </r>
       <r>  -15.3820    1.0000 </r>
       <r>  -15.3808    1.0000 </r>
       <r>  -15.3693    1.0000 </r>
       <r>  -15.3675    1.0000 </r>
       <r>  -15.3527    1.0000 </r>
       <r>  -15.3516    1.0000 </r>
       <r>  -15.3398    1.0000 </r>
       <r>  -15.3394    1.0000 </r>
       <r>  -15.3321    1.0000 </r>
       <r>  -15.3307    1.0000 </r>
       <r>  -15.3159    1.0000 </r>
       <r>  -15.3156    1.0000 </r>
       <r>   -7.0757    1.0000 </r>
       <r>   -6.9795    1.0000 </r>
       <r>   -6.7134    1.0000 </r>
       <r>   -6.6305    1.0000 </r>
       <r>   -1.7673    1.0000 </r>
       <r>   -1.5124    1.0000 </r>
       <r>   -0.7915    1.0000 </r>
       <r>   -0.7644    1.0000 </r>
       <r>    0.8617    1.0000 </r>
       <r>    1.0944    1.0000 </r>
       <r>    1.6580    1.0000 </r>
       <r>    1.8929    1.0000 </r>
       <r>    2.1983    1.0000 </r>
       <r>    2.6267    1.0000 </r>
       <r>    2.8412    1.0000 </r>
       <r>    3.4556    1.0000 </r>
       <r>    3.7110    1.0000 </r>
       <r>    4.0739    1.0000 </r>
       <r>    4.4425    1.0000 </r>
       <r>    4.7806    1.0000 </r>
       <r>    7.5994    0.0000 </r>
       <r>    8.2390    0.0000 </r>
       <r>    8.8487    0.0000 </r>
       <r>    9.0635    0.0000 </r>
       <r>    9.1517    0.0000 </r>
       <r>    9.5547    0.0000 </r>
       <r>   10.5415    0.0000 </r>
       <r>   10.6290    0.0000 </r>
       <r>   10.7509    0.0000 </r>
       <r>   10.9215    0.0000 </r>
       <r>   11.9312    0.0000 </r>
       <r>   12.0025    0.0000 </r>
       <r>   12.1442    0.0000 </r>
       <r>   12.3564    0.0000 </r>
       <r>   13.1482    0.0000 </r>
       <r>   13.4848    0.0000 </r>
       <r>   14.9799    0.0000 </r>
       <r>   15.3664    0.0000 </r>
       <r>   15.5201    0.0000 </r>
       <r>   15.5348    0.0000 </r>
       <r>   16.0129    0.0000 </r>
       <r>   16.1799    0.0000 </r>
       <r>   16.4125    0.0000 </r>
       <r>   16.7532    0.0000 </r>
      </set>
      <set comment="kpoint 45">
       <r>  -15.4156    1.0000 </r>
       <r>  -15.4156    1.0000 </r>
       <r>  -15.4090    1.0000 </r>
       <r>  -15.4090    1.0000 </r>
       <r>  -15.3916    1.0000 </r>
       <r>  -15.3916    1.0000 </r>
       <r>  -15.3829    1.0000 </r>
       <r>  -15.3829    1.0000 </r>
       <r>  -15.3809    1.0000 </r>
       <r>  -15.3809    1.0000 </r>
       <r>  -15.3682    1.0000 </r>
       <r>  -15.3682    1.0000 </r>
       <r>  -15.3510    1.0000 </r>
       <r>  -15.3510    1.0000 </r>
       <r>  -15.3391    1.0000 </r>
       <r>  -15.3391    1.0000 </r>
       <r>  -15.3314    1.0000 </r>
       <r>  -15.3314    1.0000 </r>
       <r>  -15.3156    1.0000 </r>
       <r>  -15.3156    1.0000 </r>
       <r>   -6.9046    1.0000 </r>
       <r>   -6.9046    1.0000 </r>
       <r>   -6.7056    1.0000 </r>
       <r>   -6.7056    1.0000 </r>
       <r>   -1.6797    1.0000 </r>
       <r>   -1.6797    1.0000 </r>
       <r>   -0.6884    1.0000 </r>
       <r>   -0.6884    1.0000 </r>
       <r>    1.0744    1.0000 </r>
       <r>    1.0744    1.0000 </r>
       <r>    1.3553    1.0000 </r>
       <r>    1.3553    1.0000 </r>
       <r>    2.3268    1.0000 </r>
       <r>    2.3268    1.0000 </r>
       <r>    2.9387    1.0000 </r>
       <r>    2.9387    1.0000 </r>
       <r>    3.7765    1.0000 </r>
       <r>    3.7765    1.0000 </r>
       <r>    4.5080    1.0000 </r>
       <r>    4.5080    1.0000 </r>
       <r>    7.8535    0.0000 </r>
       <r>    7.8535    0.0000 </r>
       <r>    9.1415    0.0000 </r>
       <r>    9.1415    0.0000 </r>
       <r>   10.0988    0.0000 </r>
       <r>   10.0988    0.0000 </r>
       <r>   10.3153    0.0000 </r>
       <r>   10.3153    0.0000 </r>
       <r>   11.4717    0.0000 </r>
       <r>   11.4717    0.0000 </r>
       <r>   11.8678    0.0000 </r>
       <r>   11.8678    0.0000 </r>
       <r>   12.2868    0.0000 </r>
       <r>   12.2868    0.0000 </r>
       <r>   13.2053    0.0000 </r>
       <r>   13.2053    0.0000 </r>
       <r>   15.1140    0.0000 </r>
       <r>   15.1140    0.0000 </r>
       <r>   16.3755    0.0000 </r>
       <r>   16.3755    0.0000 </r>
       <r>   16.6355    0.0000 </r>
       <r>   16.6355    0.0000 </r>
       <r>   17.1911    0.0000 </r>
       <r>   17.1911    0.0000 </r>
      </set>
      <set comment="kpoint 46">
       <r>  -15.4046    1.0000 </r>
       <r>  -15.4028    1.0000 </r>
       <r>  -15.4019    1.0000 </r>
       <r>  -15.3999    1.0000 </r>
       <r>  -15.3902    1.0000 </r>
       <r>  -15.3897    1.0000 </r>
       <r>  -15.3897    1.0000 </r>
       <r>  -15.3884    1.0000 </r>
       <r>  -15.3787    1.0000 </r>
       <r>  -15.3756    1.0000 </r>
       <r>  -15.3716    1.0000 </r>
       <r>  -15.3714    1.0000 </r>
       <r>  -15.3548    1.0000 </r>
       <r>  -15.3525    1.0000 </r>
       <r>  -15.3486    1.0000 </r>
       <r>  -15.3477    1.0000 </r>
       <r>  -15.3265    1.0000 </r>
       <r>  -15.3241    1.0000 </r>
       <r>  -15.3208    1.0000 </r>
       <r>  -15.3198    1.0000 </r>
       <r>   -7.1725    1.0000 </r>
       <r>   -7.0948    1.0000 </r>
       <r>   -6.8714    1.0000 </r>
       <r>   -6.8578    1.0000 </r>
       <r>   -2.0638    1.0000 </r>
       <r>   -1.7635    1.0000 </r>
       <r>   -1.6992    1.0000 </r>
       <r>   -1.4088    1.0000 </r>
       <r>    2.2367    1.0000 </r>
       <r>    2.7949    1.0000 </r>
       <r>    3.1659    1.0000 </r>
       <r>    3.4187    1.0000 </r>
       <r>    3.4240    1.0000 </r>
       <r>    3.8385    1.0000 </r>
       <r>    3.8529    1.0000 </r>
       <r>    3.8894    1.0000 </r>
       <r>    4.5556    1.0000 </r>
       <r>    4.7320    1.0000 </r>
       <r>    5.1062    1.0000 </r>
       <r>    5.2275    1.0000 </r>
       <r>    6.8383    0.0000 </r>
       <r>    7.0436    0.0000 </r>
       <r>    7.3380    0.0000 </r>
       <r>    7.5381    0.0000 </r>
       <r>    7.8368    0.0000 </r>
       <r>    8.0253    0.0000 </r>
       <r>    8.0341    0.0000 </r>
       <r>    8.3593    0.0000 </r>
       <r>    8.9698    0.0000 </r>
       <r>    9.3874    0.0000 </r>
       <r>   10.2068    0.0000 </r>
       <r>   10.3751    0.0000 </r>
       <r>   13.2153    0.0000 </r>
       <r>   13.5522    0.0000 </r>
       <r>   13.9465    0.0000 </r>
       <r>   14.0033    0.0000 </r>
       <r>   14.4477    0.0000 </r>
       <r>   14.5297    0.0000 </r>
       <r>   14.7300    0.0000 </r>
       <r>   15.1419    0.0000 </r>
       <r>   15.7847    0.0000 </r>
       <r>   15.8041    0.0000 </r>
       <r>   16.0351    0.0000 </r>
       <r>   16.3222    0.0000 </r>
      </set>
      <set comment="kpoint 47">
       <r>  -15.4071    1.0000 </r>
       <r>  -15.4054    1.0000 </r>
       <r>  -15.4036    1.0000 </r>
       <r>  -15.4019    1.0000 </r>
       <r>  -15.3902    1.0000 </r>
       <r>  -15.3900    1.0000 </r>
       <r>  -15.3882    1.0000 </r>
       <r>  -15.3877    1.0000 </r>
       <r>  -15.3779    1.0000 </r>
       <r>  -15.3752    1.0000 </r>
       <r>  -15.3715    1.0000 </r>
       <r>  -15.3710    1.0000 </r>
       <r>  -15.3538    1.0000 </r>
       <r>  -15.3519    1.0000 </r>
       <r>  -15.3477    1.0000 </r>
       <r>  -15.3469    1.0000 </r>
       <r>  -15.3265    1.0000 </r>
       <r>  -15.3244    1.0000 </r>
       <r>  -15.3206    1.0000 </r>
       <r>  -15.3198    1.0000 </r>
       <r>   -7.1231    1.0000 </r>
       <r>   -7.0488    1.0000 </r>
       <r>   -6.8391    1.0000 </r>
       <r>   -6.8250    1.0000 </r>
       <r>   -1.9690    1.0000 </r>
       <r>   -1.6798    1.0000 </r>
       <r>   -1.6052    1.0000 </r>
       <r>   -1.3474    1.0000 </r>
       <r>    2.1508    1.0000 </r>
       <r>    2.2944    1.0000 </r>
       <r>    2.6103    1.0000 </r>
       <r>    2.8698    1.0000 </r>
       <r>    3.0486    1.0000 </r>
       <r>    3.4580    1.0000 </r>
       <r>    3.6436    1.0000 </r>
       <r>    4.0235    1.0000 </r>
       <r>    4.4323    1.0000 </r>
       <r>    4.7249    1.0000 </r>
       <r>    4.7590    1.0000 </r>
       <r>    5.0254    1.0000 </r>
       <r>    7.1169    0.0000 </r>
       <r>    7.1753    0.0000 </r>
       <r>    7.3455    0.0000 </r>
       <r>    7.6086    0.0000 </r>
       <r>    8.4276    0.0000 </r>
       <r>    8.6944    0.0000 </r>
       <r>    8.8635    0.0000 </r>
       <r>    9.2416    0.0000 </r>
       <r>    9.3280    0.0000 </r>
       <r>    9.9343    0.0000 </r>
       <r>   10.2083    0.0000 </r>
       <r>   10.3010    0.0000 </r>
       <r>   12.4581    0.0000 </r>
       <r>   12.8364    0.0000 </r>
       <r>   13.8588    0.0000 </r>
       <r>   14.2590    0.0000 </r>
       <r>   14.6451    0.0000 </r>
       <r>   14.8519    0.0000 </r>
       <r>   14.9530    0.0000 </r>
       <r>   15.5042    0.0000 </r>
       <r>   15.8988    0.0000 </r>
       <r>   16.0062    0.0000 </r>
       <r>   16.4906    0.0000 </r>
       <r>   16.8046    0.0000 </r>
      </set>
      <set comment="kpoint 48">
       <r>  -15.4127    1.0000 </r>
       <r>  -15.4113    1.0000 </r>
       <r>  -15.4081    1.0000 </r>
       <r>  -15.4068    1.0000 </r>
       <r>  -15.3903    1.0000 </r>
       <r>  -15.3895    1.0000 </r>
       <r>  -15.3865    1.0000 </r>
       <r>  -15.3861    1.0000 </r>
       <r>  -15.3761    1.0000 </r>
       <r>  -15.3744    1.0000 </r>
       <r>  -15.3709    1.0000 </r>
       <r>  -15.3702    1.0000 </r>
       <r>  -15.3513    1.0000 </r>
       <r>  -15.3500    1.0000 </r>
       <r>  -15.3454    1.0000 </r>
       <r>  -15.3449    1.0000 </r>
       <r>  -15.3265    1.0000 </r>
       <r>  -15.3249    1.0000 </r>
       <r>  -15.3201    1.0000 </r>
       <r>  -15.3196    1.0000 </r>
       <r>   -6.9936    1.0000 </r>
       <r>   -6.9296    1.0000 </r>
       <r>   -6.7630    1.0000 </r>
       <r>   -6.7469    1.0000 </r>
       <r>   -1.7084    1.0000 </r>
       <r>   -1.4554    1.0000 </r>
       <r>   -1.3455    1.0000 </r>
       <r>   -1.1873    1.0000 </r>
       <r>    1.3639    1.0000 </r>
       <r>    1.6196    1.0000 </r>
       <r>    1.9191    1.0000 </r>
       <r>    2.1102    1.0000 </r>
       <r>    2.4695    1.0000 </r>
       <r>    2.9432    1.0000 </r>
       <r>    3.1308    1.0000 </r>
       <r>    3.5729    1.0000 </r>
       <r>    3.7554    1.0000 </r>
       <r>    4.1324    1.0000 </r>
       <r>    4.3921    1.0000 </r>
       <r>    4.7860    1.0000 </r>
       <r>    7.5303    0.0000 </r>
       <r>    7.9016    0.0000 </r>
       <r>    8.4609    0.0000 </r>
       <r>    8.7437    0.0000 </r>
       <r>    9.0826    0.0000 </r>
       <r>    9.1896    0.0000 </r>
       <r>    9.6438    0.0000 </r>
       <r>    9.7760    0.0000 </r>
       <r>   10.4051    0.0000 </r>
       <r>   10.6538    0.0000 </r>
       <r>   11.0428    0.0000 </r>
       <r>   11.4043    0.0000 </r>
       <r>   12.0925    0.0000 </r>
       <r>   12.2587    0.0000 </r>
       <r>   13.5171    0.0000 </r>
       <r>   13.6161    0.0000 </r>
       <r>   14.9284    0.0000 </r>
       <r>   15.2680    0.0000 </r>
       <r>   15.4182    0.0000 </r>
       <r>   15.9947    0.0000 </r>
       <r>   16.3534    0.0000 </r>
       <r>   16.5210    0.0000 </r>
       <r>   16.9240    0.0000 </r>
       <r>   17.2052    0.0000 </r>
      </set>
      <set comment="kpoint 49">
       <r>  -15.4179    1.0000 </r>
       <r>  -15.4170    1.0000 </r>
       <r>  -15.4125    1.0000 </r>
       <r>  -15.4118    1.0000 </r>
       <r>  -15.3903    1.0000 </r>
       <r>  -15.3896    1.0000 </r>
       <r>  -15.3855    1.0000 </r>
       <r>  -15.3850    1.0000 </r>
       <r>  -15.3745    1.0000 </r>
       <r>  -15.3737    1.0000 </r>
       <r>  -15.3701    1.0000 </r>
       <r>  -15.3696    1.0000 </r>
       <r>  -15.3484    1.0000 </r>
       <r>  -15.3478    1.0000 </r>
       <r>  -15.3431    1.0000 </r>
       <r>  -15.3428    1.0000 </r>
       <r>  -15.3262    1.0000 </r>
       <r>  -15.3254    1.0000 </r>
       <r>  -15.3197    1.0000 </r>
       <r>  -15.3194    1.0000 </r>
       <r>   -6.8393    1.0000 </r>
       <r>   -6.7931    1.0000 </r>
       <r>   -6.6963    1.0000 </r>
       <r>   -6.6771    1.0000 </r>
       <r>   -1.3903    1.0000 </r>
       <r>   -1.2287    1.0000 </r>
       <r>   -1.0173    1.0000 </r>
       <r>   -0.9481    1.0000 </r>
       <r>    0.7882    1.0000 </r>
       <r>    1.1383    1.0000 </r>
       <r>    1.1980    1.0000 </r>
       <r>    1.6233    1.0000 </r>
       <r>    1.8390    1.0000 </r>
       <r>    2.2162    1.0000 </r>
       <r>    2.3669    1.0000 </r>
       <r>    2.8510    1.0000 </r>
       <r>    3.6696    1.0000 </r>
       <r>    3.9824    1.0000 </r>
       <r>    4.3660    1.0000 </r>
       <r>    4.5328    1.0000 </r>
       <r>    7.8417    0.0000 </r>
       <r>    8.1677    0.0000 </r>
       <r>    8.5851    0.0000 </r>
       <r>    8.8835    0.0000 </r>
       <r>    9.9742    0.0000 </r>
       <r>   10.0264    0.0000 </r>
       <r>   10.4458    0.0000 </r>
       <r>   10.5729    0.0000 </r>
       <r>   11.5603    0.0000 </r>
       <r>   11.8274    0.0000 </r>
       <r>   12.1427    0.0000 </r>
       <r>   12.1598    0.0000 </r>
       <r>   12.2599    0.0000 </r>
       <r>   12.5044    0.0000 </r>
       <r>   13.1607    0.0000 </r>
       <r>   13.2921    0.0000 </r>
       <r>   15.1622    0.0000 </r>
       <r>   15.3681    0.0000 </r>
       <r>   16.1622    0.0000 </r>
       <r>   16.3620    0.0000 </r>
       <r>   16.8133    0.0000 </r>
       <r>   16.9286    0.0000 </r>
       <r>   17.1073    0.0000 </r>
       <r>   17.1541    0.0000 </r>
      </set>
      <set comment="kpoint 50">
       <r>  -15.4196    1.0000 </r>
       <r>  -15.4196    1.0000 </r>
       <r>  -15.4141    1.0000 </r>
       <r>  -15.4141    1.0000 </r>
       <r>  -15.3901    1.0000 </r>
       <r>  -15.3901    1.0000 </r>
       <r>  -15.3849    1.0000 </r>
       <r>  -15.3849    1.0000 </r>
       <r>  -15.3737    1.0000 </r>
       <r>  -15.3737    1.0000 </r>
       <r>  -15.3695    1.0000 </r>
       <r>  -15.3695    1.0000 </r>
       <r>  -15.3470    1.0000 </r>
       <r>  -15.3470    1.0000 </r>
       <r>  -15.3420    1.0000 </r>
       <r>  -15.3420    1.0000 </r>
       <r>  -15.3258    1.0000 </r>
       <r>  -15.3258    1.0000 </r>
       <r>  -15.3194    1.0000 </r>
       <r>  -15.3194    1.0000 </r>
       <r>   -6.7415    1.0000 </r>
       <r>   -6.7415    1.0000 </r>
       <r>   -6.6689    1.0000 </r>
       <r>   -6.6689    1.0000 </r>
       <r>   -1.2078    1.0000 </r>
       <r>   -1.2078    1.0000 </r>
       <r>   -0.8002    1.0000 </r>
       <r>   -0.8002    1.0000 </r>
       <r>    0.7439    1.0000 </r>
       <r>    0.7439    1.0000 </r>
       <r>    1.1698    1.0000 </r>
       <r>    1.1698    1.0000 </r>
       <r>    1.7349    1.0000 </r>
       <r>    1.7349    1.0000 </r>
       <r>    2.2758    1.0000 </r>
       <r>    2.2758    1.0000 </r>
       <r>    3.8742    1.0000 </r>
       <r>    3.8742    1.0000 </r>
       <r>    4.4099    1.0000 </r>
       <r>    4.4099    1.0000 </r>
       <r>    8.0294    0.0000 </r>
       <r>    8.0294    0.0000 </r>
       <r>    8.5753    0.0000 </r>
       <r>    8.5753    0.0000 </r>
       <r>   10.6186    0.0000 </r>
       <r>   10.6186    0.0000 </r>
       <r>   10.7997    0.0000 </r>
       <r>   10.7997    0.0000 </r>
       <r>   12.2144    0.0000 </r>
       <r>   12.2144    0.0000 </r>
       <r>   12.5027    0.0000 </r>
       <r>   12.5027    0.0000 </r>
       <r>   12.6145    0.0000 </r>
       <r>   12.6145    0.0000 </r>
       <r>   13.1804    0.0000 </r>
       <r>   13.1804    0.0000 </r>
       <r>   15.4351    0.0000 </r>
       <r>   15.4351    0.0000 </r>
       <r>   16.3649    0.0000 </r>
       <r>   16.3649    0.0000 </r>
       <r>   16.9477    0.0000 </r>
       <r>   16.9477    0.0000 </r>
       <r>   17.1614    0.0000 </r>
       <r>   17.1614    0.0000 </r>
      </set>
     </set>
    </set>
   </array>
  </eigenvalues>
  <separator name="orbital magnetization" >
   <v name="MAGDIPOLOUT">      0.00000000      0.00000000      0.00000000</v>
  </separator>
  <dos>
   <i name="efermi">      5.97049537 </i>
   <total>
    <array>
     <dimension dim="1">gridpoints</dimension>
     <dimension dim="2">spin</dimension>
     <field>energy</field>
     <field>total</field>
     <field>integrated</field>
     <set>
      <set comment="spin 1">
       <r>   -17.0832     0.0000     0.0000 </r>
       <r>   -16.9614     0.0000     0.0000 </r>
       <r>   -16.8396     0.0000     0.0000 </r>
       <r>   -16.7178     0.0000     0.0000 </r>
       <r>   -16.5960     0.0000     0.0000 </r>
       <r>   -16.4741     0.0000     0.0000 </r>
       <r>   -16.3523     0.0000     0.0000 </r>
       <r>   -16.2305     0.0000     0.0000 </r>
       <r>   -16.1087     0.0000     0.0000 </r>
       <r>   -15.9869     0.0000     0.0000 </r>
       <r>   -15.8651     0.0000     0.0000 </r>
       <r>   -15.7432     0.0000     0.0000 </r>
       <r>   -15.6214     0.0000     0.0000 </r>
       <r>   -15.4996     0.0000     0.0000 </r>
       <r>   -15.3778   155.8044    18.9795 </r>
       <r>   -15.2560    65.9007    40.0000 </r>
       <r>   -15.1342     0.0000    40.0000 </r>
       <r>   -15.0123     0.0000    40.0000 </r>
       <r>   -14.8905     0.0000    40.0000 </r>
       <r>   -14.7687     0.0000    40.0000 </r>
       <r>   -14.6469     0.0000    40.0000 </r>
       <r>   -14.5251     0.0000    40.0000 </r>
       <r>   -14.4033     0.0000    40.0000 </r>
       <r>   -14.2815     0.0000    40.0000 </r>
       <r>   -14.1596     0.0000    40.0000 </r>
       <r>   -14.0378     0.0000    40.0000 </r>
       <r>   -13.9160     0.0000    40.0000 </r>
       <r>   -13.7942     0.0000    40.0000 </r>
       <r>   -13.6724     0.0000    40.0000 </r>
       <r>   -13.5506     0.0000    40.0000 </r>
       <r>   -13.4287     0.0000    40.0000 </r>
       <r>   -13.3069     0.0000    40.0000 </r>
       <r>   -13.1851     0.0000    40.0000 </r>
       <r>   -13.0633     0.0000    40.0000 </r>
       <r>   -12.9415     0.0000    40.0000 </r>
       <r>   -12.8197     0.0000    40.0000 </r>
       <r>   -12.6978     0.0000    40.0000 </r>
       <r>   -12.5760     0.0000    40.0000 </r>
       <r>   -12.4542     0.0000    40.0000 </r>
       <r>   -12.3324     0.0000    40.0000 </r>
       <r>   -12.2106     0.0000    40.0000 </r>
       <r>   -12.0888     0.0000    40.0000 </r>
       <r>   -11.9669     0.0000    40.0000 </r>
       <r>   -11.8451     0.0000    40.0000 </r>
       <r>   -11.7233     0.0000    40.0000 </r>
       <r>   -11.6015     0.0000    40.0000 </r>
       <r>   -11.4797     0.0000    40.0000 </r>
       <r>   -11.3579     0.0000    40.0000 </r>
       <r>   -11.2360     0.0000    40.0000 </r>
       <r>   -11.1142     0.0000    40.0000 </r>
       <r>   -10.9924     0.0000    40.0000 </r>
       <r>   -10.8706     0.0000    40.0000 </r>
       <r>   -10.7488     0.0000    40.0000 </r>
       <r>   -10.6270     0.0000    40.0000 </r>
       <r>   -10.5051     0.0000    40.0000 </r>
       <r>   -10.3833     0.0000    40.0000 </r>
       <r>   -10.2615     0.0000    40.0000 </r>
       <r>   -10.1397     0.0000    40.0000 </r>
       <r>   -10.0179     0.0000    40.0000 </r>
       <r>    -9.8961     0.0000    40.0000 </r>
       <r>    -9.7743     0.0000    40.0000 </r>
       <r>    -9.6524     0.0000    40.0000 </r>
       <r>    -9.5306     0.0000    40.0000 </r>
       <r>    -9.4088     0.0000    40.0000 </r>
       <r>    -9.2870     0.0000    40.0000 </r>
       <r>    -9.1652     0.0000    40.0000 </r>
       <r>    -9.0434     0.0000    40.0000 </r>
       <r>    -8.9215     0.0000    40.0000 </r>
       <r>    -8.7997     0.0000    40.0000 </r>
       <r>    -8.6779     0.0000    40.0000 </r>
       <r>    -8.5561     0.0000    40.0000 </r>
       <r>    -8.4343     0.0000    40.0000 </r>
       <r>    -8.3125     0.0000    40.0000 </r>
       <r>    -8.1906     0.0016    40.0002 </r>
       <r>    -8.0688     0.4561    40.0648 </r>
       <r>    -7.9470     0.5965    40.2486 </r>
       <r>    -7.8252     1.6331    40.4675 </r>
       <r>    -7.7034     1.9755    40.7684 </r>
       <r>    -7.5816     2.5941    41.1123 </r>
       <r>    -7.4597     2.8510    41.5510 </r>
       <r>    -7.3379     1.3902    41.8545 </r>
       <r>    -7.2161     2.2730    42.4065 </r>
       <r>    -7.0943     2.1781    42.8764 </r>
       <r>    -6.9725     3.9176    43.5976 </r>
       <r>    -6.8507     7.8841    44.7104 </r>
       <r>    -6.7288     8.6910    46.1420 </r>
       <r>    -6.6070     7.6360    47.4765 </r>
       <r>    -6.4852     1.8894    47.9987 </r>
       <r>    -6.3634     0.0000    48.0000 </r>
       <r>    -6.2416     0.0000    48.0000 </r>
       <r>    -6.1198     0.0000    48.0000 </r>
       <r>    -5.9979     0.0000    48.0000 </r>
       <r>    -5.8761     0.0000    48.0000 </r>
       <r>    -5.7543     0.0000    48.0000 </r>
       <r>    -5.6325     0.0000    48.0000 </r>
       <r>    -5.5107     0.0000    48.0000 </r>
       <r>    -5.3889     0.0000    48.0000 </r>
       <r>    -5.2671     0.0000    48.0000 </r>
       <r>    -5.1452     0.0000    48.0000 </r>
       <r>    -5.0234     0.0000    48.0000 </r>
       <r>    -4.9016     0.0000    48.0000 </r>
       <r>    -4.7798     0.0000    48.0000 </r>
       <r>    -4.6580     0.0000    48.0000 </r>
       <r>    -4.5362     0.0000    48.0000 </r>
       <r>    -4.4143     0.0000    48.0000 </r>
       <r>    -4.2925     0.0000    48.0000 </r>
       <r>    -4.1707     0.0000    48.0000 </r>
       <r>    -4.0489     0.0000    48.0000 </r>
       <r>    -3.9271     0.0000    48.0000 </r>
       <r>    -3.8053     0.0000    48.0000 </r>
       <r>    -3.6834     0.0000    48.0000 </r>
       <r>    -3.5616     0.0000    48.0000 </r>
       <r>    -3.4398     0.0000    48.0000 </r>
       <r>    -3.3180     0.0000    48.0000 </r>
       <r>    -3.1962     0.0000    48.0000 </r>
       <r>    -3.0744     0.0000    48.0000 </r>
       <r>    -2.9525     0.0000    48.0000 </r>
       <r>    -2.8307     0.0000    48.0000 </r>
       <r>    -2.7089     0.0000    48.0000 </r>
       <r>    -2.5871     0.1419    48.0173 </r>
       <r>    -2.4653     0.4575    48.0742 </r>
       <r>    -2.3435     1.4300    48.3223 </r>
       <r>    -2.2216     0.7330    48.4226 </r>
       <r>    -2.0998     2.3273    48.7279 </r>
       <r>    -1.9780     1.8904    49.1007 </r>
       <r>    -1.8562     1.2834    49.4897 </r>
       <r>    -1.7344     2.0347    49.9516 </r>
       <r>    -1.6126     2.6481    50.4522 </r>
       <r>    -1.4907     1.3742    50.9081 </r>
       <r>    -1.3689     2.5386    51.3741 </r>
       <r>    -1.2471     0.6115    51.7134 </r>
       <r>    -1.1253     2.6252    52.2920 </r>
       <r>    -1.0035     2.7528    52.8261 </r>
       <r>    -0.8817     1.5487    53.2535 </r>
       <r>    -0.7599     3.8035    54.0652 </r>
       <r>    -0.6380     2.1410    54.5478 </r>
       <r>    -0.5162     1.4749    54.7815 </r>
       <r>    -0.3944     1.6233    55.0774 </r>
       <r>    -0.2726     1.4736    55.2999 </r>
       <r>    -0.1508     1.1523    55.4644 </r>
       <r>    -0.0290     0.3040    55.5370 </r>
       <r>     0.0929     0.3141    55.5938 </r>
       <r>     0.2147     0.0000    55.6574 </r>
       <r>     0.3365     1.2162    55.8056 </r>
       <r>     0.4583     0.6803    55.8884 </r>
       <r>     0.5801     0.6081    55.9907 </r>
       <r>     0.7019     0.0076    56.0287 </r>
       <r>     0.8238     1.5019    56.2663 </r>
       <r>     0.9456     0.6532    56.4499 </r>
       <r>     1.0674     1.0853    56.6507 </r>
       <r>     1.1892     2.6451    57.1093 </r>
       <r>     1.3110     2.1286    57.4908 </r>
       <r>     1.4328     4.4511    58.0885 </r>
       <r>     1.5547     2.1148    58.4706 </r>
       <r>     1.6765     1.8219    58.8793 </r>
       <r>     1.7983     2.5992    59.3074 </r>
       <r>     1.9201     3.4145    59.9437 </r>
       <r>     2.0419     2.5233    60.3722 </r>
       <r>     2.1637     3.6108    60.9676 </r>
       <r>     2.2856     4.7905    61.7780 </r>
       <r>     2.4074     3.4318    62.5014 </r>
       <r>     2.5292     2.3626    62.9915 </r>
       <r>     2.6510     4.5325    63.7188 </r>
       <r>     2.7728     1.4263    64.0626 </r>
       <r>     2.8946     3.9129    64.7174 </r>
       <r>     3.0165     4.9005    65.5414 </r>
       <r>     3.1383     3.0153    66.0710 </r>
       <r>     3.2601     2.8206    66.6584 </r>
       <r>     3.3819     3.7997    67.4073 </r>
       <r>     3.5037     5.9956    68.4433 </r>
       <r>     3.6255     3.9925    68.9771 </r>
       <r>     3.7473     4.5051    69.8173 </r>
       <r>     3.8692     2.9731    70.4455 </r>
       <r>     3.9910     4.3163    71.2943 </r>
       <r>     4.1128     5.3841    72.2670 </r>
       <r>     4.2346     2.5753    72.9063 </r>
       <r>     4.3564     4.0718    73.5423 </r>
       <r>     4.4782     2.9049    74.2150 </r>
       <r>     4.6001     2.1017    74.8394 </r>
       <r>     4.7219     2.2847    75.2783 </r>
       <r>     4.8437     4.6907    76.2010 </r>
       <r>     4.9655     2.4422    76.5753 </r>
       <r>     5.0873     4.1322    77.2811 </r>
       <r>     5.2091     4.4861    78.0280 </r>
       <r>     5.3310     5.4829    79.0105 </r>
       <r>     5.4528     4.4363    79.6515 </r>
       <r>     5.5746     0.6280    79.7617 </r>
       <r>     5.6964     0.6135    79.8895 </r>
       <r>     5.8182     0.2462    79.9559 </r>
       <r>     5.9400     0.1520    80.0000 </r>
       <r>     6.0619     0.0000    80.0000 </r>
       <r>     6.1837     0.0000    80.0000 </r>
       <r>     6.3055     0.0133    80.0016 </r>
       <r>     6.4273     0.3086    80.0839 </r>
       <r>     6.5491     0.6080    80.1759 </r>
       <r>     6.6709     1.1106    80.3112 </r>
       <r>     6.7928     1.3189    80.4847 </r>
       <r>     6.9146     1.4051    80.7175 </r>
       <r>     7.0364     0.5035    80.8484 </r>
       <r>     7.1582     3.8060    81.4359 </r>
       <r>     7.2800     2.8466    81.9486 </r>
       <r>     7.4018     2.7252    82.5635 </r>
       <r>     7.5237     1.6337    82.9675 </r>
       <r>     7.6455     3.6461    83.6201 </r>
       <r>     7.7673     1.6950    84.1046 </r>
       <r>     7.8891     4.2240    84.8571 </r>
       <r>     8.0109     1.4714    85.2811 </r>
       <r>     8.1327     0.4593    85.6948 </r>
       <r>     8.2545     4.6601    86.3732 </r>
       <r>     8.3764     2.6699    86.8715 </r>
       <r>     8.4982     4.2295    87.5060 </r>
       <r>     8.6200     2.9871    88.1509 </r>
       <r>     8.7418     3.4417    88.7433 </r>
       <r>     8.8636     3.8930    89.5298 </r>
       <r>     8.9854     5.2268    90.5534 </r>
       <r>     9.1073     4.9622    91.4563 </r>
       <r>     9.2291     3.5883    92.0297 </r>
       <r>     9.3509     5.2062    92.7360 </r>
       <r>     9.4727     3.5253    93.3368 </r>
       <r>     9.5945     1.1198    93.6734 </r>
       <r>     9.7163     2.1282    94.1111 </r>
       <r>     9.8382     1.9764    94.5185 </r>
       <r>     9.9600     5.1545    95.2205 </r>
       <r>    10.0818     3.6477    95.8703 </r>
       <r>    10.2036     2.8215    96.3159 </r>
       <r>    10.3254     4.1117    97.0842 </r>
       <r>    10.4472     4.1038    97.7129 </r>
       <r>    10.5691     2.9278    98.4307 </r>
       <r>    10.6909     4.3965    99.2115 </r>
       <r>    10.8127     4.9387    99.9812 </r>
       <r>    10.9345     3.2088   100.6687 </r>
       <r>    11.0563     5.2067   101.5046 </r>
       <r>    11.1781     1.6722   101.8704 </r>
       <r>    11.3000     1.8584   102.2079 </r>
       <r>    11.4218     2.7254   102.6838 </r>
       <r>    11.5436     2.6199   103.2543 </r>
       <r>    11.6654     1.7300   103.6459 </r>
       <r>    11.7872     2.5086   104.1297 </r>
       <r>    11.9090     2.6082   104.6140 </r>
       <r>    12.0309     2.8649   105.0897 </r>
       <r>    12.1527     4.1036   105.6388 </r>
       <r>    12.2745     5.0248   106.4547 </r>
       <r>    12.3963     1.9859   106.9178 </r>
       <r>    12.5181     2.9331   107.3666 </r>
       <r>    12.6399     2.5336   107.7068 </r>
       <r>    12.7617     3.3450   108.3890 </r>
       <r>    12.8836     2.7161   108.8586 </r>
       <r>    13.0054     3.4977   109.5279 </r>
       <r>    13.1272     2.3138   109.8652 </r>
       <r>    13.2490     4.1297   110.5864 </r>
       <r>    13.3708     2.8212   110.9826 </r>
       <r>    13.4926     2.0028   111.5125 </r>
       <r>    13.6145     2.5917   111.9916 </r>
       <r>    13.7363     0.4285   112.2189 </r>
       <r>    13.8581     2.2150   112.6772 </r>
       <r>    13.9799     4.1645   113.5814 </r>
       <r>    14.1017     1.6946   114.0953 </r>
       <r>    14.2235     4.3588   114.7532 </r>
       <r>    14.3454     3.3913   115.2464 </r>
       <r>    14.4672     2.0007   115.7437 </r>
       <r>    14.5890     2.4418   116.1493 </r>
       <r>    14.7108     4.6921   116.8216 </r>
       <r>    14.8326     1.8129   117.2579 </r>
       <r>    14.9544     4.2711   118.0018 </r>
       <r>    15.0763     1.0643   118.2408 </r>
       <r>    15.1981     3.7145   118.8414 </r>
       <r>    15.3199     4.8453   119.6643 </r>
       <r>    15.4417     5.6907   120.5080 </r>
       <r>    15.5635     4.5074   121.2528 </r>
       <r>    15.6853     1.5739   121.7102 </r>
       <r>    15.8072     4.8244   122.4766 </r>
       <r>    15.9290     3.2773   122.9363 </r>
       <r>    16.0508     5.6565   123.8557 </r>
       <r>    16.1726     2.9373   124.2837 </r>
       <r>    16.2944     2.0396   124.6373 </r>
       <r>    16.4162     4.5999   125.2455 </r>
       <r>    16.5381     3.3044   125.7544 </r>
       <r>    16.6599     2.8730   126.2759 </r>
       <r>    16.7817     1.5720   126.6545 </r>
       <r>    16.9035     0.9069   126.9253 </r>
       <r>    17.0253     1.8253   127.3335 </r>
       <r>    17.1471     1.0011   127.4923 </r>
       <r>    17.2689     1.2162   127.8519 </r>
       <r>    17.3908     0.0000   127.8889 </r>
       <r>    17.5126     0.0000   127.8889 </r>
       <r>    17.6344     0.5126   127.9513 </r>
       <r>    17.7562     0.0000   127.9630 </r>
       <r>    17.8780     0.3040   128.0000 </r>
       <r>    17.9998     0.0000   128.0000 </r>
       <r>    18.1217     0.0000   128.0000 </r>
       <r>    18.2435     0.0000   128.0000 </r>
       <r>    18.3653     0.0000   128.0000 </r>
       <r>    18.4871     0.0000   128.0000 </r>
       <r>    18.6089     0.0000   128.0000 </r>
       <r>    18.7307     0.0000   128.0000 </r>
       <r>    18.8526     0.0000   128.0000 </r>
       <r>    18.9744     0.0000   128.0000 </r>
       <r>    19.0962     0.0000   128.0000 </r>
       <r>    19.2180     0.0000   128.0000 </r>
       <r>    19.3398     0.0000   128.0000 </r>
       <r>    19.4616     0.0000   128.0000 </r>
      </set>
     </set>
    </array>
   </total>
  </dos>
 </calculation>
 <structure name="finalpos" >
  <crystal>
   <varray name="basis" >
    <v>       4.34539863       0.00000000       0.00000000 </v>
    <v>       0.00000000       4.11936655       0.00000000 </v>
    <v>       0.00000000       0.00000000      11.35478920 </v>
   </varray>
   <i name="volume">    203.25401695 </i>
   <varray name="rec_basis" >
    <v>       0.23012848       0.00000000       0.00000000 </v>
    <v>       0.00000000       0.24275577       0.00000000 </v>
    <v>       0.00000000       0.00000000       0.08806857 </v>
   </varray>
  </crystal>
  <varray name="positions" >
   <v>       0.09904952       0.25000000       0.11508910 </v>
   <v>       0.40095048       0.25000000       0.61508910 </v>
   <v>       0.59904952       0.75000000       0.38491090 </v>
   <v>       0.90095048       0.75000000       0.88491090 </v>
   <v>       0.02550821       0.25000000       0.35651006 </v>
   <v>       0.47449179       0.25000000       0.85651006 </v>
   <v>       0.52550821       0.75000000       0.14348994 </v>
   <v>       0.97449179       0.75000000       0.64348994 </v>
  </varray>
 </structure>
</modeling>
