<?xml version="1.0" encoding="ISO-8859-1"?>
<modeling>
 <generator>
  <i name="program" type="string">vasp </i>
  <i name="version" type="string">6.2.0  </i>
  <i name="subversion" type="string">18Jan21 (build Mar  1 2021 20:13:55) complex                          parallel </i>
  <i name="platform" type="string">HPECrayEX_GCC </i>
  <i name="date" type="string">2026 03 07 </i>
  <i name="time" type="string">08:03:53 </i>
 </generator>
 <incar>
  <i type="string" name="SYSTEM">Pnma SnSe</i>
  <i type="string" name="PREC">Accurate</i>
  <i type="string" name="ALGO">Normal</i>
  <i type="logical" name="ADDGRID"> T  </i>
  <i type="int" name="NELM">   250</i>
  <i type="int" name="NELMIN">     5</i>
  <i name="EDIFF">      0.00000001</i>
  <i type="int" name="NSW">     0</i>
  <i type="int" name="ISIF">     2</i>
  <i name="ENCUT">    700.00000000</i>
  <i type="logical" name="LREAL"> F  </i>
  <i type="int" name="ISMEAR">     0</i>
  <i name="SIGMA">      0.01000000</i>
  <i type="logical" name="LWAVE"> F  </i>
  <i type="logical" name="LCHARG"> F  </i>
  <i type="logical" name="LASPH"> T  </i>
  <i type="string" name="GGA">PS</i>
  <i type="logical" name="LEPSILON"> T  </i>
  <i type="int" name="IVDW">    11</i>
 </incar>
 <primitive_cell>
  <structure name="primitive_cell" >
   <crystal>
    <varray name="basis" >
     <v>       4.34539863       0.00000000       0.00000000 </v>
     <v>       0.00000000       4.11936655       0.00000000 </v>
     <v>       0.00000000       0.00000000      11.35478920 </v>
    </varray>
    <i name="volume">    203.25401695 </i>
    <varray name="rec_basis" >
     <v>       0.23012848       0.00000000       0.00000000 </v>
     <v>       0.00000000       0.24275577       0.00000000 </v>
     <v>       0.00000000       0.00000000       0.08806857 </v>
    </varray>
   </crystal>
   <varray name="positions" >
    <v>       0.09903631       0.24899417       0.11539711 </v>
    <v>       0.40096369       0.24899417       0.61539711 </v>
    <v>       0.59903631       0.75100583       0.38460289 </v>
    <v>       0.90096369       0.75100583       0.88460289 </v>
    <v>       0.02605052       0.25058722       0.35675466 </v>
    <v>       0.47394948       0.25058722       0.85675466 </v>
    <v>       0.52605052       0.74941278       0.14324534 </v>
    <v>       0.97394948       0.74941278       0.64324534 </v>
   </varray>
  </structure>
  <varray name="primitive_index" >
   <v type="int" >        1 </v>
   <v type="int" >        2 </v>
   <v type="int" >        3 </v>
   <v type="int" >        4 </v>
   <v type="int" >        5 </v>
   <v type="int" >        6 </v>
   <v type="int" >        7 </v>
   <v type="int" >        8 </v>
  </varray>
 </primitive_cell>
 <kpoints>
  <generation param="Gamma">
   <v type="int" name="divisions">       8        9        3 </v>
   <v name="usershift">      0.00000000       0.00000000       0.00000000 </v>
   <v name="genvec1">      0.12500000       0.00000000       0.00000000 </v>
   <v name="genvec2">      0.00000000       0.11111111       0.00000000 </v>
   <v name="genvec3">      0.00000000       0.00000000       0.33333333 </v>
   <v name="shift">      0.00000000       0.00000000       0.00000000 </v>
  </generation>
  <varray name="kpointlist" >
   <v>       0.00000000       0.00000000       0.00000000 </v>
   <v>       0.12500000       0.00000000       0.00000000 </v>
   <v>       0.25000000       0.00000000       0.00000000 </v>
   <v>       0.37500000       0.00000000       0.00000000 </v>
   <v>       0.50000000       0.00000000       0.00000000 </v>
   <v>       0.00000000       0.11111111       0.00000000 </v>
   <v>       0.12500000       0.11111111       0.00000000 </v>
   <v>       0.25000000       0.11111111       0.00000000 </v>
   <v>       0.37500000       0.11111111       0.00000000 </v>
   <v>       0.50000000       0.11111111       0.00000000 </v>
   <v>       0.00000000       0.22222222       0.00000000 </v>
   <v>       0.12500000       0.22222222       0.00000000 </v>
   <v>       0.25000000       0.22222222       0.00000000 </v>
   <v>       0.37500000       0.22222222       0.00000000 </v>
   <v>       0.50000000       0.22222222       0.00000000 </v>
   <v>       0.00000000       0.33333333       0.00000000 </v>
   <v>       0.12500000       0.33333333       0.00000000 </v>
   <v>       0.25000000       0.33333333       0.00000000 </v>
   <v>       0.37500000       0.33333333       0.00000000 </v>
   <v>       0.50000000       0.33333333       0.00000000 </v>
   <v>       0.00000000       0.44444444       0.00000000 </v>
   <v>       0.12500000       0.44444444       0.00000000 </v>
   <v>       0.25000000       0.44444444       0.00000000 </v>
   <v>       0.37500000       0.44444444       0.00000000 </v>
   <v>       0.50000000       0.44444444       0.00000000 </v>
   <v>       0.00000000       0.00000000       0.33333333 </v>
   <v>       0.12500000       0.00000000       0.33333333 </v>
   <v>       0.25000000       0.00000000       0.33333333 </v>
   <v>       0.37500000       0.00000000       0.33333333 </v>
   <v>       0.50000000       0.00000000       0.33333333 </v>
   <v>       0.00000000       0.11111111       0.33333333 </v>
   <v>       0.00000000       0.11111111      -0.33333333 </v>
   <v>       0.12500000       0.11111111       0.33333333 </v>
   <v>      -0.12500000       0.11111111      -0.33333333 </v>
   <v>       0.25000000       0.11111111       0.33333333 </v>
   <v>      -0.25000000       0.11111111      -0.33333333 </v>
   <v>       0.37500000       0.11111111       0.33333333 </v>
   <v>      -0.37500000       0.11111111      -0.33333333 </v>
   <v>       0.50000000       0.11111111       0.33333333 </v>
   <v>       0.50000000       0.11111111      -0.33333333 </v>
   <v>       0.00000000       0.22222222       0.33333333 </v>
   <v>       0.00000000       0.22222222      -0.33333333 </v>
   <v>       0.12500000       0.22222222       0.33333333 </v>
   <v>      -0.12500000       0.22222222      -0.33333333 </v>
   <v>       0.25000000       0.22222222       0.33333333 </v>
   <v>      -0.25000000       0.22222222      -0.33333333 </v>
   <v>       0.37500000       0.22222222       0.33333333 </v>
   <v>      -0.37500000       0.22222222      -0.33333333 </v>
   <v>       0.50000000       0.22222222       0.33333333 </v>
   <v>       0.50000000       0.22222222      -0.33333333 </v>
   <v>       0.00000000       0.33333333       0.33333333 </v>
   <v>       0.00000000       0.33333333      -0.33333333 </v>
   <v>       0.12500000       0.33333333       0.33333333 </v>
   <v>      -0.12500000       0.33333333      -0.33333333 </v>
   <v>       0.25000000       0.33333333       0.33333333 </v>
   <v>      -0.25000000       0.33333333      -0.33333333 </v>
   <v>       0.37500000       0.33333333       0.33333333 </v>
   <v>      -0.37500000       0.33333333      -0.33333333 </v>
   <v>       0.50000000       0.33333333       0.33333333 </v>
   <v>       0.50000000       0.33333333      -0.33333333 </v>
   <v>       0.00000000       0.44444444       0.33333333 </v>
   <v>       0.00000000       0.44444444      -0.33333333 </v>
   <v>       0.12500000       0.44444444       0.33333333 </v>
   <v>      -0.12500000       0.44444444      -0.33333333 </v>
   <v>       0.25000000       0.44444444       0.33333333 </v>
   <v>      -0.25000000       0.44444444      -0.33333333 </v>
   <v>       0.37500000       0.44444444       0.33333333 </v>
   <v>      -0.37500000       0.44444444      -0.33333333 </v>
   <v>       0.50000000       0.44444444       0.33333333 </v>
   <v>       0.50000000       0.44444444      -0.33333333 </v>
  </varray>
  <varray name="weights" >
   <v>       0.00462963 </v>
   <v>       0.00925926 </v>
   <v>       0.00925926 </v>
   <v>       0.00925926 </v>
   <v>       0.00462963 </v>
   <v>       0.00925926 </v>
   <v>       0.01851852 </v>
   <v>       0.01851852 </v>
   <v>       0.01851852 </v>
   <v>       0.00925926 </v>
   <v>       0.00925926 </v>
   <v>       0.01851852 </v>
   <v>       0.01851852 </v>
   <v>       0.01851852 </v>
   <v>       0.00925926 </v>
   <v>       0.00925926 </v>
   <v>       0.01851852 </v>
   <v>       0.01851852 </v>
   <v>       0.01851852 </v>
   <v>       0.00925926 </v>
   <v>       0.00925926 </v>
   <v>       0.01851852 </v>
   <v>       0.01851852 </v>
   <v>       0.01851852 </v>
   <v>       0.00925926 </v>
   <v>       0.00925926 </v>
   <v>       0.01851852 </v>
   <v>       0.01851852 </v>
   <v>       0.01851852 </v>
   <v>       0.00925926 </v>
   <v>       0.00925926 </v>
   <v>       0.00925926 </v>
   <v>       0.01851852 </v>
   <v>       0.01851852 </v>
   <v>       0.01851852 </v>
   <v>       0.01851852 </v>
   <v>       0.01851852 </v>
   <v>       0.01851852 </v>
   <v>       0.00925926 </v>
   <v>       0.00925926 </v>
   <v>       0.00925926 </v>
   <v>       0.00925926 </v>
   <v>       0.01851852 </v>
   <v>       0.01851852 </v>
   <v>       0.01851852 </v>
   <v>       0.01851852 </v>
   <v>       0.01851852 </v>
   <v>       0.01851852 </v>
   <v>       0.00925926 </v>
   <v>       0.00925926 </v>
   <v>       0.00925926 </v>
   <v>       0.00925926 </v>
   <v>       0.01851852 </v>
   <v>       0.01851852 </v>
   <v>       0.01851852 </v>
   <v>       0.01851852 </v>
   <v>       0.01851852 </v>
   <v>       0.01851852 </v>
   <v>       0.00925926 </v>
   <v>       0.00925926 </v>
   <v>       0.00925926 </v>
   <v>       0.00925926 </v>
   <v>       0.01851852 </v>
   <v>       0.01851852 </v>
   <v>       0.01851852 </v>
   <v>       0.01851852 </v>
   <v>       0.01851852 </v>
   <v>       0.01851852 </v>
   <v>       0.00925926 </v>
   <v>       0.00925926 </v>
  </varray>
 </kpoints>
 <parameters>
  <separator name="general" >
   <i type="string" name="SYSTEM">Pnma SnSe</i>
   <i type="logical" name="LCOMPAT"> F  </i>
  </separator>
  <separator name="electronic" >
   <i type="string" name="PREC">accura</i>
   <i name="ENMAX">    700.00000000</i>
   <i name="ENAUG">    446.84200000</i>
   <i name="EDIFF">      0.00000001</i>
   <i type="int" name="IALGO">    38</i>
   <i type="int" name="IWAVPR">    10</i>
   <i type="int" name="NBANDS">    64</i>
   <i type="int" name="NBANDSLOW">    -1</i>
   <i type="int" name="NBANDSHIGH">    -1</i>
   <i name="NELECT">     80.00000000</i>
   <i type="int" name="TURBO">     0</i>
   <i type="int" name="IRESTART">     0</i>
   <i type="int" name="NREBOOT">     0</i>
   <i type="int" name="NMIN">     0</i>
   <i name="EREF">      0.00000000</i>
   <separator name="electronic smearing" >
    <i type="int" name="ISMEAR">     0</i>
    <i name="SIGMA">      0.01000000</i>
    <i name="KSPACING">      0.50000000</i>
    <i type="logical" name="KGAMMA"> T  </i>
    <i type="logical" name="KBLOWUP"> T  </i>
   </separator>
   <separator name="electronic projectors" >
    <i type="logical" name="LREAL"> F  </i>
    <v name="ROPT">      0.00000000      0.00000000</v>
    <i type="int" name="LMAXPAW">  -100</i>
    <i type="int" name="LMAXMIX">     2</i>
    <i type="logical" name="NLSPLINE"> F  </i>
   </separator>
   <separator name="electronic startup" >
    <i type="int" name="ISTART">     0</i>
    <i type="int" name="ICHARG">     2</i>
    <i type="int" name="INIWAV">     1</i>
   </separator>
   <separator name="electronic spin" >
    <i type="int" name="ISPIN">     1</i>
    <i type="logical" name="LNONCOLLINEAR"> F  </i>
    <v name="MAGMOM">      1.00000000      1.00000000      1.00000000      1.00000000      1.00000000      1.00000000      1.00000000      1.00000000</v>
    <i name="NUPDOWN">     -1.00000000</i>
    <i type="logical" name="LSORBIT"> F  </i>
    <v name="SAXIS">      0.00000000      0.00000000      1.00000000</v>
    <i type="logical" name="LSPIRAL"> F  </i>
    <v name="QSPIRAL">      0.00000000      0.00000000      0.00000000</v>
    <i type="logical" name="LZEROZ"> F  </i>
   </separator>
   <separator name="electronic exchange-correlation" >
    <i type="logical" name="LASPH"> T  </i>
    <i type="logical" name="LMETAGGA"> F  </i>
   </separator>
   <separator name="electronic convergence" >
    <i type="int" name="NELM">   250</i>
    <i type="int" name="NELMDL">    -5</i>
    <i type="int" name="NELMIN">     5</i>
    <i name="ENINI">    700.00000000</i>
    <separator name="electronic convergence detail" >
     <i type="logical" name="LDIAG"> T  </i>
     <i type="logical" name="LSUBROT"> F  </i>
     <i name="WEIMIN">      0.00000000</i>
     <i name="EBREAK">      0.00000000</i>
     <i name="DEPER">      0.30000000</i>
     <i type="int" name="NRMM">     4</i>
     <i name="TIME">      0.40000000</i>
    </separator>
   </separator>
   <separator name="electronic mixer" >
    <i name="AMIX">      0.40000000</i>
    <i name="BMIX">      1.00000000</i>
    <i name="AMIN">      0.10000000</i>
    <i name="AMIX_MAG">      1.60000000</i>
    <i name="BMIX_MAG">      1.00000000</i>
    <separator name="electronic mixer details" >
     <i type="int" name="IMIX">     4</i>
     <i type="logical" name="MIXFIRST"> F  </i>
     <i type="int" name="MAXMIX">   -45</i>
     <i name="WC">    100.00000000</i>
     <i type="int" name="INIMIX">     1</i>
     <i type="int" name="MIXPRE">     1</i>
     <i type="int" name="MREMOVE">     5</i>
    </separator>
   </separator>
   <separator name="electronic dipolcorrection" >
    <i type="logical" name="LDIPOL"> F  </i>
    <i type="logical" name="LMONO"> F  </i>
    <i type="int" name="IDIPOL">     0</i>
    <i name="EPSILON">      1.00000000</i>
    <v name="DIPOL">   -100.00000000   -100.00000000   -100.00000000</v>
    <i name="EFIELD">      0.00000000</i>
   </separator>
  </separator>
  <separator name="grids" >
   <i type="int" name="NGX">    40</i>
   <i type="int" name="NGY">    36</i>
   <i type="int" name="NGZ">    98</i>
   <i type="int" name="NGXF">    80</i>
   <i type="int" name="NGYF">    72</i>
   <i type="int" name="NGZF">   196</i>
   <i type="logical" name="ADDGRID"> T  </i>
  </separator>
  <separator name="ionic" >
   <i type="int" name="NSW">     0</i>
   <i type="int" name="IBRION">    -1</i>
   <i type="int" name="MDALGO">     0</i>
   <i type="int" name="ISIF">     2</i>
   <i name="PSTRESS">      0.00000000</i>
   <i name="EDIFFG">      0.00000010</i>
   <i type="int" name="NFREE">     0</i>
   <i name="POTIM">      0.50000000</i>
   <i name="SMASS">     -3.00000000</i>
   <i name="SCALEE">      1.00000000</i>
  </separator>
  <separator name="ionic md" >
   <i name="TEBEG">      0.00010000</i>
   <i name="TEEND">      0.00010000</i>
   <i type="int" name="NBLOCK">     1</i>
   <i type="int" name="KBLOCK">     1</i>
   <i type="int" name="NPACO">   256</i>
   <i name="APACO">     16.00000000</i>
  </separator>
  <separator name="symmetry" >
   <i type="int" name="ISYM">     2</i>
   <i name="SYMPREC">      0.00001000</i>
  </separator>
  <separator name="dos" >
   <i type="int" name="LORBIT">     0</i>
   <v name="RWIGS">     -1.00000000     -1.00000000</v>
   <i type="int" name="NEDOS">   301</i>
   <i name="EMIN">     10.00000000</i>
   <i name="EMAX">    -10.00000000</i>
   <i name="EFERMI">      0.00000000</i>
  </separator>
  <separator name="writing" >
   <i type="int" name="NWRITE">     2</i>
   <i type="logical" name="LWAVE"> F  </i>
   <i type="logical" name="LDOWNSAMPLE"> F  </i>
   <i type="logical" name="LCHARG"> F  </i>
   <i type="logical" name="LPARD"> F  </i>
   <i type="logical" name="LVTOT"> F  </i>
   <i type="logical" name="LVHAR"> F  </i>
   <i type="logical" name="LELF"> F  </i>
   <i type="logical" name="LOPTICS"> F  </i>
   <v name="STM">      0.00000000      0.00000000      0.00000000      0.00000000      0.00000000      0.00000000      0.00000000</v>
  </separator>
  <separator name="performance" >
   <i type="int" name="NPAR">    32</i>
   <i type="int" name="NSIM">     4</i>
   <i type="int" name="NBLK">    -1</i>
   <i type="logical" name="LPLANE"> T  </i>
   <i type="logical" name="LSCALAPACK"> T  </i>
   <i type="logical" name="LSCAAWARE"> F  </i>
   <i type="logical" name="LSCALU"> F  </i>
   <i type="logical" name="LASYNC"> F  </i>
   <i type="logical" name="LORBITALREAL"> F  </i>
  </separator>
  <separator name="miscellaneous" >
   <i type="int" name="IDIOT">     3</i>
   <i type="int" name="PHON_NSTRUCT">    -1</i>
   <i type="logical" name="LMUSIC"> F  </i>
   <v name="POMASS">    118.71000000     78.96000000</v>
   <v name="DARWINR">      0.00000000      0.00000000</v>
   <v name="DARWINV">      1.00000000      1.00000000</v>
   <i type="logical" name="LCORR"> T  </i>
  </separator>
  <i type="logical" name="GGA_COMPAT"> T  </i>
  <i type="logical" name="LBERRY"> F  </i>
  <i type="int" name="ICORELEVEL">     0</i>
  <i type="logical" name="LDAU"> F  </i>
  <i type="int" name="I_CONSTRAINED_M">     0</i>
  <separator name="electronic exchange-correlation" >
   <i type="string" name="GGA">PS</i>
   <i type="int" name="VOSKOWN">     0</i>
   <i type="logical" name="LHFCALC"> F  </i>
   <i type="string" name="PRECFOCK"></i>
   <i type="logical" name="LSYMGRAD"> F  </i>
   <i type="logical" name="LHFONE"> F  </i>
   <i type="logical" name="LRHFCALC"> F  </i>
   <i type="logical" name="LTHOMAS"> F  </i>
   <i type="logical" name="LMODELHF"> F  </i>
   <i type="logical" name="LFOCKACE"> F  </i>
   <i name="ENCUT4O">     -1.00000000</i>
   <i type="int" name="EXXOEP">     0</i>
   <i type="int" name="FOURORBIT">     0</i>
   <i name="AEXX">      0.00000000</i>
   <i name="HFALPHA">      0.00000000</i>
   <i name="MCALPHA">      0.00000000</i>
   <i name="ALDAX">      1.00000000</i>
   <i name="AGGAX">      1.00000000</i>
   <i name="ALDAC">      1.00000000</i>
   <i name="AGGAC">      1.00000000</i>
   <i type="int" name="NKREDX">     1</i>
   <i type="int" name="NKREDY">     1</i>
   <i type="int" name="NKREDZ">     1</i>
   <i type="logical" name="SHIFTRED"> F  </i>
   <i type="logical" name="ODDONLY"> F  </i>
   <i type="logical" name="EVENONLY"> F  </i>
   <i type="int" name="LMAXFOCK">     0</i>
   <i type="int" name="NMAXFOCKAE">     0</i>
   <i type="logical" name="LFOCKAEDFT"> F  </i>
   <i name="HFSCREEN">      0.00000000</i>
   <i name="HFSCREENC">      0.00000000</i>
   <i type="int" name="NBANDSGWLOW">     0</i>
  </separator>
  <separator name="vdW DFT" >
   <i type="logical" name="LUSE_VDW"> F  </i>
   <i name="Zab_VDW">     -0.84910000</i>
   <i name="PARAM1">      0.12340000</i>
   <i name="PARAM2">      1.00000000</i>
   <i name="PARAM3">      0.00000000</i>
  </separator>
  <separator name="model GW" >
   <i type="int" name="MODEL_GW">     0</i>
   <i name="MODEL_EPS0">     15.24405127</i>
   <i name="MODEL_ALPHA">      1.00000000</i>
  </separator>
  <separator name="linear response parameters" >
   <i type="logical" name="LEPSILON"> T  </i>
   <i type="logical" name="LRPA"> F  </i>
   <i type="logical" name="LNABLA"> F  </i>
   <i type="logical" name="LVEL"> F  </i>
   <i type="int" name="KINTER">     0</i>
   <i name="CSHIFT">      0.10000000</i>
   <i name="OMEGAMAX">     -1.00000000</i>
   <i name="DEG_THRESHOLD">      0.00200000</i>
   <i name="RTIME">     -0.10000000</i>
   <i name="WPLASMAI">      0.00000000</i>
   <v name="DFIELD">      0.00000000      0.00000000      0.00000000</v>
   <v name="WPLASMA">      0.00000000      0.00000000      0.00000000      0.00000000      0.00000000      0.00000000      0.00000000      0.00000000      0.00000000</v>
  </separator>
  <separator name="orbital magnetization" >
   <i type="logical" name="NUCIND"> F  </i>
   <v name="MAGPOS">      0.00000000      0.00000000      0.00000000</v>
   <i type="logical" name="LNICSALL"> T  </i>
   <i type="logical" name="ORBITALMAG"> F  </i>
   <i type="logical" name="LMAGBLOCH"> F  </i>
   <i type="logical" name="LCHIMAG"> F  </i>
   <i type="logical" name="LGAUGE"> T  </i>
   <i type="int" name="MAGATOM">     0</i>
   <v name="MAGDIPOL">      0.00000000      0.00000000      0.00000000</v>
   <v name="AVECCONST">      0.00000000      0.00000000      0.00000000</v>
  </separator>
  <separator name="response functions" >
   <i type="logical" name="LFINITE_TEMPERATURE"> F  </i>
   <i type="logical" name="LADDER"> F  </i>
   <i type="logical" name="LRPAFORCE"> F  </i>
   <i type="logical" name="LFXC"> F  </i>
   <i type="logical" name="LHARTREE"> T  </i>
   <i type="int" name="IBSE">     0</i>
   <v type="int" name="KPOINT">    -1     0     0     0</v>
   <i type="logical" name="LTCTC"> F  </i>
   <i type="logical" name="LTCTE"> F  </i>
   <i type="logical" name="LTETE"> F  </i>
   <i type="logical" name="LTRIPLET"> F  </i>
   <i type="logical" name="LFXCEPS"> F  </i>
   <i type="logical" name="LFXHEG"> F  </i>
   <i type="int" name="NATURALO">     2</i>
   <i type="logical" name="LHOLEGF"> F  </i>
   <i type="logical" name="L2ORDER"> F  </i>
   <i type="logical" name="LDMP1"> F  </i>
   <i type="logical" name="LMP2LT"> F  </i>
   <i type="logical" name="LSMP2LT"> F  </i>
   <i type="logical" name="LGWLF"> F  </i>
   <i name="ENCUTGW">     -2.00000000</i>
   <i name="ENCUTGWSOFT">     -2.00000000</i>
   <i name="ENCUTLF">     -1.00000000</i>
   <i type="logical" name="LESF_SPLINES"> F  </i>
   <i type="int" name="LMAXMP2">    -1</i>
   <i name="SCISSOR">      0.00000000</i>
   <i type="int" name="NOMEGA">     0</i>
   <i type="int" name="NOMEGAR">     0</i>
   <i type="int" name="NBANDSGW">    -1</i>
   <i type="int" name="NBANDSO">    -1</i>
   <i type="int" name="NBANDSV">    -1</i>
   <i type="int" name="NELM">   250</i>
   <i type="int" name="NELMHF">     1</i>
   <i type="int" name="DIM">     3</i>
   <i type="int" name="IESPILON">     4</i>
   <i type="int" name="ANTIRES">     0</i>
   <i name="OMEGAMAX">    -30.00000000</i>
   <i name="OMEGAMIN">    -30.00000000</i>
   <i name="OMEGATL">   -200.00000000</i>
   <i type="int" name="OMEGAGRID">     0</i>
   <i name="CSHIFT">     -0.10000000</i>
   <i type="logical" name="LSELFENERGY"> F  </i>
   <i type="logical" name="LSPECTRAL"> F  </i>
   <i type="logical" name="LSPECTRALGW"> F  </i>
   <i type="logical" name="LSINGLES"> F  </i>
   <i type="logical" name="LFERMIGW"> F  </i>
   <i type="logical" name="ODDONLYGW"> F  </i>
   <i type="logical" name="EVENONLYGW"> F  </i>
   <i type="int" name="NKREDLFX">     1</i>
   <i type="int" name="NKREDLFY">     1</i>
   <i type="int" name="NKREDLFZ">     1</i>
   <i type="int" name="MAXMEM">  2800</i>
   <i type="int" name="TELESCOPE">     0</i>
   <i type="int" name="NTAUPAR">    -1</i>
   <i type="int" name="NOMEGAPAR">    -1</i>
   <i name="DAMP_NEWTON">      0.80000001</i>
   <i name="LAMBDA">      1.00000000</i>
  </separator>
  <separator name="External order field" >
   <i name="OFIELD_KAPPA">      0.00000000</i>
   <v name="OFIELD_K">      0.00000000      0.00000000      0.00000000</v>
   <i name="OFIELD_Q6_NEAR">      0.00000000</i>
   <i name="OFIELD_Q6_FAR">      0.00000000</i>
   <i name="OFIELD_A">      0.00000000</i>
  </separator>
 </parameters>
 <atominfo>
  <atoms>       8 </atoms>
  <types>       2 </types>
  <array name="atoms" >
   <dimension dim="1">ion</dimension>
   <field type="string">element</field>
   <field type="int">atomtype</field>
   <set>
    <rc><c>Sn</c><c>   1</c></rc>
    <rc><c>Sn</c><c>   1</c></rc>
    <rc><c>Sn</c><c>   1</c></rc>
    <rc><c>Sn</c><c>   1</c></rc>
    <rc><c>Se</c><c>   2</c></rc>
    <rc><c>Se</c><c>   2</c></rc>
    <rc><c>Se</c><c>   2</c></rc>
    <rc><c>Se</c><c>   2</c></rc>
   </set>
  </array>
  <array name="atomtypes" >
   <dimension dim="1">type</dimension>
   <field type="int">atomspertype</field>
   <field type="string">element</field>
   <field>mass</field>
   <field>valence</field>
   <field type="string">pseudopotential</field>
   <set>
    <rc><c>   4</c><c>Sn</c><c>    118.71000000</c><c>     14.00000000</c><c>  PAW_PBE Sn_d 06Sep2000                </c></rc>
    <rc><c>   4</c><c>Se</c><c>     78.96000000</c><c>      6.00000000</c><c>  PAW_PBE Se 06Sep2000                  </c></rc>
   </set>
  </array>
 </atominfo>
 <structure name="initialpos" >
  <crystal>
   <varray name="basis" >
    <v>       4.34539863       0.00000000       0.00000000 </v>
    <v>       0.00000000       4.11936655       0.00000000 </v>
    <v>       0.00000000       0.00000000      11.35478920 </v>
   </varray>
   <i name="volume">    203.25401695 </i>
   <varray name="rec_basis" >
    <v>       0.23012848       0.00000000       0.00000000 </v>
    <v>       0.00000000       0.24275577       0.00000000 </v>
    <v>       0.00000000       0.00000000       0.08806857 </v>
   </varray>
  </crystal>
  <varray name="positions" >
   <v>       0.09903631       0.24899417       0.11539711 </v>
   <v>       0.40096369       0.24899417       0.61539711 </v>
   <v>       0.59903631       0.75100583       0.38460289 </v>
   <v>       0.90096369       0.75100583       0.88460289 </v>
   <v>       0.02605052       0.25058722       0.35675466 </v>
   <v>       0.47394948       0.25058722       0.85675466 </v>
   <v>       0.52605052       0.74941278       0.14324534 </v>
   <v>       0.97394948       0.74941278       0.64324534 </v>
  </varray>
 </structure>
 <calculation>
  <scstep>
   <time name="dav">    1.73    0.87</time>
   <time name="total">    2.01    1.12</time>
   <energy>
    <i name="alphaZ">    217.43841536 </i>
    <i name="ewald">  -6082.72675328 </i>
    <i name="hartreedc">  -2322.10833384 </i>
    <i name="XCdc">    230.11261177 </i>
    <i name="pawpsdc">   7112.06264409 </i>
    <i name="pawaedc">  -7207.42447429 </i>
    <i name="eentropy">     -0.00021694 </i>
    <i name="bandstr">     37.81892696 </i>
    <i name="atom">   8598.20158228 </i>
    <i name="e_fr_energy">    583.37440210 </i>
    <i name="e_wo_entrp">    583.37461903 </i>
    <i name="e_0_energy">    583.37451057 </i>
   </energy>
  </scstep>
  <scstep>
   <time name="dav">    1.97    0.99</time>
   <time name="total">    1.97    0.99</time>
   <energy>
    <i name="e_fr_energy">     15.82150421 </i>
    <i name="e_wo_entrp">     15.82159181 </i>
    <i name="e_0_energy">     15.82154801 </i>
   </energy>
  </scstep>
  <scstep>
   <time name="dav">    2.64    1.32</time>
   <time name="total">    2.65    1.33</time>
   <energy>
    <i name="e_fr_energy">    -35.45827616 </i>
    <i name="e_wo_entrp">    -35.45827616 </i>
    <i name="e_0_energy">    -35.45827616 </i>
   </energy>
  </scstep>
  <scstep>
   <time name="dav">    2.28    1.14</time>
   <time name="total">    2.28    1.14</time>
   <energy>
    <i name="e_fr_energy">    -36.55581683 </i>
    <i name="e_wo_entrp">    -36.55581683 </i>
    <i name="e_0_energy">    -36.55581683 </i>
   </energy>
  </scstep>
  <scstep>
   <time name="dav">    3.02    1.52</time>
   <time name="total">    3.26    1.68</time>
   <energy>
    <i name="e_fr_energy">    -36.58358956 </i>
    <i name="e_wo_entrp">    -36.58358956 </i>
    <i name="e_0_energy">    -36.58358956 </i>
   </energy>
  </scstep>
  <scstep>
   <time name="dav">    3.07    1.54</time>
   <time name="total">    3.51    1.91</time>
   <energy>
    <i name="e_fr_energy">    -35.95369597 </i>
    <i name="e_wo_entrp">    -35.95369597 </i>
    <i name="e_0_energy">    -35.95369597 </i>
   </energy>
  </scstep>
  <scstep>
   <time name="dav">    2.76    1.38</time>
   <time name="total">    3.24    1.75</time>
   <energy>
    <i name="e_fr_energy">    -35.91897662 </i>
    <i name="e_wo_entrp">    -35.91897662 </i>
    <i name="e_0_energy">    -35.91897662 </i>
   </energy>
  </scstep>
  <scstep>
   <time name="dav">    2.47    1.24</time>
   <time name="total">    2.91    1.61</time>
   <energy>
    <i name="e_fr_energy">    -35.91394647 </i>
    <i name="e_wo_entrp">    -35.91394647 </i>
    <i name="e_0_energy">    -35.91394647 </i>
   </energy>
  </scstep>
  <scstep>
   <time name="dav">    2.73    1.37</time>
   <time name="total">    3.19    1.73</time>
   <energy>
    <i name="e_fr_energy">    -35.91397947 </i>
    <i name="e_wo_entrp">    -35.91397947 </i>
    <i name="e_0_energy">    -35.91397947 </i>
   </energy>
  </scstep>
  <scstep>
   <time name="dav">    2.35    1.18</time>
   <time name="total">    2.77    1.54</time>
   <energy>
    <i name="e_fr_energy">    -35.91398184 </i>
    <i name="e_wo_entrp">    -35.91398184 </i>
    <i name="e_0_energy">    -35.91398184 </i>
   </energy>
  </scstep>
  <scstep>
   <time name="dav">    2.73    1.37</time>
   <time name="total">    3.15    1.74</time>
   <energy>
    <i name="e_fr_energy">    -35.91399508 </i>
    <i name="e_wo_entrp">    -35.91399508 </i>
    <i name="e_0_energy">    -35.91399508 </i>
   </energy>
  </scstep>
  <scstep>
   <time name="dav">    2.46    1.24</time>
   <time name="total">    2.94    1.60</time>
   <energy>
    <i name="e_fr_energy">    -35.91399338 </i>
    <i name="e_wo_entrp">    -35.91399338 </i>
    <i name="e_0_energy">    -35.91399338 </i>
   </energy>
  </scstep>
  <scstep>
   <time name="dav">    2.74    1.37</time>
   <time name="total">    3.11    1.73</time>
   <energy>
    <i name="e_fr_energy">    -35.91399332 </i>
    <i name="e_wo_entrp">    -35.91399332 </i>
    <i name="e_0_energy">    -35.91399332 </i>
   </energy>
  </scstep>
  <scstep>
   <time name="dav">    2.50    1.26</time>
   <time name="total">    2.97    1.61</time>
   <energy>
    <i name="e_fr_energy">    -35.91399334 </i>
    <i name="e_wo_entrp">    -35.91399334 </i>
    <i name="e_0_energy">    -35.91399334 </i>
   </energy>
  </scstep>
  <scstep>
   <time name="dav">    2.15    1.08</time>
   <time name="total">    2.62    1.44</time>
   <energy>
    <i name="e_fr_energy">    -35.91399328 </i>
    <i name="e_wo_entrp">    -35.91399328 </i>
    <i name="e_0_energy">    -35.91399328 </i>
   </energy>
  </scstep>
  <scstep>
   <time name="dav">    1.80    0.91</time>
   <time name="total">    2.29    1.28</time>
   <energy>
    <i name="e_fr_energy">    -35.91399327 </i>
    <i name="e_wo_entrp">    -35.91399327 </i>
    <i name="e_0_energy">    -35.91399327 </i>
   </energy>
  </scstep>
  <scstep>
   <time name="dav">    1.70    0.86</time>
   <time name="total">    1.95    1.10</time>
   <energy>
    <i name="alphaZ">    217.43841536 </i>
    <i name="ewald">  -6082.72675328 </i>
    <i name="hartreedc">  -2303.86254816 </i>
    <i name="XCdc">    230.43065429 </i>
    <i name="pawpsdc">   8471.55550247 </i>
    <i name="pawaedc">  -8567.45418677 </i>
    <i name="eentropy">     -0.00000000 </i>
    <i name="bandstr">   -599.49665945 </i>
    <i name="atom">   8598.20158228 </i>
    <i name="e_fr_energy">    -35.91399327 </i>
    <i name="e_wo_entrp">    -35.91399327 </i>
    <i name="e_0_energy">    -35.91399327 </i>
   </energy>
  </scstep>
  <structure>
   <crystal>
    <varray name="basis" >
     <v>       4.34539863       0.00000000       0.00000000 </v>
     <v>       0.00000000       4.11936655       0.00000000 </v>
     <v>       0.00000000       0.00000000      11.35478920 </v>
    </varray>
    <i name="volume">    203.25401695 </i>
    <varray name="rec_basis" >
     <v>       0.23012848       0.00000000       0.00000000 </v>
     <v>       0.00000000       0.24275577       0.00000000 </v>
     <v>       0.00000000       0.00000000       0.08806857 </v>
    </varray>
   </crystal>
   <varray name="positions" >
    <v>       0.09903631       0.24899417       0.11539711 </v>
    <v>       0.40096369       0.24899417       0.61539711 </v>
    <v>       0.59903631       0.75100583       0.38460289 </v>
    <v>       0.90096369       0.75100583       0.88460289 </v>
    <v>       0.02605052       0.25058722       0.35675466 </v>
    <v>       0.47394948       0.25058722       0.85675466 </v>
    <v>       0.52605052       0.74941278       0.14324534 </v>
    <v>       0.97394948       0.74941278       0.64324534 </v>
   </varray>
  </structure>
  <varray name="forces" >
   <v>      -0.00771954       0.00537805       0.00380420 </v>
   <v>       0.00771954       0.00537805       0.00380420 </v>
   <v>      -0.00771954      -0.00537805      -0.00380420 </v>
   <v>       0.00771954      -0.00537805      -0.00380420 </v>
   <v>      -0.00351268      -0.00205542      -0.00286694 </v>
   <v>       0.00351268      -0.00205542      -0.00286694 </v>
   <v>      -0.00351268       0.00205542       0.00286694 </v>
   <v>       0.00351268       0.00205542       0.00286694 </v>
  </varray>
  <varray name="stress" >
   <v>       0.00295705       0.00000000       0.00000000 </v>
   <v>       0.00000000       0.03105450      -0.12808538 </v>
   <v>       0.00000000      -0.12808591      -0.51423568 </v>
  </varray>
  <energy>
   <i name="e_fr_energy">    -37.43187444 </i>
   <i name="e_wo_entrp">    -37.43187444 </i>
   <i name="e_0_energy">    -37.43187444 </i>
  </energy>
  <scstep>
   <time name="total">    1.24    0.63</time>
   <energy>
    <i name="e_fr_energy">   -132.51114583 </i>
    <i name="e_wo_entrp">   -132.51114583 </i>
    <i name="e_0_energy">   -132.51114583 </i>
   </energy>
  </scstep>
  <scstep>
   <time name="total">    1.62    0.85</time>
   <energy>
    <i name="e_fr_energy">   -259.15075097 </i>
    <i name="e_wo_entrp">   -259.15075097 </i>
    <i name="e_0_energy">   -259.15075097 </i>
   </energy>
  </scstep>
  <scstep>
   <time name="total">    1.65    0.89</time>
   <energy>
    <i name="e_fr_energy">   -259.95148288 </i>
    <i name="e_wo_entrp">   -259.95148288 </i>
    <i name="e_0_energy">   -259.95148288 </i>
   </energy>
  </scstep>
  <scstep>
   <time name="total">    1.35    0.74</time>
   <energy>
    <i name="e_fr_energy">   -260.10674522 </i>
    <i name="e_wo_entrp">   -260.10674522 </i>
    <i name="e_0_energy">   -260.10674522 </i>
   </energy>
  </scstep>
  <scstep>
   <time name="total">    1.40    0.76</time>
   <energy>
    <i name="e_fr_energy">   -260.11026200 </i>
    <i name="e_wo_entrp">   -260.11026200 </i>
    <i name="e_0_energy">   -260.11026200 </i>
   </energy>
  </scstep>
  <scstep>
   <time name="total">    1.42    0.77</time>
   <energy>
    <i name="e_fr_energy">   -260.11249932 </i>
    <i name="e_wo_entrp">   -260.11249932 </i>
    <i name="e_0_energy">   -260.11249932 </i>
   </energy>
  </scstep>
  <scstep>
   <time name="total">    1.55    0.78</time>
   <energy>
    <i name="e_fr_energy">   -260.11275109 </i>
    <i name="e_wo_entrp">   -260.11275109 </i>
    <i name="e_0_energy">   -260.11275109 </i>
   </energy>
  </scstep>
  <scstep>
   <time name="total">    1.65    0.84</time>
   <energy>
    <i name="e_fr_energy">   -260.11272661 </i>
    <i name="e_wo_entrp">   -260.11272661 </i>
    <i name="e_0_energy">   -260.11272661 </i>
   </energy>
  </scstep>
  <scstep>
   <time name="total">    1.59    0.83</time>
   <energy>
    <i name="e_fr_energy">   -260.11272482 </i>
    <i name="e_wo_entrp">   -260.11272482 </i>
    <i name="e_0_energy">   -260.11272482 </i>
   </energy>
  </scstep>
  <scstep>
   <time name="total">    1.57    0.83</time>
   <energy>
    <i name="e_fr_energy">   -260.11272581 </i>
    <i name="e_wo_entrp">   -260.11272581 </i>
    <i name="e_0_energy">   -260.11272581 </i>
   </energy>
  </scstep>
  <scstep>
   <time name="total">    1.52    0.81</time>
   <energy>
    <i name="e_fr_energy">   -260.11272642 </i>
    <i name="e_wo_entrp">   -260.11272642 </i>
    <i name="e_0_energy">   -260.11272642 </i>
   </energy>
  </scstep>
  <scstep>
   <time name="total">    1.48    0.77</time>
   <energy>
    <i name="e_fr_energy">   -260.11272222 </i>
    <i name="e_wo_entrp">   -260.11272222 </i>
    <i name="e_0_energy">   -260.11272222 </i>
   </energy>
  </scstep>
  <scstep>
   <time name="total">    1.46    0.76</time>
   <energy>
    <i name="e_fr_energy">   -260.11272591 </i>
    <i name="e_wo_entrp">   -260.11272591 </i>
    <i name="e_0_energy">   -260.11272591 </i>
   </energy>
  </scstep>
  <scstep>
   <time name="total">    1.20    0.61</time>
   <energy>
    <i name="e_fr_energy">   -130.08795446 </i>
    <i name="e_wo_entrp">   -130.08795446 </i>
    <i name="e_0_energy">   -130.08795446 </i>
   </energy>
  </scstep>
  <scstep>
   <time name="total">    1.64    0.85</time>
   <energy>
    <i name="e_fr_energy">   -258.98978375 </i>
    <i name="e_wo_entrp">   -258.98978375 </i>
    <i name="e_0_energy">   -258.98978375 </i>
   </energy>
  </scstep>
  <scstep>
   <time name="total">    1.65    0.88</time>
   <energy>
    <i name="e_fr_energy">   -259.81565948 </i>
    <i name="e_wo_entrp">   -259.81565948 </i>
    <i name="e_0_energy">   -259.81565948 </i>
   </energy>
  </scstep>
  <scstep>
   <time name="total">    1.38    0.74</time>
   <energy>
    <i name="e_fr_energy">   -259.95261163 </i>
    <i name="e_wo_entrp">   -259.95261163 </i>
    <i name="e_0_energy">   -259.95261163 </i>
   </energy>
  </scstep>
  <scstep>
   <time name="total">    1.37    0.76</time>
   <energy>
    <i name="e_fr_energy">   -259.96319382 </i>
    <i name="e_wo_entrp">   -259.96319382 </i>
    <i name="e_0_energy">   -259.96319382 </i>
   </energy>
  </scstep>
  <scstep>
   <time name="total">    1.54    0.77</time>
   <energy>
    <i name="e_fr_energy">   -259.96644797 </i>
    <i name="e_wo_entrp">   -259.96644797 </i>
    <i name="e_0_energy">   -259.96644797 </i>
   </energy>
  </scstep>
  <scstep>
   <time name="total">    1.56    0.79</time>
   <energy>
    <i name="e_fr_energy">   -259.96656103 </i>
    <i name="e_wo_entrp">   -259.96656103 </i>
    <i name="e_0_energy">   -259.96656103 </i>
   </energy>
  </scstep>
  <scstep>
   <time name="total">    1.60    0.80</time>
   <energy>
    <i name="e_fr_energy">   -259.96652715 </i>
    <i name="e_wo_entrp">   -259.96652715 </i>
    <i name="e_0_energy">   -259.96652715 </i>
   </energy>
  </scstep>
  <scstep>
   <time name="total">    1.67    0.84</time>
   <energy>
    <i name="e_fr_energy">   -259.96649279 </i>
    <i name="e_wo_entrp">   -259.96649279 </i>
    <i name="e_0_energy">   -259.96649279 </i>
   </energy>
  </scstep>
  <scstep>
   <time name="total">    1.61    0.81</time>
   <energy>
    <i name="e_fr_energy">   -259.96653157 </i>
    <i name="e_wo_entrp">   -259.96653157 </i>
    <i name="e_0_energy">   -259.96653157 </i>
   </energy>
  </scstep>
  <scstep>
   <time name="total">    1.57    0.80</time>
   <energy>
    <i name="e_fr_energy">   -259.96652751 </i>
    <i name="e_wo_entrp">   -259.96652751 </i>
    <i name="e_0_energy">   -259.96652751 </i>
   </energy>
  </scstep>
  <scstep>
   <time name="total">    1.52    0.78</time>
   <energy>
    <i name="e_fr_energy">   -259.96655797 </i>
    <i name="e_wo_entrp">   -259.96655797 </i>
    <i name="e_0_energy">   -259.96655797 </i>
   </energy>
  </scstep>
  <scstep>
   <time name="total">    1.46    0.73</time>
   <energy>
    <i name="e_fr_energy">   -259.96651894 </i>
    <i name="e_wo_entrp">   -259.96651894 </i>
    <i name="e_0_energy">   -259.96651894 </i>
   </energy>
  </scstep>
  <scstep>
   <time name="total">    1.19    0.60</time>
   <energy>
    <i name="e_fr_energy">   -129.26159935 </i>
    <i name="e_wo_entrp">   -129.26159935 </i>
    <i name="e_0_energy">   -129.26159935 </i>
   </energy>
  </scstep>
  <scstep>
   <time name="total">    1.61    0.86</time>
   <energy>
    <i name="e_fr_energy">   -263.68012599 </i>
    <i name="e_wo_entrp">   -263.68012599 </i>
    <i name="e_0_energy">   -263.68012599 </i>
   </energy>
  </scstep>
  <scstep>
   <time name="total">    1.62    0.88</time>
   <energy>
    <i name="e_fr_energy">   -264.69008620 </i>
    <i name="e_wo_entrp">   -264.69008620 </i>
    <i name="e_0_energy">   -264.69008620 </i>
   </energy>
  </scstep>
  <scstep>
   <time name="total">    1.34    0.73</time>
   <energy>
    <i name="e_fr_energy">   -264.98473239 </i>
    <i name="e_wo_entrp">   -264.98473239 </i>
    <i name="e_0_energy">   -264.98473239 </i>
   </energy>
  </scstep>
  <scstep>
   <time name="total">    1.48    0.79</time>
   <energy>
    <i name="e_fr_energy">   -264.98539815 </i>
    <i name="e_wo_entrp">   -264.98539815 </i>
    <i name="e_0_energy">   -264.98539815 </i>
   </energy>
  </scstep>
  <scstep>
   <time name="total">    1.47    0.79</time>
   <energy>
    <i name="e_fr_energy">   -264.98932021 </i>
    <i name="e_wo_entrp">   -264.98932021 </i>
    <i name="e_0_energy">   -264.98932021 </i>
   </energy>
  </scstep>
  <scstep>
   <time name="total">    1.58    0.79</time>
   <energy>
    <i name="e_fr_energy">   -264.98948835 </i>
    <i name="e_wo_entrp">   -264.98948835 </i>
    <i name="e_0_energy">   -264.98948835 </i>
   </energy>
  </scstep>
  <scstep>
   <time name="total">    1.65    0.83</time>
   <energy>
    <i name="e_fr_energy">   -264.98949158 </i>
    <i name="e_wo_entrp">   -264.98949158 </i>
    <i name="e_0_energy">   -264.98949158 </i>
   </energy>
  </scstep>
  <scstep>
   <time name="total">    1.65    0.85</time>
   <energy>
    <i name="e_fr_energy">   -264.98946184 </i>
    <i name="e_wo_entrp">   -264.98946184 </i>
    <i name="e_0_energy">   -264.98946184 </i>
   </energy>
  </scstep>
  <scstep>
   <time name="total">    1.62    0.85</time>
   <energy>
    <i name="e_fr_energy">   -264.98948997 </i>
    <i name="e_wo_entrp">   -264.98948997 </i>
    <i name="e_0_energy">   -264.98948997 </i>
   </energy>
  </scstep>
  <scstep>
   <time name="total">    1.55    0.80</time>
   <energy>
    <i name="e_fr_energy">   -264.98949324 </i>
    <i name="e_wo_entrp">   -264.98949324 </i>
    <i name="e_0_energy">   -264.98949324 </i>
   </energy>
  </scstep>
  <scstep>
   <time name="total">    1.50    0.77</time>
   <energy>
    <i name="e_fr_energy">   -264.98949111 </i>
    <i name="e_wo_entrp">   -264.98949111 </i>
    <i name="e_0_energy">   -264.98949111 </i>
   </energy>
  </scstep>
  <scstep>
   <time name="total">    1.47    0.74</time>
   <energy>
    <i name="e_fr_energy">   -264.98949599 </i>
    <i name="e_wo_entrp">   -264.98949599 </i>
    <i name="e_0_energy">   -264.98949599 </i>
   </energy>
  </scstep>
  <scstep>
   <time name="total">    1.90    1.25</time>
   <energy>
    <i name="e_fr_energy">     -2.27891913 </i>
    <i name="e_wo_entrp">     -2.27891913 </i>
    <i name="e_0_energy">     -2.27891913 </i>
   </energy>
  </scstep>
  <scstep>
   <time name="total">    2.33    1.43</time>
   <energy>
    <i name="e_fr_energy">    -13.86971779 </i>
    <i name="e_wo_entrp">    -13.86971779 </i>
    <i name="e_0_energy">    -13.86971779 </i>
   </energy>
  </scstep>
  <scstep>
   <time name="total">    2.36    1.45</time>
   <energy>
    <i name="e_fr_energy">    -13.94357220 </i>
    <i name="e_wo_entrp">    -13.94357220 </i>
    <i name="e_0_energy">    -13.94357220 </i>
   </energy>
  </scstep>
  <scstep>
   <time name="total">    2.38    1.47</time>
   <energy>
    <i name="e_fr_energy">    -13.94399958 </i>
    <i name="e_wo_entrp">    -13.94399958 </i>
    <i name="e_0_energy">    -13.94399958 </i>
   </energy>
  </scstep>
  <scstep>
   <time name="total">    2.37    1.46</time>
   <energy>
    <i name="e_fr_energy">    -13.94409022 </i>
    <i name="e_wo_entrp">    -13.94409022 </i>
    <i name="e_0_energy">    -13.94409022 </i>
   </energy>
  </scstep>
  <scstep>
   <time name="total">    2.44    1.51</time>
   <energy>
    <i name="e_fr_energy">    -13.94409421 </i>
    <i name="e_wo_entrp">    -13.94409421 </i>
    <i name="e_0_energy">    -13.94409421 </i>
   </energy>
  </scstep>
  <scstep>
   <time name="total">    2.47    1.48</time>
   <energy>
    <i name="e_fr_energy">    -13.94409550 </i>
    <i name="e_wo_entrp">    -13.94409550 </i>
    <i name="e_0_energy">    -13.94409550 </i>
   </energy>
  </scstep>
  <scstep>
   <time name="total">    2.50    1.46</time>
   <energy>
    <i name="e_fr_energy">    -13.94409560 </i>
    <i name="e_wo_entrp">    -13.94409560 </i>
    <i name="e_0_energy">    -13.94409560 </i>
   </energy>
  </scstep>
  <scstep>
   <time name="total">    2.51    1.46</time>
   <energy>
    <i name="e_fr_energy">    -13.94409563 </i>
    <i name="e_wo_entrp">    -13.94409563 </i>
    <i name="e_0_energy">    -13.94409563 </i>
   </energy>
  </scstep>
  <scstep>
   <time name="total">    2.47    1.45</time>
   <energy>
    <i name="e_fr_energy">    -13.94409563 </i>
    <i name="e_wo_entrp">    -13.94409563 </i>
    <i name="e_0_energy">    -13.94409563 </i>
   </energy>
  </scstep>
  <scstep>
   <time name="total">    2.38    1.41</time>
   <energy>
    <i name="e_fr_energy">    -13.94409563 </i>
    <i name="e_wo_entrp">    -13.94409563 </i>
    <i name="e_0_energy">    -13.94409563 </i>
   </energy>
  </scstep>
  <scstep>
   <time name="total">    2.30    1.37</time>
   <energy>
    <i name="e_fr_energy">    -13.94409563 </i>
    <i name="e_wo_entrp">    -13.94409563 </i>
    <i name="e_0_energy">    -13.94409563 </i>
   </energy>
  </scstep>
  <scstep>
   <time name="total">    1.89    1.23</time>
   <energy>
    <i name="e_fr_energy">     -3.84733398 </i>
    <i name="e_wo_entrp">     -3.84733398 </i>
    <i name="e_0_energy">     -3.84733398 </i>
   </energy>
  </scstep>
  <scstep>
   <time name="total">    2.30    1.42</time>
   <energy>
    <i name="e_fr_energy">    -16.77487526 </i>
    <i name="e_wo_entrp">    -16.77487526 </i>
    <i name="e_0_energy">    -16.77487526 </i>
   </energy>
  </scstep>
  <scstep>
   <time name="total">    2.37    1.45</time>
   <energy>
    <i name="e_fr_energy">    -16.86102079 </i>
    <i name="e_wo_entrp">    -16.86102079 </i>
    <i name="e_0_energy">    -16.86102079 </i>
   </energy>
  </scstep>
  <scstep>
   <time name="total">    2.43    1.50</time>
   <energy>
    <i name="e_fr_energy">    -16.86145975 </i>
    <i name="e_wo_entrp">    -16.86145975 </i>
    <i name="e_0_energy">    -16.86145975 </i>
   </energy>
  </scstep>
  <scstep>
   <time name="total">    2.39    1.47</time>
   <energy>
    <i name="e_fr_energy">    -16.86153835 </i>
    <i name="e_wo_entrp">    -16.86153835 </i>
    <i name="e_0_energy">    -16.86153835 </i>
   </energy>
  </scstep>
  <scstep>
   <time name="total">    2.41    1.49</time>
   <energy>
    <i name="e_fr_energy">    -16.86154166 </i>
    <i name="e_wo_entrp">    -16.86154166 </i>
    <i name="e_0_energy">    -16.86154166 </i>
   </energy>
  </scstep>
  <scstep>
   <time name="total">    2.42    1.48</time>
   <energy>
    <i name="e_fr_energy">    -16.86154297 </i>
    <i name="e_wo_entrp">    -16.86154297 </i>
    <i name="e_0_energy">    -16.86154297 </i>
   </energy>
  </scstep>
  <scstep>
   <time name="total">    2.47    1.44</time>
   <energy>
    <i name="e_fr_energy">    -16.86154307 </i>
    <i name="e_wo_entrp">    -16.86154307 </i>
    <i name="e_0_energy">    -16.86154307 </i>
   </energy>
  </scstep>
  <scstep>
   <time name="total">    2.48    1.45</time>
   <energy>
    <i name="e_fr_energy">    -16.86154309 </i>
    <i name="e_wo_entrp">    -16.86154309 </i>
    <i name="e_0_energy">    -16.86154309 </i>
   </energy>
  </scstep>
  <scstep>
   <time name="total">    2.47    1.45</time>
   <energy>
    <i name="e_fr_energy">    -16.86154310 </i>
    <i name="e_wo_entrp">    -16.86154310 </i>
    <i name="e_0_energy">    -16.86154310 </i>
   </energy>
  </scstep>
  <scstep>
   <time name="total">    2.42    1.42</time>
   <energy>
    <i name="e_fr_energy">    -16.86154310 </i>
    <i name="e_wo_entrp">    -16.86154310 </i>
    <i name="e_0_energy">    -16.86154310 </i>
   </energy>
  </scstep>
  <scstep>
   <time name="total">    2.29    1.36</time>
   <energy>
    <i name="e_fr_energy">    -16.86154310 </i>
    <i name="e_wo_entrp">    -16.86154310 </i>
    <i name="e_0_energy">    -16.86154310 </i>
   </energy>
  </scstep>
  <scstep>
   <time name="total">    2.29    1.35</time>
   <energy>
    <i name="e_fr_energy">    -16.86154310 </i>
    <i name="e_wo_entrp">    -16.86154310 </i>
    <i name="e_0_energy">    -16.86154310 </i>
   </energy>
  </scstep>
  <scstep>
   <time name="total">    1.89    1.23</time>
   <energy>
    <i name="e_fr_energy">     -4.13415442 </i>
    <i name="e_wo_entrp">     -4.13415442 </i>
    <i name="e_0_energy">     -4.13415442 </i>
   </energy>
  </scstep>
  <scstep>
   <time name="total">    2.35    1.45</time>
   <energy>
    <i name="e_fr_energy">    -15.58081140 </i>
    <i name="e_wo_entrp">    -15.58081140 </i>
    <i name="e_0_energy">    -15.58081140 </i>
   </energy>
  </scstep>
  <scstep>
   <time name="total">    2.36    1.45</time>
   <energy>
    <i name="e_fr_energy">    -15.64410338 </i>
    <i name="e_wo_entrp">    -15.64410338 </i>
    <i name="e_0_energy">    -15.64410338 </i>
   </energy>
  </scstep>
  <scstep>
   <time name="total">    2.40    1.49</time>
   <energy>
    <i name="e_fr_energy">    -15.64450815 </i>
    <i name="e_wo_entrp">    -15.64450815 </i>
    <i name="e_0_energy">    -15.64450815 </i>
   </energy>
  </scstep>
  <scstep>
   <time name="total">    2.37    1.45</time>
   <energy>
    <i name="e_fr_energy">    -15.64460727 </i>
    <i name="e_wo_entrp">    -15.64460727 </i>
    <i name="e_0_energy">    -15.64460727 </i>
   </energy>
  </scstep>
  <scstep>
   <time name="total">    2.42    1.49</time>
   <energy>
    <i name="e_fr_energy">    -15.64461099 </i>
    <i name="e_wo_entrp">    -15.64461099 </i>
    <i name="e_0_energy">    -15.64461099 </i>
   </energy>
  </scstep>
  <scstep>
   <time name="total">    2.44    1.47</time>
   <energy>
    <i name="e_fr_energy">    -15.64461264 </i>
    <i name="e_wo_entrp">    -15.64461264 </i>
    <i name="e_0_energy">    -15.64461264 </i>
   </energy>
  </scstep>
  <scstep>
   <time name="total">    2.46    1.46</time>
   <energy>
    <i name="e_fr_energy">    -15.64461275 </i>
    <i name="e_wo_entrp">    -15.64461275 </i>
    <i name="e_0_energy">    -15.64461275 </i>
   </energy>
  </scstep>
  <scstep>
   <time name="total">    2.56    1.50</time>
   <energy>
    <i name="e_fr_energy">    -15.64461278 </i>
    <i name="e_wo_entrp">    -15.64461278 </i>
    <i name="e_0_energy">    -15.64461278 </i>
   </energy>
  </scstep>
  <scstep>
   <time name="total">    2.44    1.43</time>
   <energy>
    <i name="e_fr_energy">    -15.64461278 </i>
    <i name="e_wo_entrp">    -15.64461278 </i>
    <i name="e_0_energy">    -15.64461278 </i>
   </energy>
  </scstep>
  <scstep>
   <time name="total">    2.37    1.41</time>
   <energy>
    <i name="e_fr_energy">    -15.64461278 </i>
    <i name="e_wo_entrp">    -15.64461278 </i>
    <i name="e_0_energy">    -15.64461278 </i>
   </energy>
  </scstep>
  <scstep>
   <time name="total">    2.30    1.36</time>
   <energy>
    <i name="e_fr_energy">    -15.64461278 </i>
    <i name="e_wo_entrp">    -15.64461278 </i>
    <i name="e_0_energy">    -15.64461278 </i>
   </energy>
  </scstep>
  <varray name="dielectric_ipa" >
   <v>      25.82830234       0.00000000       0.00000000 </v>
   <v>       0.00000000      31.02300101       0.08102969 </v>
   <v>       0.00000000       0.08102982      28.85618382 </v>
  </varray>
  <kpoints>
   <generation param="Gamma">
    <v type="int" name="divisions">       8        9        3 </v>
    <v name="usershift">      0.00000000       0.00000000       0.00000000 </v>
    <v name="genvec1">      0.12500000       0.00000000       0.00000000 </v>
    <v name="genvec2">      0.00000000       0.11111111       0.00000000 </v>
    <v name="genvec3">      0.00000000       0.00000000       0.33333333 </v>
    <v name="shift">      0.00000000       0.00000000       0.00000000 </v>
   </generation>
   <varray name="kpointlist" >
    <v>       0.00000000       0.00000000       0.00000000 </v>
    <v>       0.12500000       0.00000000       0.00000000 </v>
    <v>       0.25000000       0.00000000       0.00000000 </v>
    <v>       0.37500000       0.00000000       0.00000000 </v>
    <v>       0.50000000       0.00000000       0.00000000 </v>
    <v>       0.00000000       0.11111111       0.00000000 </v>
    <v>       0.12500000       0.11111111       0.00000000 </v>
    <v>       0.25000000       0.11111111       0.00000000 </v>
    <v>       0.37500000       0.11111111       0.00000000 </v>
    <v>       0.50000000       0.11111111       0.00000000 </v>
    <v>       0.00000000       0.22222222       0.00000000 </v>
    <v>       0.12500000       0.22222222       0.00000000 </v>
    <v>       0.25000000       0.22222222       0.00000000 </v>
    <v>       0.37500000       0.22222222       0.00000000 </v>
    <v>       0.50000000       0.22222222       0.00000000 </v>
    <v>       0.00000000       0.33333333       0.00000000 </v>
    <v>       0.12500000       0.33333333       0.00000000 </v>
    <v>       0.25000000       0.33333333       0.00000000 </v>
    <v>       0.37500000       0.33333333       0.00000000 </v>
    <v>       0.50000000       0.33333333       0.00000000 </v>
    <v>       0.00000000       0.44444444       0.00000000 </v>
    <v>       0.12500000       0.44444444       0.00000000 </v>
    <v>       0.25000000       0.44444444       0.00000000 </v>
    <v>       0.37500000       0.44444444       0.00000000 </v>
    <v>       0.50000000       0.44444444       0.00000000 </v>
    <v>       0.00000000       0.00000000       0.33333333 </v>
    <v>       0.12500000       0.00000000       0.33333333 </v>
    <v>       0.25000000       0.00000000       0.33333333 </v>
    <v>       0.37500000       0.00000000       0.33333333 </v>
    <v>       0.50000000       0.00000000       0.33333333 </v>
    <v>       0.00000000       0.11111111       0.33333333 </v>
    <v>       0.00000000       0.11111111      -0.33333333 </v>
    <v>       0.12500000       0.11111111       0.33333333 </v>
    <v>      -0.12500000       0.11111111      -0.33333333 </v>
    <v>       0.25000000       0.11111111       0.33333333 </v>
    <v>      -0.25000000       0.11111111      -0.33333333 </v>
    <v>       0.37500000       0.11111111       0.33333333 </v>
    <v>      -0.37500000       0.11111111      -0.33333333 </v>
    <v>       0.50000000       0.11111111       0.33333333 </v>
    <v>       0.50000000       0.11111111      -0.33333333 </v>
    <v>       0.00000000       0.22222222       0.33333333 </v>
    <v>       0.00000000       0.22222222      -0.33333333 </v>
    <v>       0.12500000       0.22222222       0.33333333 </v>
    <v>      -0.12500000       0.22222222      -0.33333333 </v>
    <v>       0.25000000       0.22222222       0.33333333 </v>
    <v>      -0.25000000       0.22222222      -0.33333333 </v>
    <v>       0.37500000       0.22222222       0.33333333 </v>
    <v>      -0.37500000       0.22222222      -0.33333333 </v>
    <v>       0.50000000       0.22222222       0.33333333 </v>
    <v>       0.50000000       0.22222222      -0.33333333 </v>
    <v>       0.00000000       0.33333333       0.33333333 </v>
    <v>       0.00000000       0.33333333      -0.33333333 </v>
    <v>       0.12500000       0.33333333       0.33333333 </v>
    <v>      -0.12500000       0.33333333      -0.33333333 </v>
    <v>       0.25000000       0.33333333       0.33333333 </v>
    <v>      -0.25000000       0.33333333      -0.33333333 </v>
    <v>       0.37500000       0.33333333       0.33333333 </v>
    <v>      -0.37500000       0.33333333      -0.33333333 </v>
    <v>       0.50000000       0.33333333       0.33333333 </v>
    <v>       0.50000000       0.33333333      -0.33333333 </v>
    <v>       0.00000000       0.44444444       0.33333333 </v>
    <v>       0.00000000       0.44444444      -0.33333333 </v>
    <v>       0.12500000       0.44444444       0.33333333 </v>
    <v>      -0.12500000       0.44444444      -0.33333333 </v>
    <v>       0.25000000       0.44444444       0.33333333 </v>
    <v>      -0.25000000       0.44444444      -0.33333333 </v>
    <v>       0.37500000       0.44444444       0.33333333 </v>
    <v>      -0.37500000       0.44444444      -0.33333333 </v>
    <v>       0.50000000       0.44444444       0.33333333 </v>
    <v>       0.50000000       0.44444444      -0.33333333 </v>
   </varray>
   <varray name="weights" >
    <v>       0.00462963 </v>
    <v>       0.00925926 </v>
    <v>       0.00925926 </v>
    <v>       0.00925926 </v>
    <v>       0.00462963 </v>
    <v>       0.00925926 </v>
    <v>       0.01851852 </v>
    <v>       0.01851852 </v>
    <v>       0.01851852 </v>
    <v>       0.00925926 </v>
    <v>       0.00925926 </v>
    <v>       0.01851852 </v>
    <v>       0.01851852 </v>
    <v>       0.01851852 </v>
    <v>       0.00925926 </v>
    <v>       0.00925926 </v>
    <v>       0.01851852 </v>
    <v>       0.01851852 </v>
    <v>       0.01851852 </v>
    <v>       0.00925926 </v>
    <v>       0.00925926 </v>
    <v>       0.01851852 </v>
    <v>       0.01851852 </v>
    <v>       0.01851852 </v>
    <v>       0.00925926 </v>
    <v>       0.00925926 </v>
    <v>       0.01851852 </v>
    <v>       0.01851852 </v>
    <v>       0.01851852 </v>
    <v>       0.00925926 </v>
    <v>       0.00925926 </v>
    <v>       0.00925926 </v>
    <v>       0.01851852 </v>
    <v>       0.01851852 </v>
    <v>       0.01851852 </v>
    <v>       0.01851852 </v>
    <v>       0.01851852 </v>
    <v>       0.01851852 </v>
    <v>       0.00925926 </v>
    <v>       0.00925926 </v>
    <v>       0.00925926 </v>
    <v>       0.00925926 </v>
    <v>       0.01851852 </v>
    <v>       0.01851852 </v>
    <v>       0.01851852 </v>
    <v>       0.01851852 </v>
    <v>       0.01851852 </v>
    <v>       0.01851852 </v>
    <v>       0.00925926 </v>
    <v>       0.00925926 </v>
    <v>       0.00925926 </v>
    <v>       0.00925926 </v>
    <v>       0.01851852 </v>
    <v>       0.01851852 </v>
    <v>       0.01851852 </v>
    <v>       0.01851852 </v>
    <v>       0.01851852 </v>
    <v>       0.01851852 </v>
    <v>       0.00925926 </v>
    <v>       0.00925926 </v>
    <v>       0.00925926 </v>
    <v>       0.00925926 </v>
    <v>       0.01851852 </v>
    <v>       0.01851852 </v>
    <v>       0.01851852 </v>
    <v>       0.01851852 </v>
    <v>       0.01851852 </v>
    <v>       0.01851852 </v>
    <v>       0.00925926 </v>
    <v>       0.00925926 </v>
   </varray>
  </kpoints>
  <scstep>
   <time name="total">    1.93    1.26</time>
   <energy>
    <i name="e_fr_energy">     -2.27891913 </i>
    <i name="e_wo_entrp">     -2.27891913 </i>
    <i name="e_0_energy">     -2.27891913 </i>
   </energy>
  </scstep>
  <scstep>
   <time name="total">    2.64    1.61</time>
   <energy>
    <i name="e_fr_energy">    -13.86971779 </i>
    <i name="e_wo_entrp">    -13.86971779 </i>
    <i name="e_0_energy">    -13.86971779 </i>
   </energy>
  </scstep>
  <scstep>
   <time name="total">    2.56    1.62</time>
   <energy>
    <i name="e_fr_energy">    -13.35170191 </i>
    <i name="e_wo_entrp">    -13.35170191 </i>
    <i name="e_0_energy">    -13.35170191 </i>
   </energy>
  </scstep>
  <scstep>
   <time name="total">    2.52    1.62</time>
   <energy>
    <i name="e_fr_energy">    -13.52866404 </i>
    <i name="e_wo_entrp">    -13.52866404 </i>
    <i name="e_0_energy">    -13.52866404 </i>
   </energy>
  </scstep>
  <scstep>
   <time name="total">    2.67    1.64</time>
   <energy>
    <i name="e_fr_energy">    -13.73401117 </i>
    <i name="e_wo_entrp">    -13.73401117 </i>
    <i name="e_0_energy">    -13.73401117 </i>
   </energy>
  </scstep>
  <scstep>
   <time name="total">    2.64    1.62</time>
   <energy>
    <i name="e_fr_energy">    -13.78524018 </i>
    <i name="e_wo_entrp">    -13.78524018 </i>
    <i name="e_0_energy">    -13.78524018 </i>
   </energy>
  </scstep>
  <scstep>
   <time name="total">    2.73    1.65</time>
   <energy>
    <i name="e_fr_energy">    -13.79941900 </i>
    <i name="e_wo_entrp">    -13.79941900 </i>
    <i name="e_0_energy">    -13.79941900 </i>
   </energy>
  </scstep>
  <scstep>
   <time name="total">    2.69    1.63</time>
   <energy>
    <i name="e_fr_energy">    -13.79412993 </i>
    <i name="e_wo_entrp">    -13.79412993 </i>
    <i name="e_0_energy">    -13.79412993 </i>
   </energy>
  </scstep>
  <scstep>
   <time name="total">    2.82    1.70</time>
   <energy>
    <i name="e_fr_energy">    -13.80495517 </i>
    <i name="e_wo_entrp">    -13.80495517 </i>
    <i name="e_0_energy">    -13.80495517 </i>
   </energy>
  </scstep>
  <scstep>
   <time name="total">    2.68    1.63</time>
   <energy>
    <i name="e_fr_energy">    -13.79809453 </i>
    <i name="e_wo_entrp">    -13.79809453 </i>
    <i name="e_0_energy">    -13.79809453 </i>
   </energy>
  </scstep>
  <scstep>
   <time name="total">    2.72    1.65</time>
   <energy>
    <i name="e_fr_energy">    -13.80206478 </i>
    <i name="e_wo_entrp">    -13.80206478 </i>
    <i name="e_0_energy">    -13.80206478 </i>
   </energy>
  </scstep>
  <scstep>
   <time name="total">    2.73    1.66</time>
   <energy>
    <i name="e_fr_energy">    -13.80103337 </i>
    <i name="e_wo_entrp">    -13.80103337 </i>
    <i name="e_0_energy">    -13.80103337 </i>
   </energy>
  </scstep>
  <scstep>
   <time name="total">    2.70    1.64</time>
   <energy>
    <i name="e_fr_energy">    -13.80078603 </i>
    <i name="e_wo_entrp">    -13.80078603 </i>
    <i name="e_0_energy">    -13.80078603 </i>
   </energy>
  </scstep>
  <scstep>
   <time name="total">    2.61    1.59</time>
   <energy>
    <i name="e_fr_energy">    -13.80275253 </i>
    <i name="e_wo_entrp">    -13.80275253 </i>
    <i name="e_0_energy">    -13.80275253 </i>
   </energy>
  </scstep>
  <scstep>
   <time name="total">    2.55    1.56</time>
   <energy>
    <i name="e_fr_energy">    -13.79996581 </i>
    <i name="e_wo_entrp">    -13.79996581 </i>
    <i name="e_0_energy">    -13.79996581 </i>
   </energy>
  </scstep>
  <scstep>
   <time name="total">    2.54    1.56</time>
   <energy>
    <i name="e_fr_energy">    -13.80320285 </i>
    <i name="e_wo_entrp">    -13.80320285 </i>
    <i name="e_0_energy">    -13.80320285 </i>
   </energy>
  </scstep>
  <scstep>
   <time name="total">    2.51    1.54</time>
   <energy>
    <i name="e_fr_energy">    -13.80222336 </i>
    <i name="e_wo_entrp">    -13.80222336 </i>
    <i name="e_0_energy">    -13.80222336 </i>
   </energy>
  </scstep>
  <scstep>
   <time name="total">    2.45    1.51</time>
   <energy>
    <i name="e_fr_energy">    -13.80202110 </i>
    <i name="e_wo_entrp">    -13.80202110 </i>
    <i name="e_0_energy">    -13.80202110 </i>
   </energy>
  </scstep>
  <scstep>
   <time name="total">    2.47    1.52</time>
   <energy>
    <i name="e_fr_energy">    -13.80302883 </i>
    <i name="e_wo_entrp">    -13.80302883 </i>
    <i name="e_0_energy">    -13.80302883 </i>
   </energy>
  </scstep>
  <scstep>
   <time name="total">    2.48    1.53</time>
   <energy>
    <i name="e_fr_energy">    -13.80277471 </i>
    <i name="e_wo_entrp">    -13.80277471 </i>
    <i name="e_0_energy">    -13.80277471 </i>
   </energy>
  </scstep>
  <scstep>
   <time name="total">    2.47    1.52</time>
   <energy>
    <i name="e_fr_energy">    -13.80112264 </i>
    <i name="e_wo_entrp">    -13.80112264 </i>
    <i name="e_0_energy">    -13.80112264 </i>
   </energy>
  </scstep>
  <scstep>
   <time name="total">    2.47    1.52</time>
   <energy>
    <i name="e_fr_energy">    -13.80041080 </i>
    <i name="e_wo_entrp">    -13.80041080 </i>
    <i name="e_0_energy">    -13.80041080 </i>
   </energy>
  </scstep>
  <scstep>
   <time name="total">    2.49    1.53</time>
   <energy>
    <i name="e_fr_energy">    -13.80206234 </i>
    <i name="e_wo_entrp">    -13.80206234 </i>
    <i name="e_0_energy">    -13.80206234 </i>
   </energy>
  </scstep>
  <scstep>
   <time name="total">    2.47    1.52</time>
   <energy>
    <i name="e_fr_energy">    -13.80139595 </i>
    <i name="e_wo_entrp">    -13.80139595 </i>
    <i name="e_0_energy">    -13.80139595 </i>
   </energy>
  </scstep>
  <scstep>
   <time name="total">    2.48    1.53</time>
   <energy>
    <i name="e_fr_energy">    -13.80199775 </i>
    <i name="e_wo_entrp">    -13.80199775 </i>
    <i name="e_0_energy">    -13.80199775 </i>
   </energy>
  </scstep>
  <scstep>
   <time name="total">    2.49    1.53</time>
   <energy>
    <i name="e_fr_energy">    -13.80200151 </i>
    <i name="e_wo_entrp">    -13.80200151 </i>
    <i name="e_0_energy">    -13.80200151 </i>
   </energy>
  </scstep>
  <scstep>
   <time name="total">    2.56    1.57</time>
   <energy>
    <i name="e_fr_energy">    -13.80270761 </i>
    <i name="e_wo_entrp">    -13.80270761 </i>
    <i name="e_0_energy">    -13.80270761 </i>
   </energy>
  </scstep>
  <scstep>
   <time name="total">    2.48    1.53</time>
   <energy>
    <i name="e_fr_energy">    -13.80200214 </i>
    <i name="e_wo_entrp">    -13.80200214 </i>
    <i name="e_0_energy">    -13.80200214 </i>
   </energy>
  </scstep>
  <scstep>
   <time name="total">    2.55    1.56</time>
   <energy>
    <i name="e_fr_energy">    -13.80038546 </i>
    <i name="e_wo_entrp">    -13.80038546 </i>
    <i name="e_0_energy">    -13.80038546 </i>
   </energy>
  </scstep>
  <scstep>
   <time name="total">    2.51    1.54</time>
   <energy>
    <i name="e_fr_energy">    -13.80173517 </i>
    <i name="e_wo_entrp">    -13.80173517 </i>
    <i name="e_0_energy">    -13.80173517 </i>
   </energy>
  </scstep>
  <scstep>
   <time name="total">    2.53    1.55</time>
   <energy>
    <i name="e_fr_energy">    -13.80066238 </i>
    <i name="e_wo_entrp">    -13.80066238 </i>
    <i name="e_0_energy">    -13.80066238 </i>
   </energy>
  </scstep>
  <scstep>
   <time name="total">    2.52    1.55</time>
   <energy>
    <i name="e_fr_energy">    -13.80056046 </i>
    <i name="e_wo_entrp">    -13.80056046 </i>
    <i name="e_0_energy">    -13.80056046 </i>
   </energy>
  </scstep>
  <scstep>
   <time name="total">    2.53    1.55</time>
   <energy>
    <i name="e_fr_energy">    -13.80253032 </i>
    <i name="e_wo_entrp">    -13.80253032 </i>
    <i name="e_0_energy">    -13.80253032 </i>
   </energy>
  </scstep>
  <scstep>
   <time name="total">    2.52    1.55</time>
   <energy>
    <i name="e_fr_energy">    -13.80242696 </i>
    <i name="e_wo_entrp">    -13.80242696 </i>
    <i name="e_0_energy">    -13.80242696 </i>
   </energy>
  </scstep>
  <scstep>
   <time name="total">    2.54    1.56</time>
   <energy>
    <i name="e_fr_energy">    -13.80134936 </i>
    <i name="e_wo_entrp">    -13.80134936 </i>
    <i name="e_0_energy">    -13.80134936 </i>
   </energy>
  </scstep>
  <kpoints>
   <generation param="Gamma">
    <v type="int" name="divisions">       8        9        3 </v>
    <v name="usershift">      0.00000000       0.00000000       0.00000000 </v>
    <v name="genvec1">      0.12500000       0.00000000       0.00000000 </v>
    <v name="genvec2">      0.00000000       0.11111111       0.00000000 </v>
    <v name="genvec3">      0.00000000       0.00000000       0.33333333 </v>
    <v name="shift">      0.00000000       0.00000000       0.00000000 </v>
   </generation>
   <varray name="kpointlist" >
    <v>       0.00000000       0.00000000       0.00000000 </v>
    <v>       0.12500000       0.00000000       0.00000000 </v>
    <v>       0.25000000       0.00000000       0.00000000 </v>
    <v>       0.37500000       0.00000000       0.00000000 </v>
    <v>       0.50000000       0.00000000       0.00000000 </v>
    <v>       0.00000000       0.11111111       0.00000000 </v>
    <v>       0.12500000       0.11111111       0.00000000 </v>
    <v>       0.25000000       0.11111111       0.00000000 </v>
    <v>       0.37500000       0.11111111       0.00000000 </v>
    <v>       0.50000000       0.11111111       0.00000000 </v>
    <v>       0.00000000       0.22222222       0.00000000 </v>
    <v>       0.12500000       0.22222222       0.00000000 </v>
    <v>       0.25000000       0.22222222       0.00000000 </v>
    <v>       0.37500000       0.22222222       0.00000000 </v>
    <v>       0.50000000       0.22222222       0.00000000 </v>
    <v>       0.00000000       0.33333333       0.00000000 </v>
    <v>       0.12500000       0.33333333       0.00000000 </v>
    <v>       0.25000000       0.33333333       0.00000000 </v>
    <v>       0.37500000       0.33333333       0.00000000 </v>
    <v>       0.50000000       0.33333333       0.00000000 </v>
    <v>       0.00000000       0.44444444       0.00000000 </v>
    <v>       0.12500000       0.44444444       0.00000000 </v>
    <v>       0.25000000       0.44444444       0.00000000 </v>
    <v>       0.37500000       0.44444444       0.00000000 </v>
    <v>       0.50000000       0.44444444       0.00000000 </v>
    <v>       0.00000000       0.00000000       0.33333333 </v>
    <v>       0.12500000       0.00000000       0.33333333 </v>
    <v>       0.25000000       0.00000000       0.33333333 </v>
    <v>       0.37500000       0.00000000       0.33333333 </v>
    <v>       0.50000000       0.00000000       0.33333333 </v>
    <v>       0.00000000       0.11111111       0.33333333 </v>
    <v>       0.00000000       0.11111111      -0.33333333 </v>
    <v>       0.12500000       0.11111111       0.33333333 </v>
    <v>      -0.12500000       0.11111111      -0.33333333 </v>
    <v>       0.25000000       0.11111111       0.33333333 </v>
    <v>      -0.25000000       0.11111111      -0.33333333 </v>
    <v>       0.37500000       0.11111111       0.33333333 </v>
    <v>      -0.37500000       0.11111111      -0.33333333 </v>
    <v>       0.50000000       0.11111111       0.33333333 </v>
    <v>       0.50000000       0.11111111      -0.33333333 </v>
    <v>       0.00000000       0.22222222       0.33333333 </v>
    <v>       0.00000000       0.22222222      -0.33333333 </v>
    <v>       0.12500000       0.22222222       0.33333333 </v>
    <v>      -0.12500000       0.22222222      -0.33333333 </v>
    <v>       0.25000000       0.22222222       0.33333333 </v>
    <v>      -0.25000000       0.22222222      -0.33333333 </v>
    <v>       0.37500000       0.22222222       0.33333333 </v>
    <v>      -0.37500000       0.22222222      -0.33333333 </v>
    <v>       0.50000000       0.22222222       0.33333333 </v>
    <v>       0.50000000       0.22222222      -0.33333333 </v>
    <v>       0.00000000       0.33333333       0.33333333 </v>
    <v>       0.00000000       0.33333333      -0.33333333 </v>
    <v>       0.12500000       0.33333333       0.33333333 </v>
    <v>      -0.12500000       0.33333333      -0.33333333 </v>
    <v>       0.25000000       0.33333333       0.33333333 </v>
    <v>      -0.25000000       0.33333333      -0.33333333 </v>
    <v>       0.37500000       0.33333333       0.33333333 </v>
    <v>      -0.37500000       0.33333333      -0.33333333 </v>
    <v>       0.50000000       0.33333333       0.33333333 </v>
    <v>       0.50000000       0.33333333      -0.33333333 </v>
    <v>       0.00000000       0.44444444       0.33333333 </v>
    <v>       0.00000000       0.44444444      -0.33333333 </v>
    <v>       0.12500000       0.44444444       0.33333333 </v>
    <v>      -0.12500000       0.44444444      -0.33333333 </v>
    <v>       0.25000000       0.44444444       0.33333333 </v>
    <v>      -0.25000000       0.44444444      -0.33333333 </v>
    <v>       0.37500000       0.44444444       0.33333333 </v>
    <v>      -0.37500000       0.44444444      -0.33333333 </v>
    <v>       0.50000000       0.44444444       0.33333333 </v>
    <v>       0.50000000       0.44444444      -0.33333333 </v>
   </varray>
   <varray name="weights" >
    <v>       0.00462963 </v>
    <v>       0.00925926 </v>
    <v>       0.00925926 </v>
    <v>       0.00925926 </v>
    <v>       0.00462963 </v>
    <v>       0.00925926 </v>
    <v>       0.01851852 </v>
    <v>       0.01851852 </v>
    <v>       0.01851852 </v>
    <v>       0.00925926 </v>
    <v>       0.00925926 </v>
    <v>       0.01851852 </v>
    <v>       0.01851852 </v>
    <v>       0.01851852 </v>
    <v>       0.00925926 </v>
    <v>       0.00925926 </v>
    <v>       0.01851852 </v>
    <v>       0.01851852 </v>
    <v>       0.01851852 </v>
    <v>       0.00925926 </v>
    <v>       0.00925926 </v>
    <v>       0.01851852 </v>
    <v>       0.01851852 </v>
    <v>       0.01851852 </v>
    <v>       0.00925926 </v>
    <v>       0.00925926 </v>
    <v>       0.01851852 </v>
    <v>       0.01851852 </v>
    <v>       0.01851852 </v>
    <v>       0.00925926 </v>
    <v>       0.00925926 </v>
    <v>       0.00925926 </v>
    <v>       0.01851852 </v>
    <v>       0.01851852 </v>
    <v>       0.01851852 </v>
    <v>       0.01851852 </v>
    <v>       0.01851852 </v>
    <v>       0.01851852 </v>
    <v>       0.00925926 </v>
    <v>       0.00925926 </v>
    <v>       0.00925926 </v>
    <v>       0.00925926 </v>
    <v>       0.01851852 </v>
    <v>       0.01851852 </v>
    <v>       0.01851852 </v>
    <v>       0.01851852 </v>
    <v>       0.01851852 </v>
    <v>       0.01851852 </v>
    <v>       0.00925926 </v>
    <v>       0.00925926 </v>
    <v>       0.00925926 </v>
    <v>       0.00925926 </v>
    <v>       0.01851852 </v>
    <v>       0.01851852 </v>
    <v>       0.01851852 </v>
    <v>       0.01851852 </v>
    <v>       0.01851852 </v>
    <v>       0.01851852 </v>
    <v>       0.00925926 </v>
    <v>       0.00925926 </v>
    <v>       0.00925926 </v>
    <v>       0.00925926 </v>
    <v>       0.01851852 </v>
    <v>       0.01851852 </v>
    <v>       0.01851852 </v>
    <v>       0.01851852 </v>
    <v>       0.01851852 </v>
    <v>       0.01851852 </v>
    <v>       0.00925926 </v>
    <v>       0.00925926 </v>
   </varray>
  </kpoints>
  <scstep>
   <time name="total">    1.90    1.23</time>
   <energy>
    <i name="e_fr_energy">     -3.84733398 </i>
    <i name="e_wo_entrp">     -3.84733398 </i>
    <i name="e_0_energy">     -3.84733398 </i>
   </energy>
  </scstep>
  <scstep>
   <time name="total">    2.60    1.59</time>
   <energy>
    <i name="e_fr_energy">    -16.77487526 </i>
    <i name="e_wo_entrp">    -16.77487526 </i>
    <i name="e_0_energy">    -16.77487526 </i>
   </energy>
  </scstep>
  <scstep>
   <time name="total">    2.50    1.58</time>
   <energy>
    <i name="e_fr_energy">    -16.49122650 </i>
    <i name="e_wo_entrp">    -16.49122650 </i>
    <i name="e_0_energy">    -16.49122650 </i>
   </energy>
  </scstep>
  <scstep>
   <time name="total">    2.53    1.59</time>
   <energy>
    <i name="e_fr_energy">    -16.91424339 </i>
    <i name="e_wo_entrp">    -16.91424339 </i>
    <i name="e_0_energy">    -16.91424339 </i>
   </energy>
  </scstep>
  <scstep>
   <time name="total">    2.56    1.62</time>
   <energy>
    <i name="e_fr_energy">    -17.02913191 </i>
    <i name="e_wo_entrp">    -17.02913191 </i>
    <i name="e_0_energy">    -17.02913191 </i>
   </energy>
  </scstep>
  <scstep>
   <time name="total">    2.65    1.65</time>
   <energy>
    <i name="e_fr_energy">    -17.04768086 </i>
    <i name="e_wo_entrp">    -17.04768086 </i>
    <i name="e_0_energy">    -17.04768086 </i>
   </energy>
  </scstep>
  <scstep>
   <time name="total">    2.62    1.60</time>
   <energy>
    <i name="e_fr_energy">    -17.04555988 </i>
    <i name="e_wo_entrp">    -17.04555988 </i>
    <i name="e_0_energy">    -17.04555988 </i>
   </energy>
  </scstep>
  <scstep>
   <time name="total">    2.72    1.67</time>
   <energy>
    <i name="e_fr_energy">    -17.04910925 </i>
    <i name="e_wo_entrp">    -17.04910925 </i>
    <i name="e_0_energy">    -17.04910925 </i>
   </energy>
  </scstep>
  <scstep>
   <time name="total">    2.71    1.64</time>
   <energy>
    <i name="e_fr_energy">    -17.04741343 </i>
    <i name="e_wo_entrp">    -17.04741343 </i>
    <i name="e_0_energy">    -17.04741343 </i>
   </energy>
  </scstep>
  <scstep>
   <time name="total">    2.72    1.65</time>
   <energy>
    <i name="e_fr_energy">    -17.04982309 </i>
    <i name="e_wo_entrp">    -17.04982309 </i>
    <i name="e_0_energy">    -17.04982309 </i>
   </energy>
  </scstep>
  <scstep>
   <time name="total">    2.80    1.69</time>
   <energy>
    <i name="e_fr_energy">    -17.04747065 </i>
    <i name="e_wo_entrp">    -17.04747065 </i>
    <i name="e_0_energy">    -17.04747065 </i>
   </energy>
  </scstep>
  <scstep>
   <time name="total">    2.78    1.68</time>
   <energy>
    <i name="e_fr_energy">    -17.04947767 </i>
    <i name="e_wo_entrp">    -17.04947767 </i>
    <i name="e_0_energy">    -17.04947767 </i>
   </energy>
  </scstep>
  <scstep>
   <time name="total">    2.66    1.62</time>
   <energy>
    <i name="e_fr_energy">    -17.04859911 </i>
    <i name="e_wo_entrp">    -17.04859911 </i>
    <i name="e_0_energy">    -17.04859911 </i>
   </energy>
  </scstep>
  <scstep>
   <time name="total">    2.59    1.58</time>
   <energy>
    <i name="e_fr_energy">    -17.04787252 </i>
    <i name="e_wo_entrp">    -17.04787252 </i>
    <i name="e_0_energy">    -17.04787252 </i>
   </energy>
  </scstep>
  <scstep>
   <time name="total">    2.56    1.57</time>
   <energy>
    <i name="e_fr_energy">    -17.04793142 </i>
    <i name="e_wo_entrp">    -17.04793142 </i>
    <i name="e_0_energy">    -17.04793142 </i>
   </energy>
  </scstep>
  <scstep>
   <time name="total">    2.53    1.55</time>
   <energy>
    <i name="e_fr_energy">    -17.04915752 </i>
    <i name="e_wo_entrp">    -17.04915752 </i>
    <i name="e_0_energy">    -17.04915752 </i>
   </energy>
  </scstep>
  <scstep>
   <time name="total">    2.46    1.52</time>
   <energy>
    <i name="e_fr_energy">    -17.04791040 </i>
    <i name="e_wo_entrp">    -17.04791040 </i>
    <i name="e_0_energy">    -17.04791040 </i>
   </energy>
  </scstep>
  <scstep>
   <time name="total">    2.45    1.52</time>
   <energy>
    <i name="e_fr_energy">    -17.04871816 </i>
    <i name="e_wo_entrp">    -17.04871816 </i>
    <i name="e_0_energy">    -17.04871816 </i>
   </energy>
  </scstep>
  <scstep>
   <time name="total">    2.49    1.53</time>
   <energy>
    <i name="e_fr_energy">    -17.04891606 </i>
    <i name="e_wo_entrp">    -17.04891606 </i>
    <i name="e_0_energy">    -17.04891606 </i>
   </energy>
  </scstep>
  <scstep>
   <time name="total">    2.46    1.51</time>
   <energy>
    <i name="e_fr_energy">    -17.04838389 </i>
    <i name="e_wo_entrp">    -17.04838389 </i>
    <i name="e_0_energy">    -17.04838389 </i>
   </energy>
  </scstep>
  <scstep>
   <time name="total">    2.50    1.53</time>
   <energy>
    <i name="e_fr_energy">    -17.04877651 </i>
    <i name="e_wo_entrp">    -17.04877651 </i>
    <i name="e_0_energy">    -17.04877651 </i>
   </energy>
  </scstep>
  <scstep>
   <time name="total">    2.56    1.57</time>
   <energy>
    <i name="e_fr_energy">    -17.04852013 </i>
    <i name="e_wo_entrp">    -17.04852013 </i>
    <i name="e_0_energy">    -17.04852013 </i>
   </energy>
  </scstep>
  <scstep>
   <time name="total">    2.45    1.51</time>
   <energy>
    <i name="e_fr_energy">    -17.04866063 </i>
    <i name="e_wo_entrp">    -17.04866063 </i>
    <i name="e_0_energy">    -17.04866063 </i>
   </energy>
  </scstep>
  <scstep>
   <time name="total">    2.52    1.55</time>
   <energy>
    <i name="e_fr_energy">    -17.04845665 </i>
    <i name="e_wo_entrp">    -17.04845665 </i>
    <i name="e_0_energy">    -17.04845665 </i>
   </energy>
  </scstep>
  <scstep>
   <time name="total">    2.55    1.56</time>
   <energy>
    <i name="e_fr_energy">    -17.04845446 </i>
    <i name="e_wo_entrp">    -17.04845446 </i>
    <i name="e_0_energy">    -17.04845446 </i>
   </energy>
  </scstep>
  <kpoints>
   <generation param="Gamma">
    <v type="int" name="divisions">       8        9        3 </v>
    <v name="usershift">      0.00000000       0.00000000       0.00000000 </v>
    <v name="genvec1">      0.12500000       0.00000000       0.00000000 </v>
    <v name="genvec2">      0.00000000       0.11111111       0.00000000 </v>
    <v name="genvec3">      0.00000000       0.00000000       0.33333333 </v>
    <v name="shift">      0.00000000       0.00000000       0.00000000 </v>
   </generation>
   <varray name="kpointlist" >
    <v>       0.00000000       0.00000000       0.00000000 </v>
    <v>       0.12500000       0.00000000       0.00000000 </v>
    <v>       0.25000000       0.00000000       0.00000000 </v>
    <v>       0.37500000       0.00000000       0.00000000 </v>
    <v>       0.50000000       0.00000000       0.00000000 </v>
    <v>       0.00000000       0.11111111       0.00000000 </v>
    <v>       0.12500000       0.11111111       0.00000000 </v>
    <v>       0.25000000       0.11111111       0.00000000 </v>
    <v>       0.37500000       0.11111111       0.00000000 </v>
    <v>       0.50000000       0.11111111       0.00000000 </v>
    <v>       0.00000000       0.22222222       0.00000000 </v>
    <v>       0.12500000       0.22222222       0.00000000 </v>
    <v>       0.25000000       0.22222222       0.00000000 </v>
    <v>       0.37500000       0.22222222       0.00000000 </v>
    <v>       0.50000000       0.22222222       0.00000000 </v>
    <v>       0.00000000       0.33333333       0.00000000 </v>
    <v>       0.12500000       0.33333333       0.00000000 </v>
    <v>       0.25000000       0.33333333       0.00000000 </v>
    <v>       0.37500000       0.33333333       0.00000000 </v>
    <v>       0.50000000       0.33333333       0.00000000 </v>
    <v>       0.00000000       0.44444444       0.00000000 </v>
    <v>       0.12500000       0.44444444       0.00000000 </v>
    <v>       0.25000000       0.44444444       0.00000000 </v>
    <v>       0.37500000       0.44444444       0.00000000 </v>
    <v>       0.50000000       0.44444444       0.00000000 </v>
    <v>       0.00000000       0.00000000       0.33333333 </v>
    <v>       0.12500000       0.00000000       0.33333333 </v>
    <v>       0.25000000       0.00000000       0.33333333 </v>
    <v>       0.37500000       0.00000000       0.33333333 </v>
    <v>       0.50000000       0.00000000       0.33333333 </v>
    <v>       0.00000000       0.11111111       0.33333333 </v>
    <v>       0.00000000       0.11111111      -0.33333333 </v>
    <v>       0.12500000       0.11111111       0.33333333 </v>
    <v>      -0.12500000       0.11111111      -0.33333333 </v>
    <v>       0.25000000       0.11111111       0.33333333 </v>
    <v>      -0.25000000       0.11111111      -0.33333333 </v>
    <v>       0.37500000       0.11111111       0.33333333 </v>
    <v>      -0.37500000       0.11111111      -0.33333333 </v>
    <v>       0.50000000       0.11111111       0.33333333 </v>
    <v>       0.50000000       0.11111111      -0.33333333 </v>
    <v>       0.00000000       0.22222222       0.33333333 </v>
    <v>       0.00000000       0.22222222      -0.33333333 </v>
    <v>       0.12500000       0.22222222       0.33333333 </v>
    <v>      -0.12500000       0.22222222      -0.33333333 </v>
    <v>       0.25000000       0.22222222       0.33333333 </v>
    <v>      -0.25000000       0.22222222      -0.33333333 </v>
    <v>       0.37500000       0.22222222       0.33333333 </v>
    <v>      -0.37500000       0.22222222      -0.33333333 </v>
    <v>       0.50000000       0.22222222       0.33333333 </v>
    <v>       0.50000000       0.22222222      -0.33333333 </v>
    <v>       0.00000000       0.33333333       0.33333333 </v>
    <v>       0.00000000       0.33333333      -0.33333333 </v>
    <v>       0.12500000       0.33333333       0.33333333 </v>
    <v>      -0.12500000       0.33333333      -0.33333333 </v>
    <v>       0.25000000       0.33333333       0.33333333 </v>
    <v>      -0.25000000       0.33333333      -0.33333333 </v>
    <v>       0.37500000       0.33333333       0.33333333 </v>
    <v>      -0.37500000       0.33333333      -0.33333333 </v>
    <v>       0.50000000       0.33333333       0.33333333 </v>
    <v>       0.50000000       0.33333333      -0.33333333 </v>
    <v>       0.00000000       0.44444444       0.33333333 </v>
    <v>       0.00000000       0.44444444      -0.33333333 </v>
    <v>       0.12500000       0.44444444       0.33333333 </v>
    <v>      -0.12500000       0.44444444      -0.33333333 </v>
    <v>       0.25000000       0.44444444       0.33333333 </v>
    <v>      -0.25000000       0.44444444      -0.33333333 </v>
    <v>       0.37500000       0.44444444       0.33333333 </v>
    <v>      -0.37500000       0.44444444      -0.33333333 </v>
    <v>       0.50000000       0.44444444       0.33333333 </v>
    <v>       0.50000000       0.44444444      -0.33333333 </v>
   </varray>
   <varray name="weights" >
    <v>       0.00462963 </v>
    <v>       0.00925926 </v>
    <v>       0.00925926 </v>
    <v>       0.00925926 </v>
    <v>       0.00462963 </v>
    <v>       0.00925926 </v>
    <v>       0.01851852 </v>
    <v>       0.01851852 </v>
    <v>       0.01851852 </v>
    <v>       0.00925926 </v>
    <v>       0.00925926 </v>
    <v>       0.01851852 </v>
    <v>       0.01851852 </v>
    <v>       0.01851852 </v>
    <v>       0.00925926 </v>
    <v>       0.00925926 </v>
    <v>       0.01851852 </v>
    <v>       0.01851852 </v>
    <v>       0.01851852 </v>
    <v>       0.00925926 </v>
    <v>       0.00925926 </v>
    <v>       0.01851852 </v>
    <v>       0.01851852 </v>
    <v>       0.01851852 </v>
    <v>       0.00925926 </v>
    <v>       0.00925926 </v>
    <v>       0.01851852 </v>
    <v>       0.01851852 </v>
    <v>       0.01851852 </v>
    <v>       0.00925926 </v>
    <v>       0.00925926 </v>
    <v>       0.00925926 </v>
    <v>       0.01851852 </v>
    <v>       0.01851852 </v>
    <v>       0.01851852 </v>
    <v>       0.01851852 </v>
    <v>       0.01851852 </v>
    <v>       0.01851852 </v>
    <v>       0.00925926 </v>
    <v>       0.00925926 </v>
    <v>       0.00925926 </v>
    <v>       0.00925926 </v>
    <v>       0.01851852 </v>
    <v>       0.01851852 </v>
    <v>       0.01851852 </v>
    <v>       0.01851852 </v>
    <v>       0.01851852 </v>
    <v>       0.01851852 </v>
    <v>       0.00925926 </v>
    <v>       0.00925926 </v>
    <v>       0.00925926 </v>
    <v>       0.00925926 </v>
    <v>       0.01851852 </v>
    <v>       0.01851852 </v>
    <v>       0.01851852 </v>
    <v>       0.01851852 </v>
    <v>       0.01851852 </v>
    <v>       0.01851852 </v>
    <v>       0.00925926 </v>
    <v>       0.00925926 </v>
    <v>       0.00925926 </v>
    <v>       0.00925926 </v>
    <v>       0.01851852 </v>
    <v>       0.01851852 </v>
    <v>       0.01851852 </v>
    <v>       0.01851852 </v>
    <v>       0.01851852 </v>
    <v>       0.01851852 </v>
    <v>       0.00925926 </v>
    <v>       0.00925926 </v>
   </varray>
  </kpoints>
  <scstep>
   <time name="total">    1.88    1.22</time>
   <energy>
    <i name="e_fr_energy">     -4.13415442 </i>
    <i name="e_wo_entrp">     -4.13415442 </i>
    <i name="e_0_energy">     -4.13415442 </i>
   </energy>
  </scstep>
  <scstep>
   <time name="total">    2.63    1.60</time>
   <energy>
    <i name="e_fr_energy">    -15.58081140 </i>
    <i name="e_wo_entrp">    -15.58081140 </i>
    <i name="e_0_energy">    -15.58081140 </i>
   </energy>
  </scstep>
  <scstep>
   <time name="total">    2.53    1.61</time>
   <energy>
    <i name="e_fr_energy">    -15.18063916 </i>
    <i name="e_wo_entrp">    -15.18063916 </i>
    <i name="e_0_energy">    -15.18063916 </i>
   </energy>
  </scstep>
  <scstep>
   <time name="total">    2.55    1.60</time>
   <energy>
    <i name="e_fr_energy">    -15.36490836 </i>
    <i name="e_wo_entrp">    -15.36490836 </i>
    <i name="e_0_energy">    -15.36490836 </i>
   </energy>
  </scstep>
  <scstep>
   <time name="total">    2.60    1.60</time>
   <energy>
    <i name="e_fr_energy">    -15.51311432 </i>
    <i name="e_wo_entrp">    -15.51311432 </i>
    <i name="e_0_energy">    -15.51311432 </i>
   </energy>
  </scstep>
  <scstep>
   <time name="total">    2.64    1.62</time>
   <energy>
    <i name="e_fr_energy">    -15.58089682 </i>
    <i name="e_wo_entrp">    -15.58089682 </i>
    <i name="e_0_energy">    -15.58089682 </i>
   </energy>
  </scstep>
  <scstep>
   <time name="total">    2.77    1.69</time>
   <energy>
    <i name="e_fr_energy">    -15.57928036 </i>
    <i name="e_wo_entrp">    -15.57928036 </i>
    <i name="e_0_energy">    -15.57928036 </i>
   </energy>
  </scstep>
  <scstep>
   <time name="total">    2.68    1.63</time>
   <energy>
    <i name="e_fr_energy">    -15.58263349 </i>
    <i name="e_wo_entrp">    -15.58263349 </i>
    <i name="e_0_energy">    -15.58263349 </i>
   </energy>
  </scstep>
  <scstep>
   <time name="total">    2.74    1.66</time>
   <energy>
    <i name="e_fr_energy">    -15.58030564 </i>
    <i name="e_wo_entrp">    -15.58030564 </i>
    <i name="e_0_energy">    -15.58030564 </i>
   </energy>
  </scstep>
  <scstep>
   <time name="total">    2.67    1.62</time>
   <energy>
    <i name="e_fr_energy">    -15.58159675 </i>
    <i name="e_wo_entrp">    -15.58159675 </i>
    <i name="e_0_energy">    -15.58159675 </i>
   </energy>
  </scstep>
  <scstep>
   <time name="total">    2.67    1.62</time>
   <energy>
    <i name="e_fr_energy">    -15.58090792 </i>
    <i name="e_wo_entrp">    -15.58090792 </i>
    <i name="e_0_energy">    -15.58090792 </i>
   </energy>
  </scstep>
  <scstep>
   <time name="total">    2.73    1.65</time>
   <energy>
    <i name="e_fr_energy">    -15.58373942 </i>
    <i name="e_wo_entrp">    -15.58373942 </i>
    <i name="e_0_energy">    -15.58373942 </i>
   </energy>
  </scstep>
  <scstep>
   <time name="total">    2.68    1.63</time>
   <energy>
    <i name="e_fr_energy">    -15.58123202 </i>
    <i name="e_wo_entrp">    -15.58123202 </i>
    <i name="e_0_energy">    -15.58123202 </i>
   </energy>
  </scstep>
  <scstep>
   <time name="total">    2.62    1.60</time>
   <energy>
    <i name="e_fr_energy">    -15.58221593 </i>
    <i name="e_wo_entrp">    -15.58221593 </i>
    <i name="e_0_energy">    -15.58221593 </i>
   </energy>
  </scstep>
  <scstep>
   <time name="total">    2.54    1.56</time>
   <energy>
    <i name="e_fr_energy">    -15.58001358 </i>
    <i name="e_wo_entrp">    -15.58001358 </i>
    <i name="e_0_energy">    -15.58001358 </i>
   </energy>
  </scstep>
  <scstep>
   <time name="total">    2.51    1.55</time>
   <energy>
    <i name="e_fr_energy">    -15.58214590 </i>
    <i name="e_wo_entrp">    -15.58214590 </i>
    <i name="e_0_energy">    -15.58214590 </i>
   </energy>
  </scstep>
  <scstep>
   <time name="total">    2.48    1.53</time>
   <energy>
    <i name="e_fr_energy">    -15.57984012 </i>
    <i name="e_wo_entrp">    -15.57984012 </i>
    <i name="e_0_energy">    -15.57984012 </i>
   </energy>
  </scstep>
  <scstep>
   <time name="total">    2.44    1.51</time>
   <energy>
    <i name="e_fr_energy">    -15.58190913 </i>
    <i name="e_wo_entrp">    -15.58190913 </i>
    <i name="e_0_energy">    -15.58190913 </i>
   </energy>
  </scstep>
  <scstep>
   <time name="total">    2.47    1.53</time>
   <energy>
    <i name="e_fr_energy">    -15.57866711 </i>
    <i name="e_wo_entrp">    -15.57866711 </i>
    <i name="e_0_energy">    -15.57866711 </i>
   </energy>
  </scstep>
  <scstep>
   <time name="total">    2.45    1.51</time>
   <energy>
    <i name="e_fr_energy">    -15.58068289 </i>
    <i name="e_wo_entrp">    -15.58068289 </i>
    <i name="e_0_energy">    -15.58068289 </i>
   </energy>
  </scstep>
  <scstep>
   <time name="total">    2.44    1.51</time>
   <energy>
    <i name="e_fr_energy">    -15.57967065 </i>
    <i name="e_wo_entrp">    -15.57967065 </i>
    <i name="e_0_energy">    -15.57967065 </i>
   </energy>
  </scstep>
  <scstep>
   <time name="total">    2.44    1.51</time>
   <energy>
    <i name="e_fr_energy">    -15.58081341 </i>
    <i name="e_wo_entrp">    -15.58081341 </i>
    <i name="e_0_energy">    -15.58081341 </i>
   </energy>
  </scstep>
  <kpoints>
   <generation param="Gamma">
    <v type="int" name="divisions">       8        9        3 </v>
    <v name="usershift">      0.00000000       0.00000000       0.00000000 </v>
    <v name="genvec1">      0.12500000       0.00000000       0.00000000 </v>
    <v name="genvec2">      0.00000000       0.11111111       0.00000000 </v>
    <v name="genvec3">      0.00000000       0.00000000       0.33333333 </v>
    <v name="shift">      0.00000000       0.00000000       0.00000000 </v>
   </generation>
   <varray name="kpointlist" >
    <v>       0.00000000       0.00000000       0.00000000 </v>
    <v>       0.12500000       0.00000000       0.00000000 </v>
    <v>       0.25000000       0.00000000       0.00000000 </v>
    <v>       0.37500000       0.00000000       0.00000000 </v>
    <v>       0.50000000       0.00000000       0.00000000 </v>
    <v>       0.00000000       0.11111111       0.00000000 </v>
    <v>       0.12500000       0.11111111       0.00000000 </v>
    <v>       0.25000000       0.11111111       0.00000000 </v>
    <v>       0.37500000       0.11111111       0.00000000 </v>
    <v>       0.50000000       0.11111111       0.00000000 </v>
    <v>       0.00000000       0.22222222       0.00000000 </v>
    <v>       0.12500000       0.22222222       0.00000000 </v>
    <v>       0.25000000       0.22222222       0.00000000 </v>
    <v>       0.37500000       0.22222222       0.00000000 </v>
    <v>       0.50000000       0.22222222       0.00000000 </v>
    <v>       0.00000000       0.33333333       0.00000000 </v>
    <v>       0.12500000       0.33333333       0.00000000 </v>
    <v>       0.25000000       0.33333333       0.00000000 </v>
    <v>       0.37500000       0.33333333       0.00000000 </v>
    <v>       0.50000000       0.33333333       0.00000000 </v>
    <v>       0.00000000       0.44444444       0.00000000 </v>
    <v>       0.12500000       0.44444444       0.00000000 </v>
    <v>       0.25000000       0.44444444       0.00000000 </v>
    <v>       0.37500000       0.44444444       0.00000000 </v>
    <v>       0.50000000       0.44444444       0.00000000 </v>
    <v>       0.00000000       0.00000000       0.33333333 </v>
    <v>       0.12500000       0.00000000       0.33333333 </v>
    <v>       0.25000000       0.00000000       0.33333333 </v>
    <v>       0.37500000       0.00000000       0.33333333 </v>
    <v>       0.50000000       0.00000000       0.33333333 </v>
    <v>       0.00000000       0.11111111       0.33333333 </v>
    <v>       0.00000000       0.11111111      -0.33333333 </v>
    <v>       0.12500000       0.11111111       0.33333333 </v>
    <v>      -0.12500000       0.11111111      -0.33333333 </v>
    <v>       0.25000000       0.11111111       0.33333333 </v>
    <v>      -0.25000000       0.11111111      -0.33333333 </v>
    <v>       0.37500000       0.11111111       0.33333333 </v>
    <v>      -0.37500000       0.11111111      -0.33333333 </v>
    <v>       0.50000000       0.11111111       0.33333333 </v>
    <v>       0.50000000       0.11111111      -0.33333333 </v>
    <v>       0.00000000       0.22222222       0.33333333 </v>
    <v>       0.00000000       0.22222222      -0.33333333 </v>
    <v>       0.12500000       0.22222222       0.33333333 </v>
    <v>      -0.12500000       0.22222222      -0.33333333 </v>
    <v>       0.25000000       0.22222222       0.33333333 </v>
    <v>      -0.25000000       0.22222222      -0.33333333 </v>
    <v>       0.37500000       0.22222222       0.33333333 </v>
    <v>      -0.37500000       0.22222222      -0.33333333 </v>
    <v>       0.50000000       0.22222222       0.33333333 </v>
    <v>       0.50000000       0.22222222      -0.33333333 </v>
    <v>       0.00000000       0.33333333       0.33333333 </v>
    <v>       0.00000000       0.33333333      -0.33333333 </v>
    <v>       0.12500000       0.33333333       0.33333333 </v>
    <v>      -0.12500000       0.33333333      -0.33333333 </v>
    <v>       0.25000000       0.33333333       0.33333333 </v>
    <v>      -0.25000000       0.33333333      -0.33333333 </v>
    <v>       0.37500000       0.33333333       0.33333333 </v>
    <v>      -0.37500000       0.33333333      -0.33333333 </v>
    <v>       0.50000000       0.33333333       0.33333333 </v>
    <v>       0.50000000       0.33333333      -0.33333333 </v>
    <v>       0.00000000       0.44444444       0.33333333 </v>
    <v>       0.00000000       0.44444444      -0.33333333 </v>
    <v>       0.12500000       0.44444444       0.33333333 </v>
    <v>      -0.12500000       0.44444444      -0.33333333 </v>
    <v>       0.25000000       0.44444444       0.33333333 </v>
    <v>      -0.25000000       0.44444444      -0.33333333 </v>
    <v>       0.37500000       0.44444444       0.33333333 </v>
    <v>      -0.37500000       0.44444444      -0.33333333 </v>
    <v>       0.50000000       0.44444444       0.33333333 </v>
    <v>       0.50000000       0.44444444      -0.33333333 </v>
   </varray>
   <varray name="weights" >
    <v>       0.00462963 </v>
    <v>       0.00925926 </v>
    <v>       0.00925926 </v>
    <v>       0.00925926 </v>
    <v>       0.00462963 </v>
    <v>       0.00925926 </v>
    <v>       0.01851852 </v>
    <v>       0.01851852 </v>
    <v>       0.01851852 </v>
    <v>       0.00925926 </v>
    <v>       0.00925926 </v>
    <v>       0.01851852 </v>
    <v>       0.01851852 </v>
    <v>       0.01851852 </v>
    <v>       0.00925926 </v>
    <v>       0.00925926 </v>
    <v>       0.01851852 </v>
    <v>       0.01851852 </v>
    <v>       0.01851852 </v>
    <v>       0.00925926 </v>
    <v>       0.00925926 </v>
    <v>       0.01851852 </v>
    <v>       0.01851852 </v>
    <v>       0.01851852 </v>
    <v>       0.00925926 </v>
    <v>       0.00925926 </v>
    <v>       0.01851852 </v>
    <v>       0.01851852 </v>
    <v>       0.01851852 </v>
    <v>       0.00925926 </v>
    <v>       0.00925926 </v>
    <v>       0.00925926 </v>
    <v>       0.01851852 </v>
    <v>       0.01851852 </v>
    <v>       0.01851852 </v>
    <v>       0.01851852 </v>
    <v>       0.01851852 </v>
    <v>       0.01851852 </v>
    <v>       0.00925926 </v>
    <v>       0.00925926 </v>
    <v>       0.00925926 </v>
    <v>       0.00925926 </v>
    <v>       0.01851852 </v>
    <v>       0.01851852 </v>
    <v>       0.01851852 </v>
    <v>       0.01851852 </v>
    <v>       0.01851852 </v>
    <v>       0.01851852 </v>
    <v>       0.00925926 </v>
    <v>       0.00925926 </v>
    <v>       0.00925926 </v>
    <v>       0.00925926 </v>
    <v>       0.01851852 </v>
    <v>       0.01851852 </v>
    <v>       0.01851852 </v>
    <v>       0.01851852 </v>
    <v>       0.01851852 </v>
    <v>       0.01851852 </v>
    <v>       0.00925926 </v>
    <v>       0.00925926 </v>
    <v>       0.00925926 </v>
    <v>       0.00925926 </v>
    <v>       0.01851852 </v>
    <v>       0.01851852 </v>
    <v>       0.01851852 </v>
    <v>       0.01851852 </v>
    <v>       0.01851852 </v>
    <v>       0.01851852 </v>
    <v>       0.00925926 </v>
    <v>       0.00925926 </v>
   </varray>
  </kpoints>
  <varray name="dielectric_dft" >
   <v>      24.37257216       0.00000000       0.00000000 </v>
   <v>       0.00000000      29.79731093       0.07819880 </v>
   <v>       0.00000000       0.07820289      27.66848477 </v>
  </varray>
  <varray name="epsilon" >
   <v>      24.37257216       0.00000000       0.00000000 </v>
   <v>       0.00000000      29.79731093       0.07819880 </v>
   <v>       0.00000000       0.07820289      27.66848477 </v>
  </varray>
  <kpoints>
   <generation param="Gamma">
    <v type="int" name="divisions">       8        9        3 </v>
    <v name="usershift">      0.00000000       0.00000000       0.00000000 </v>
    <v name="genvec1">      0.12500000       0.00000000       0.00000000 </v>
    <v name="genvec2">      0.00000000       0.11111111       0.00000000 </v>
    <v name="genvec3">      0.00000000       0.00000000       0.33333333 </v>
    <v name="shift">      0.00000000       0.00000000       0.00000000 </v>
   </generation>
   <varray name="kpointlist" >
    <v>       0.00000000       0.00000000       0.00000000 </v>
    <v>       0.12500000       0.00000000       0.00000000 </v>
    <v>       0.25000000       0.00000000       0.00000000 </v>
    <v>       0.37500000       0.00000000       0.00000000 </v>
    <v>       0.50000000       0.00000000       0.00000000 </v>
    <v>       0.00000000       0.11111111       0.00000000 </v>
    <v>       0.12500000       0.11111111       0.00000000 </v>
    <v>       0.25000000       0.11111111       0.00000000 </v>
    <v>       0.37500000       0.11111111       0.00000000 </v>
    <v>       0.50000000       0.11111111       0.00000000 </v>
    <v>       0.00000000       0.22222222       0.00000000 </v>
    <v>       0.12500000       0.22222222       0.00000000 </v>
    <v>       0.25000000       0.22222222       0.00000000 </v>
    <v>       0.37500000       0.22222222       0.00000000 </v>
    <v>       0.50000000       0.22222222       0.00000000 </v>
    <v>       0.00000000       0.33333333       0.00000000 </v>
    <v>       0.12500000       0.33333333       0.00000000 </v>
    <v>       0.25000000       0.33333333       0.00000000 </v>
    <v>       0.37500000       0.33333333       0.00000000 </v>
    <v>       0.50000000       0.33333333       0.00000000 </v>
    <v>       0.00000000       0.44444444       0.00000000 </v>
    <v>       0.12500000       0.44444444       0.00000000 </v>
    <v>       0.25000000       0.44444444       0.00000000 </v>
    <v>       0.37500000       0.44444444       0.00000000 </v>
    <v>       0.50000000       0.44444444       0.00000000 </v>
    <v>       0.00000000       0.00000000       0.33333333 </v>
    <v>       0.12500000       0.00000000       0.33333333 </v>
    <v>       0.25000000       0.00000000       0.33333333 </v>
    <v>       0.37500000       0.00000000       0.33333333 </v>
    <v>       0.50000000       0.00000000       0.33333333 </v>
    <v>       0.00000000       0.11111111       0.33333333 </v>
    <v>       0.00000000       0.11111111      -0.33333333 </v>
    <v>       0.12500000       0.11111111       0.33333333 </v>
    <v>      -0.12500000       0.11111111      -0.33333333 </v>
    <v>       0.25000000       0.11111111       0.33333333 </v>
    <v>      -0.25000000       0.11111111      -0.33333333 </v>
    <v>       0.37500000       0.11111111       0.33333333 </v>
    <v>      -0.37500000       0.11111111      -0.33333333 </v>
    <v>       0.50000000       0.11111111       0.33333333 </v>
    <v>       0.50000000       0.11111111      -0.33333333 </v>
    <v>       0.00000000       0.22222222       0.33333333 </v>
    <v>       0.00000000       0.22222222      -0.33333333 </v>
    <v>       0.12500000       0.22222222       0.33333333 </v>
    <v>      -0.12500000       0.22222222      -0.33333333 </v>
    <v>       0.25000000       0.22222222       0.33333333 </v>
    <v>      -0.25000000       0.22222222      -0.33333333 </v>
    <v>       0.37500000       0.22222222       0.33333333 </v>
    <v>      -0.37500000       0.22222222      -0.33333333 </v>
    <v>       0.50000000       0.22222222       0.33333333 </v>
    <v>       0.50000000       0.22222222      -0.33333333 </v>
    <v>       0.00000000       0.33333333       0.33333333 </v>
    <v>       0.00000000       0.33333333      -0.33333333 </v>
    <v>       0.12500000       0.33333333       0.33333333 </v>
    <v>      -0.12500000       0.33333333      -0.33333333 </v>
    <v>       0.25000000       0.33333333       0.33333333 </v>
    <v>      -0.25000000       0.33333333      -0.33333333 </v>
    <v>       0.37500000       0.33333333       0.33333333 </v>
    <v>      -0.37500000       0.33333333      -0.33333333 </v>
    <v>       0.50000000       0.33333333       0.33333333 </v>
    <v>       0.50000000       0.33333333      -0.33333333 </v>
    <v>       0.00000000       0.44444444       0.33333333 </v>
    <v>       0.00000000       0.44444444      -0.33333333 </v>
    <v>       0.12500000       0.44444444       0.33333333 </v>
    <v>      -0.12500000       0.44444444      -0.33333333 </v>
    <v>       0.25000000       0.44444444       0.33333333 </v>
    <v>      -0.25000000       0.44444444      -0.33333333 </v>
    <v>       0.37500000       0.44444444       0.33333333 </v>
    <v>      -0.37500000       0.44444444      -0.33333333 </v>
    <v>       0.50000000       0.44444444       0.33333333 </v>
    <v>       0.50000000       0.44444444      -0.33333333 </v>
   </varray>
   <varray name="weights" >
    <v>       0.00462963 </v>
    <v>       0.00925926 </v>
    <v>       0.00925926 </v>
    <v>       0.00925926 </v>
    <v>       0.00462963 </v>
    <v>       0.00925926 </v>
    <v>       0.01851852 </v>
    <v>       0.01851852 </v>
    <v>       0.01851852 </v>
    <v>       0.00925926 </v>
    <v>       0.00925926 </v>
    <v>       0.01851852 </v>
    <v>       0.01851852 </v>
    <v>       0.01851852 </v>
    <v>       0.00925926 </v>
    <v>       0.00925926 </v>
    <v>       0.01851852 </v>
    <v>       0.01851852 </v>
    <v>       0.01851852 </v>
    <v>       0.00925926 </v>
    <v>       0.00925926 </v>
    <v>       0.01851852 </v>
    <v>       0.01851852 </v>
    <v>       0.01851852 </v>
    <v>       0.00925926 </v>
    <v>       0.00925926 </v>
    <v>       0.01851852 </v>
    <v>       0.01851852 </v>
    <v>       0.01851852 </v>
    <v>       0.00925926 </v>
    <v>       0.00925926 </v>
    <v>       0.00925926 </v>
    <v>       0.01851852 </v>
    <v>       0.01851852 </v>
    <v>       0.01851852 </v>
    <v>       0.01851852 </v>
    <v>       0.01851852 </v>
    <v>       0.01851852 </v>
    <v>       0.00925926 </v>
    <v>       0.00925926 </v>
    <v>       0.00925926 </v>
    <v>       0.00925926 </v>
    <v>       0.01851852 </v>
    <v>       0.01851852 </v>
    <v>       0.01851852 </v>
    <v>       0.01851852 </v>
    <v>       0.01851852 </v>
    <v>       0.01851852 </v>
    <v>       0.00925926 </v>
    <v>       0.00925926 </v>
    <v>       0.00925926 </v>
    <v>       0.00925926 </v>
    <v>       0.01851852 </v>
    <v>       0.01851852 </v>
    <v>       0.01851852 </v>
    <v>       0.01851852 </v>
    <v>       0.01851852 </v>
    <v>       0.01851852 </v>
    <v>       0.00925926 </v>
    <v>       0.00925926 </v>
    <v>       0.00925926 </v>
    <v>       0.00925926 </v>
    <v>       0.01851852 </v>
    <v>       0.01851852 </v>
    <v>       0.01851852 </v>
    <v>       0.01851852 </v>
    <v>       0.01851852 </v>
    <v>       0.01851852 </v>
    <v>       0.00925926 </v>
    <v>       0.00925926 </v>
   </varray>
  </kpoints>
  <array name="born_charges" >
   <dimension dim="1">ion</dimension>
   <set>
    <v>       3.99378059       0.00875591      -0.59178791 </v>
    <v>       0.01386894       4.57172584       0.01248927 </v>
    <v>       0.08583023       0.00440555       4.23598639 </v>
   </set>
   <set>
    <v>       3.99378059      -0.00875591       0.59178791 </v>
    <v>      -0.01386894       4.57172584       0.01248927 </v>
    <v>      -0.08583023       0.00440555       4.23598639 </v>
   </set>
   <set>
    <v>       3.99378059      -0.00875591       0.59178791 </v>
    <v>      -0.01386894       4.57172584       0.01248927 </v>
    <v>      -0.08583023       0.00440555       4.23598639 </v>
   </set>
   <set>
    <v>       3.99378059       0.00875591      -0.59178791 </v>
    <v>       0.01386894       4.57172584       0.01248927 </v>
    <v>       0.08583023       0.00440555       4.23598639 </v>
   </set>
   <set>
    <v>      -3.99378059       0.00590551       0.57797399 </v>
    <v>       0.00869674      -4.57172584      -0.01248927 </v>
    <v>       0.69182867      -0.00440555      -4.23598639 </v>
   </set>
   <set>
    <v>      -3.99378059      -0.00590551      -0.57797399 </v>
    <v>      -0.00869674      -4.57172584      -0.01248927 </v>
    <v>      -0.69182867      -0.00440555      -4.23598639 </v>
   </set>
   <set>
    <v>      -3.99378059      -0.00590551      -0.57797399 </v>
    <v>      -0.00869674      -4.57172584      -0.01248927 </v>
    <v>      -0.69182867      -0.00440555      -4.23598639 </v>
   </set>
   <set>
    <v>      -3.99378059       0.00590551       0.57797399 </v>
    <v>       0.00869674      -4.57172584      -0.01248927 </v>
    <v>       0.69182867      -0.00440555      -4.23598639 </v>
   </set>
  </array>
  <time name="totalsc">  462.26  282.57</time>
  <eigenvalues>
   <array>
    <dimension dim="1">band</dimension>
    <dimension dim="2">kpoint</dimension>
    <dimension dim="3">spin</dimension>
    <field>eigene</field>
    <field>occ</field>
    <set>
     <set comment="spin 1">
      <set comment="kpoint 1">
       <r>  -15.4185    1.0000 </r>
       <r>  -15.3994    1.0000 </r>
       <r>  -15.3983    1.0000 </r>
       <r>  -15.3926    1.0000 </r>
       <r>  -15.3917    1.0000 </r>
       <r>  -15.3901    1.0000 </r>
       <r>  -15.3866    1.0000 </r>
       <r>  -15.3831    1.0000 </r>
       <r>  -15.3818    1.0000 </r>
       <r>  -15.3801    1.0000 </r>
       <r>  -15.3764    1.0000 </r>
       <r>  -15.3756    1.0000 </r>
       <r>  -15.3652    1.0000 </r>
       <r>  -15.3604    1.0000 </r>
       <r>  -15.3450    1.0000 </r>
       <r>  -15.3354    1.0000 </r>
       <r>  -15.3349    1.0000 </r>
       <r>  -15.3270    1.0000 </r>
       <r>  -15.3144    1.0000 </r>
       <r>  -15.3051    1.0000 </r>
       <r>   -8.1765    1.0000 </r>
       <r>   -7.7614    1.0000 </r>
       <r>   -7.1071    1.0000 </r>
       <r>   -6.4997    1.0000 </r>
       <r>   -1.4512    1.0000 </r>
       <r>   -0.2039    1.0000 </r>
       <r>    0.0299    1.0000 </r>
       <r>    0.8491    1.0000 </r>
       <r>    0.9750    1.0000 </r>
       <r>    2.3090    1.0000 </r>
       <r>    2.3264    1.0000 </r>
       <r>    2.4389    1.0000 </r>
       <r>    2.8977    1.0000 </r>
       <r>    2.9108    1.0000 </r>
       <r>    3.4128    1.0000 </r>
       <r>    3.9132    1.0000 </r>
       <r>    4.2217    1.0000 </r>
       <r>    4.5898    1.0000 </r>
       <r>    5.1305    1.0000 </r>
       <r>    5.2880    1.0000 </r>
       <r>    6.3314    0.0000 </r>
       <r>    8.7796    0.0000 </r>
       <r>    8.8888    0.0000 </r>
       <r>    8.9279    0.0000 </r>
       <r>    9.1722    0.0000 </r>
       <r>    9.3658    0.0000 </r>
       <r>   10.0893    0.0000 </r>
       <r>   10.4089    0.0000 </r>
       <r>   10.5181    0.0000 </r>
       <r>   10.7510    0.0000 </r>
       <r>   11.3474    0.0000 </r>
       <r>   11.8015    0.0000 </r>
       <r>   12.0335    0.0000 </r>
       <r>   12.0787    0.0000 </r>
       <r>   12.1458    0.0000 </r>
       <r>   12.6152    0.0000 </r>
       <r>   12.6710    0.0000 </r>
       <r>   13.5877    0.0000 </r>
       <r>   14.3933    0.0000 </r>
       <r>   14.4081    0.0000 </r>
       <r>   14.5484    0.0000 </r>
       <r>   14.6915    0.0000 </r>
       <r>   15.0277    0.0000 </r>
       <r>   15.0367    0.0000 </r>
      </set>
      <set comment="kpoint 2">
       <r>  -15.4173    1.0000 </r>
       <r>  -15.3996    1.0000 </r>
       <r>  -15.3970    1.0000 </r>
       <r>  -15.3922    1.0000 </r>
       <r>  -15.3915    1.0000 </r>
       <r>  -15.3914    1.0000 </r>
       <r>  -15.3872    1.0000 </r>
       <r>  -15.3833    1.0000 </r>
       <r>  -15.3808    1.0000 </r>
       <r>  -15.3802    1.0000 </r>
       <r>  -15.3773    1.0000 </r>
       <r>  -15.3735    1.0000 </r>
       <r>  -15.3641    1.0000 </r>
       <r>  -15.3607    1.0000 </r>
       <r>  -15.3452    1.0000 </r>
       <r>  -15.3356    1.0000 </r>
       <r>  -15.3349    1.0000 </r>
       <r>  -15.3274    1.0000 </r>
       <r>  -15.3140    1.0000 </r>
       <r>  -15.3055    1.0000 </r>
       <r>   -8.1023    1.0000 </r>
       <r>   -7.6941    1.0000 </r>
       <r>   -7.0844    1.0000 </r>
       <r>   -6.5086    1.0000 </r>
       <r>   -1.7386    1.0000 </r>
       <r>   -0.3991    1.0000 </r>
       <r>   -0.2367    1.0000 </r>
       <r>    0.4717    1.0000 </r>
       <r>    0.8577    1.0000 </r>
       <r>    2.3535    1.0000 </r>
       <r>    2.4379    1.0000 </r>
       <r>    2.8600    1.0000 </r>
       <r>    3.0111    1.0000 </r>
       <r>    3.4369    1.0000 </r>
       <r>    3.4967    1.0000 </r>
       <r>    3.9872    1.0000 </r>
       <r>    4.2715    1.0000 </r>
       <r>    4.9223    1.0000 </r>
       <r>    4.9636    1.0000 </r>
       <r>    5.3405    1.0000 </r>
       <r>    6.3424    0.0000 </r>
       <r>    8.1997    0.0000 </r>
       <r>    8.8545    0.0000 </r>
       <r>    8.9913    0.0000 </r>
       <r>    9.0699    0.0000 </r>
       <r>    9.1597    0.0000 </r>
       <r>    9.9607    0.0000 </r>
       <r>   10.2474    0.0000 </r>
       <r>   10.2917    0.0000 </r>
       <r>   10.3900    0.0000 </r>
       <r>   11.2783    0.0000 </r>
       <r>   11.2825    0.0000 </r>
       <r>   11.5582    0.0000 </r>
       <r>   12.0131    0.0000 </r>
       <r>   12.0921    0.0000 </r>
       <r>   12.6085    0.0000 </r>
       <r>   13.0598    0.0000 </r>
       <r>   13.6537    0.0000 </r>
       <r>   13.9927    0.0000 </r>
       <r>   14.5742    0.0000 </r>
       <r>   14.8808    0.0000 </r>
       <r>   15.3461    0.0000 </r>
       <r>   15.3986    0.0000 </r>
       <r>   15.6532    0.0000 </r>
      </set>
      <set comment="kpoint 3">
       <r>  -15.4140    1.0000 </r>
       <r>  -15.4004    1.0000 </r>
       <r>  -15.3944    1.0000 </r>
       <r>  -15.3942    1.0000 </r>
       <r>  -15.3938    1.0000 </r>
       <r>  -15.3900    1.0000 </r>
       <r>  -15.3874    1.0000 </r>
       <r>  -15.3845    1.0000 </r>
       <r>  -15.3807    1.0000 </r>
       <r>  -15.3794    1.0000 </r>
       <r>  -15.3771    1.0000 </r>
       <r>  -15.3686    1.0000 </r>
       <r>  -15.3631    1.0000 </r>
       <r>  -15.3604    1.0000 </r>
       <r>  -15.3450    1.0000 </r>
       <r>  -15.3373    1.0000 </r>
       <r>  -15.3337    1.0000 </r>
       <r>  -15.3285    1.0000 </r>
       <r>  -15.3130    1.0000 </r>
       <r>  -15.3065    1.0000 </r>
       <r>   -7.8926    1.0000 </r>
       <r>   -7.5037    1.0000 </r>
       <r>   -7.0498    1.0000 </r>
       <r>   -6.5570    1.0000 </r>
       <r>   -2.2663    1.0000 </r>
       <r>   -1.1163    1.0000 </r>
       <r>   -0.7998    1.0000 </r>
       <r>    0.0296    1.0000 </r>
       <r>    0.8755    1.0000 </r>
       <r>    2.6446    1.0000 </r>
       <r>    2.7575    1.0000 </r>
       <r>    3.2961    1.0000 </r>
       <r>    3.4851    1.0000 </r>
       <r>    3.7048    1.0000 </r>
       <r>    3.8901    1.0000 </r>
       <r>    4.3695    1.0000 </r>
       <r>    4.6296    1.0000 </r>
       <r>    4.7564    1.0000 </r>
       <r>    5.2786    1.0000 </r>
       <r>    5.5831    1.0000 </r>
       <r>    6.6654    0.0000 </r>
       <r>    7.1826    0.0000 </r>
       <r>    7.9194    0.0000 </r>
       <r>    8.1041    0.0000 </r>
       <r>    8.8603    0.0000 </r>
       <r>    8.9420    0.0000 </r>
       <r>    9.3321    0.0000 </r>
       <r>    9.4445    0.0000 </r>
       <r>   10.3190    0.0000 </r>
       <r>   10.5820    0.0000 </r>
       <r>   10.5926    0.0000 </r>
       <r>   11.1424    0.0000 </r>
       <r>   11.2431    0.0000 </r>
       <r>   12.2733    0.0000 </r>
       <r>   12.6760    0.0000 </r>
       <r>   12.6824    0.0000 </r>
       <r>   13.3225    0.0000 </r>
       <r>   13.5419    0.0000 </r>
       <r>   14.1352    0.0000 </r>
       <r>   14.7076    0.0000 </r>
       <r>   15.1878    0.0000 </r>
       <r>   15.5468    0.0000 </r>
       <r>   15.9292    0.0000 </r>
       <r>   16.2980    0.0000 </r>
      </set>
      <set comment="kpoint 4">
       <r>  -15.4096    1.0000 </r>
       <r>  -15.4022    1.0000 </r>
       <r>  -15.3968    1.0000 </r>
       <r>  -15.3964    1.0000 </r>
       <r>  -15.3919    1.0000 </r>
       <r>  -15.3892    1.0000 </r>
       <r>  -15.3867    1.0000 </r>
       <r>  -15.3858    1.0000 </r>
       <r>  -15.3816    1.0000 </r>
       <r>  -15.3813    1.0000 </r>
       <r>  -15.3719    1.0000 </r>
       <r>  -15.3645    1.0000 </r>
       <r>  -15.3637    1.0000 </r>
       <r>  -15.3593    1.0000 </r>
       <r>  -15.3436    1.0000 </r>
       <r>  -15.3391    1.0000 </r>
       <r>  -15.3322    1.0000 </r>
       <r>  -15.3296    1.0000 </r>
       <r>  -15.3114    1.0000 </r>
       <r>  -15.3079    1.0000 </r>
       <r>   -7.5922    1.0000 </r>
       <r>   -7.2274    1.0000 </r>
       <r>   -7.0935    1.0000 </r>
       <r>   -6.6915    1.0000 </r>
       <r>   -2.5941    1.0000 </r>
       <r>   -1.9591    1.0000 </r>
       <r>   -1.0525    1.0000 </r>
       <r>   -0.5669    1.0000 </r>
       <r>    1.3267    1.0000 </r>
       <r>    2.5380    1.0000 </r>
       <r>    3.2275    1.0000 </r>
       <r>    3.7064    1.0000 </r>
       <r>    3.8643    1.0000 </r>
       <r>    4.0871    1.0000 </r>
       <r>    4.1811    1.0000 </r>
       <r>    4.3621    1.0000 </r>
       <r>    4.7019    1.0000 </r>
       <r>    5.1626    1.0000 </r>
       <r>    5.6664    1.0000 </r>
       <r>    5.8772    1.0000 </r>
       <r>    6.6664    0.0000 </r>
       <r>    7.0754    0.0000 </r>
       <r>    7.2430    0.0000 </r>
       <r>    7.3175    0.0000 </r>
       <r>    7.9176    0.0000 </r>
       <r>    8.0143    0.0000 </r>
       <r>    8.6644    0.0000 </r>
       <r>    8.8963    0.0000 </r>
       <r>    9.3154    0.0000 </r>
       <r>    9.6061    0.0000 </r>
       <r>   11.4619    0.0000 </r>
       <r>   11.7504    0.0000 </r>
       <r>   12.4119    0.0000 </r>
       <r>   12.6918    0.0000 </r>
       <r>   13.1028    0.0000 </r>
       <r>   13.6024    0.0000 </r>
       <r>   13.6449    0.0000 </r>
       <r>   14.1594    0.0000 </r>
       <r>   14.2933    0.0000 </r>
       <r>   14.6450    0.0000 </r>
       <r>   14.7510    0.0000 </r>
       <r>   15.7193    0.0000 </r>
       <r>   16.5467    0.0000 </r>
       <r>   16.6339    0.0000 </r>
      </set>
      <set comment="kpoint 5">
       <r>  -15.4054    1.0000 </r>
       <r>  -15.4054    1.0000 </r>
       <r>  -15.3977    1.0000 </r>
       <r>  -15.3977    1.0000 </r>
       <r>  -15.3900    1.0000 </r>
       <r>  -15.3900    1.0000 </r>
       <r>  -15.3863    1.0000 </r>
       <r>  -15.3863    1.0000 </r>
       <r>  -15.3820    1.0000 </r>
       <r>  -15.3820    1.0000 </r>
       <r>  -15.3674    1.0000 </r>
       <r>  -15.3674    1.0000 </r>
       <r>  -15.3604    1.0000 </r>
       <r>  -15.3604    1.0000 </r>
       <r>  -15.3412    1.0000 </r>
       <r>  -15.3412    1.0000 </r>
       <r>  -15.3308    1.0000 </r>
       <r>  -15.3308    1.0000 </r>
       <r>  -15.3097    1.0000 </r>
       <r>  -15.3097    1.0000 </r>
       <r>   -7.2885    1.0000 </r>
       <r>   -7.2885    1.0000 </r>
       <r>   -6.9304    1.0000 </r>
       <r>   -6.9304    1.0000 </r>
       <r>   -2.4949    1.0000 </r>
       <r>   -2.4949    1.0000 </r>
       <r>   -0.9736    1.0000 </r>
       <r>   -0.9736    1.0000 </r>
       <r>    1.9486    1.0000 </r>
       <r>    1.9486    1.0000 </r>
       <r>    3.6925    1.0000 </r>
       <r>    3.6925    1.0000 </r>
       <r>    4.1174    1.0000 </r>
       <r>    4.1174    1.0000 </r>
       <r>    4.4422    1.0000 </r>
       <r>    4.4422    1.0000 </r>
       <r>    5.0259    1.0000 </r>
       <r>    5.0259    1.0000 </r>
       <r>    5.6394    1.0000 </r>
       <r>    5.6394    1.0000 </r>
       <r>    7.0682    0.0000 </r>
       <r>    7.0682    0.0000 </r>
       <r>    7.2464    0.0000 </r>
       <r>    7.2464    0.0000 </r>
       <r>    7.5492    0.0000 </r>
       <r>    7.5492    0.0000 </r>
       <r>    8.3553    0.0000 </r>
       <r>    8.3553    0.0000 </r>
       <r>    8.9635    0.0000 </r>
       <r>    8.9635    0.0000 </r>
       <r>   11.9067    0.0000 </r>
       <r>   11.9067    0.0000 </r>
       <r>   13.1146    0.0000 </r>
       <r>   13.1146    0.0000 </r>
       <r>   13.7865    0.0000 </r>
       <r>   13.7865    0.0000 </r>
       <r>   13.8999    0.0000 </r>
       <r>   13.8999    0.0000 </r>
       <r>   15.1001    0.0000 </r>
       <r>   15.1001    0.0000 </r>
       <r>   15.6204    0.0000 </r>
       <r>   15.6204    0.0000 </r>
       <r>   16.0051    0.0000 </r>
       <r>   16.0051    0.0000 </r>
      </set>
      <set comment="kpoint 6">
       <r>  -15.4148    1.0000 </r>
       <r>  -15.3967    1.0000 </r>
       <r>  -15.3965    1.0000 </r>
       <r>  -15.3923    1.0000 </r>
       <r>  -15.3915    1.0000 </r>
       <r>  -15.3910    1.0000 </r>
       <r>  -15.3908    1.0000 </r>
       <r>  -15.3851    1.0000 </r>
       <r>  -15.3818    1.0000 </r>
       <r>  -15.3791    1.0000 </r>
       <r>  -15.3788    1.0000 </r>
       <r>  -15.3731    1.0000 </r>
       <r>  -15.3632    1.0000 </r>
       <r>  -15.3606    1.0000 </r>
       <r>  -15.3435    1.0000 </r>
       <r>  -15.3360    1.0000 </r>
       <r>  -15.3337    1.0000 </r>
       <r>  -15.3284    1.0000 </r>
       <r>  -15.3149    1.0000 </r>
       <r>  -15.3067    1.0000 </r>
       <r>   -8.1046    1.0000 </r>
       <r>   -7.7007    1.0000 </r>
       <r>   -7.0685    1.0000 </r>
       <r>   -6.4977    1.0000 </r>
       <r>   -1.5661    1.0000 </r>
       <r>   -0.4571    1.0000 </r>
       <r>    0.0238    1.0000 </r>
       <r>    0.4201    1.0000 </r>
       <r>    0.8858    1.0000 </r>
       <r>    2.2253    1.0000 </r>
       <r>    2.5179    1.0000 </r>
       <r>    2.6308    1.0000 </r>
       <r>    2.8963    1.0000 </r>
       <r>    2.9774    1.0000 </r>
       <r>    3.6185    1.0000 </r>
       <r>    3.9496    1.0000 </r>
       <r>    4.2346    1.0000 </r>
       <r>    4.8315    1.0000 </r>
       <r>    5.1500    1.0000 </r>
       <r>    5.2276    1.0000 </r>
       <r>    6.4468    0.0000 </r>
       <r>    8.3177    0.0000 </r>
       <r>    8.8360    0.0000 </r>
       <r>    9.0689    0.0000 </r>
       <r>    9.1867    0.0000 </r>
       <r>    9.3090    0.0000 </r>
       <r>    9.7711    0.0000 </r>
       <r>   10.1683    0.0000 </r>
       <r>   10.2531    0.0000 </r>
       <r>   10.6557    0.0000 </r>
       <r>   11.0874    0.0000 </r>
       <r>   11.3903    0.0000 </r>
       <r>   11.7687    0.0000 </r>
       <r>   11.7768    0.0000 </r>
       <r>   12.2713    0.0000 </r>
       <r>   12.3610    0.0000 </r>
       <r>   12.6084    0.0000 </r>
       <r>   13.9260    0.0000 </r>
       <r>   14.1355    0.0000 </r>
       <r>   14.4955    0.0000 </r>
       <r>   15.1157    0.0000 </r>
       <r>   15.2066    0.0000 </r>
       <r>   15.2584    0.0000 </r>
       <r>   15.4132    0.0000 </r>
      </set>
      <set comment="kpoint 7">
       <r>  -15.4138    1.0000 </r>
       <r>  -15.3968    1.0000 </r>
       <r>  -15.3957    1.0000 </r>
       <r>  -15.3927    1.0000 </r>
       <r>  -15.3925    1.0000 </r>
       <r>  -15.3908    1.0000 </r>
       <r>  -15.3902    1.0000 </r>
       <r>  -15.3856    1.0000 </r>
       <r>  -15.3820    1.0000 </r>
       <r>  -15.3811    1.0000 </r>
       <r>  -15.3767    1.0000 </r>
       <r>  -15.3713    1.0000 </r>
       <r>  -15.3627    1.0000 </r>
       <r>  -15.3603    1.0000 </r>
       <r>  -15.3436    1.0000 </r>
       <r>  -15.3355    1.0000 </r>
       <r>  -15.3344    1.0000 </r>
       <r>  -15.3288    1.0000 </r>
       <r>  -15.3145    1.0000 </r>
       <r>  -15.3070    1.0000 </r>
       <r>   -8.0313    1.0000 </r>
       <r>   -7.6345    1.0000 </r>
       <r>   -7.0458    1.0000 </r>
       <r>   -6.5045    1.0000 </r>
       <r>   -1.7856    1.0000 </r>
       <r>   -0.5487    1.0000 </r>
       <r>   -0.2744    1.0000 </r>
       <r>    0.2833    1.0000 </r>
       <r>    0.8043    1.0000 </r>
       <r>    2.0051    1.0000 </r>
       <r>    2.1708    1.0000 </r>
       <r>    3.1790    1.0000 </r>
       <r>    3.2142    1.0000 </r>
       <r>    3.3425    1.0000 </r>
       <r>    3.4155    1.0000 </r>
       <r>    4.0444    1.0000 </r>
       <r>    4.5022    1.0000 </r>
       <r>    4.9945    1.0000 </r>
       <r>    5.2325    1.0000 </r>
       <r>    5.3086    1.0000 </r>
       <r>    6.4725    0.0000 </r>
       <r>    7.8086    0.0000 </r>
       <r>    8.4214    0.0000 </r>
       <r>    8.7357    0.0000 </r>
       <r>    8.9941    0.0000 </r>
       <r>    9.2970    0.0000 </r>
       <r>    9.5993    0.0000 </r>
       <r>    9.9693    0.0000 </r>
       <r>   10.2640    0.0000 </r>
       <r>   10.8795    0.0000 </r>
       <r>   10.9874    0.0000 </r>
       <r>   11.3330    0.0000 </r>
       <r>   11.5792    0.0000 </r>
       <r>   12.1063    0.0000 </r>
       <r>   12.3331    0.0000 </r>
       <r>   12.6963    0.0000 </r>
       <r>   12.9415    0.0000 </r>
       <r>   13.9622    0.0000 </r>
       <r>   14.1991    0.0000 </r>
       <r>   14.5134    0.0000 </r>
       <r>   14.8219    0.0000 </r>
       <r>   15.0210    0.0000 </r>
       <r>   15.2487    0.0000 </r>
       <r>   15.5556    0.0000 </r>
      </set>
      <set comment="kpoint 8">
       <r>  -15.4112    1.0000 </r>
       <r>  -15.3977    1.0000 </r>
       <r>  -15.3956    1.0000 </r>
       <r>  -15.3952    1.0000 </r>
       <r>  -15.3932    1.0000 </r>
       <r>  -15.3894    1.0000 </r>
       <r>  -15.3889    1.0000 </r>
       <r>  -15.3868    1.0000 </r>
       <r>  -15.3833    1.0000 </r>
       <r>  -15.3824    1.0000 </r>
       <r>  -15.3738    1.0000 </r>
       <r>  -15.3667    1.0000 </r>
       <r>  -15.3627    1.0000 </r>
       <r>  -15.3589    1.0000 </r>
       <r>  -15.3435    1.0000 </r>
       <r>  -15.3360    1.0000 </r>
       <r>  -15.3343    1.0000 </r>
       <r>  -15.3296    1.0000 </r>
       <r>  -15.3136    1.0000 </r>
       <r>  -15.3078    1.0000 </r>
       <r>   -7.8248    1.0000 </r>
       <r>   -7.4479    1.0000 </r>
       <r>   -7.0106    1.0000 </r>
       <r>   -6.5462    1.0000 </r>
       <r>   -2.2235    1.0000 </r>
       <r>   -1.0853    1.0000 </r>
       <r>   -0.7981    1.0000 </r>
       <r>   -0.0607    1.0000 </r>
       <r>    0.9542    1.0000 </r>
       <r>    1.9968    1.0000 </r>
       <r>    2.1626    1.0000 </r>
       <r>    3.1950    1.0000 </r>
       <r>    3.5685    1.0000 </r>
       <r>    3.6338    1.0000 </r>
       <r>    4.0203    1.0000 </r>
       <r>    4.0763    1.0000 </r>
       <r>    4.8383    1.0000 </r>
       <r>    5.1068    1.0000 </r>
       <r>    5.3388    1.0000 </r>
       <r>    5.5424    1.0000 </r>
       <r>    6.7816    0.0000 </r>
       <r>    7.2789    0.0000 </r>
       <r>    7.5194    0.0000 </r>
       <r>    7.6825    0.0000 </r>
       <r>    8.8711    0.0000 </r>
       <r>    8.9555    0.0000 </r>
       <r>    9.2953    0.0000 </r>
       <r>    9.8450    0.0000 </r>
       <r>   10.3660    0.0000 </r>
       <r>   10.5823    0.0000 </r>
       <r>   10.9492    0.0000 </r>
       <r>   11.4044    0.0000 </r>
       <r>   11.7755    0.0000 </r>
       <r>   11.9626    0.0000 </r>
       <r>   12.7622    0.0000 </r>
       <r>   13.0541    0.0000 </r>
       <r>   13.5395    0.0000 </r>
       <r>   13.9838    0.0000 </r>
       <r>   14.0192    0.0000 </r>
       <r>   14.4072    0.0000 </r>
       <r>   14.8078    0.0000 </r>
       <r>   15.5595    0.0000 </r>
       <r>   15.7454    0.0000 </r>
       <r>   16.2253    0.0000 </r>
      </set>
      <set comment="kpoint 9">
       <r>  -15.4078    1.0000 </r>
       <r>  -15.4007    1.0000 </r>
       <r>  -15.3974    1.0000 </r>
       <r>  -15.3971    1.0000 </r>
       <r>  -15.3924    1.0000 </r>
       <r>  -15.3903    1.0000 </r>
       <r>  -15.3877    1.0000 </r>
       <r>  -15.3866    1.0000 </r>
       <r>  -15.3842    1.0000 </r>
       <r>  -15.3830    1.0000 </r>
       <r>  -15.3698    1.0000 </r>
       <r>  -15.3639    1.0000 </r>
       <r>  -15.3619    1.0000 </r>
       <r>  -15.3577    1.0000 </r>
       <r>  -15.3420    1.0000 </r>
       <r>  -15.3377    1.0000 </r>
       <r>  -15.3328    1.0000 </r>
       <r>  -15.3305    1.0000 </r>
       <r>  -15.3122    1.0000 </r>
       <r>  -15.3091    1.0000 </r>
       <r>   -7.5307    1.0000 </r>
       <r>   -7.1792    1.0000 </r>
       <r>   -7.0502    1.0000 </r>
       <r>   -6.6689    1.0000 </r>
       <r>   -2.5075    1.0000 </r>
       <r>   -1.8831    1.0000 </r>
       <r>   -0.9882    1.0000 </r>
       <r>   -0.5505    1.0000 </r>
       <r>    1.3936    1.0000 </r>
       <r>    2.2236    1.0000 </r>
       <r>    2.4311    1.0000 </r>
       <r>    3.2920    1.0000 </r>
       <r>    3.3860    1.0000 </r>
       <r>    3.6424    1.0000 </r>
       <r>    4.1247    1.0000 </r>
       <r>    4.4491    1.0000 </r>
       <r>    5.0108    1.0000 </r>
       <r>    5.1288    1.0000 </r>
       <r>    5.4255    1.0000 </r>
       <r>    5.5088    1.0000 </r>
       <r>    6.9271    0.0000 </r>
       <r>    7.0892    0.0000 </r>
       <r>    7.1718    0.0000 </r>
       <r>    7.4850    0.0000 </r>
       <r>    8.3567    0.0000 </r>
       <r>    8.4818    0.0000 </r>
       <r>    8.7791    0.0000 </r>
       <r>    9.4844    0.0000 </r>
       <r>    9.9366    0.0000 </r>
       <r>   10.2568    0.0000 </r>
       <r>   11.3665    0.0000 </r>
       <r>   11.6232    0.0000 </r>
       <r>   11.9658    0.0000 </r>
       <r>   12.7388    0.0000 </r>
       <r>   12.8845    0.0000 </r>
       <r>   13.2043    0.0000 </r>
       <r>   14.0567    0.0000 </r>
       <r>   14.3537    0.0000 </r>
       <r>   14.3892    0.0000 </r>
       <r>   14.8438    0.0000 </r>
       <r>   15.3265    0.0000 </r>
       <r>   15.6862    0.0000 </r>
       <r>   16.7839    0.0000 </r>
       <r>   16.8878    0.0000 </r>
      </set>
      <set comment="kpoint 10">
       <r>  -15.4042    1.0000 </r>
       <r>  -15.4042    1.0000 </r>
       <r>  -15.3980    1.0000 </r>
       <r>  -15.3980    1.0000 </r>
       <r>  -15.3916    1.0000 </r>
       <r>  -15.3916    1.0000 </r>
       <r>  -15.3870    1.0000 </r>
       <r>  -15.3870    1.0000 </r>
       <r>  -15.3837    1.0000 </r>
       <r>  -15.3837    1.0000 </r>
       <r>  -15.3662    1.0000 </r>
       <r>  -15.3662    1.0000 </r>
       <r>  -15.3588    1.0000 </r>
       <r>  -15.3588    1.0000 </r>
       <r>  -15.3398    1.0000 </r>
       <r>  -15.3398    1.0000 </r>
       <r>  -15.3315    1.0000 </r>
       <r>  -15.3315    1.0000 </r>
       <r>  -15.3106    1.0000 </r>
       <r>  -15.3106    1.0000 </r>
       <r>   -7.2364    1.0000 </r>
       <r>   -7.2364    1.0000 </r>
       <r>   -6.8939    1.0000 </r>
       <r>   -6.8939    1.0000 </r>
       <r>   -2.4012    1.0000 </r>
       <r>   -2.4012    1.0000 </r>
       <r>   -0.9106    1.0000 </r>
       <r>   -0.9106    1.0000 </r>
       <r>    1.9438    1.0000 </r>
       <r>    1.9438    1.0000 </r>
       <r>    2.9891    1.0000 </r>
       <r>    2.9891    1.0000 </r>
       <r>    3.4148    1.0000 </r>
       <r>    3.4148    1.0000 </r>
       <r>    4.2883    1.0000 </r>
       <r>    4.2883    1.0000 </r>
       <r>    5.2353    1.0000 </r>
       <r>    5.2353    1.0000 </r>
       <r>    5.4022    1.0000 </r>
       <r>    5.4022    1.0000 </r>
       <r>    6.8748    0.0000 </r>
       <r>    6.8748    0.0000 </r>
       <r>    7.3070    0.0000 </r>
       <r>    7.3070    0.0000 </r>
       <r>    8.5190    0.0000 </r>
       <r>    8.5190    0.0000 </r>
       <r>    8.8567    0.0000 </r>
       <r>    8.8567    0.0000 </r>
       <r>    9.6819    0.0000 </r>
       <r>    9.6819    0.0000 </r>
       <r>   11.7518    0.0000 </r>
       <r>   11.7518    0.0000 </r>
       <r>   12.2209    0.0000 </r>
       <r>   12.2209    0.0000 </r>
       <r>   13.7485    0.0000 </r>
       <r>   13.7485    0.0000 </r>
       <r>   14.5098    0.0000 </r>
       <r>   14.5098    0.0000 </r>
       <r>   15.4195    0.0000 </r>
       <r>   15.4195    0.0000 </r>
       <r>   15.7123    0.0000 </r>
       <r>   15.7123    0.0000 </r>
       <r>   16.2072    0.0000 </r>
       <r>   16.2072    0.0000 </r>
      </set>
      <set comment="kpoint 11">
       <r>  -15.4051    1.0000 </r>
       <r>  -15.3971    1.0000 </r>
       <r>  -15.3946    1.0000 </r>
       <r>  -15.3932    1.0000 </r>
       <r>  -15.3928    1.0000 </r>
       <r>  -15.3928    1.0000 </r>
       <r>  -15.3882    1.0000 </r>
       <r>  -15.3875    1.0000 </r>
       <r>  -15.3841    1.0000 </r>
       <r>  -15.3840    1.0000 </r>
       <r>  -15.3753    1.0000 </r>
       <r>  -15.3682    1.0000 </r>
       <r>  -15.3616    1.0000 </r>
       <r>  -15.3591    1.0000 </r>
       <r>  -15.3393    1.0000 </r>
       <r>  -15.3381    1.0000 </r>
       <r>  -15.3330    1.0000 </r>
       <r>  -15.3307    1.0000 </r>
       <r>  -15.3158    1.0000 </r>
       <r>  -15.3105    1.0000 </r>
       <r>   -7.8969    1.0000 </r>
       <r>   -7.5299    1.0000 </r>
       <r>   -6.9731    1.0000 </r>
       <r>   -6.5166    1.0000 </r>
       <r>   -1.8541    1.0000 </r>
       <r>   -0.9720    1.0000 </r>
       <r>   -0.4400    1.0000 </r>
       <r>   -0.1954    1.0000 </r>
       <r>    0.8868    1.0000 </r>
       <r>    2.4060    1.0000 </r>
       <r>    2.7499    1.0000 </r>
       <r>    2.9213    1.0000 </r>
       <r>    2.9775    1.0000 </r>
       <r>    3.2016    1.0000 </r>
       <r>    3.9352    1.0000 </r>
       <r>    4.0795    1.0000 </r>
       <r>    4.3066    1.0000 </r>
       <r>    5.0396    1.0000 </r>
       <r>    5.1721    1.0000 </r>
       <r>    5.4424    1.0000 </r>
       <r>    6.7189    0.0000 </r>
       <r>    7.0655    0.0000 </r>
       <r>    8.4001    0.0000 </r>
       <r>    8.5151    0.0000 </r>
       <r>    8.6136    0.0000 </r>
       <r>    9.1703    0.0000 </r>
       <r>    9.2912    0.0000 </r>
       <r>    9.7576    0.0000 </r>
       <r>   10.4324    0.0000 </r>
       <r>   10.6035    0.0000 </r>
       <r>   10.7015    0.0000 </r>
       <r>   10.8709    0.0000 </r>
       <r>   11.4650    0.0000 </r>
       <r>   11.5049    0.0000 </r>
       <r>   12.1438    0.0000 </r>
       <r>   12.6651    0.0000 </r>
       <r>   13.1514    0.0000 </r>
       <r>   13.4867    0.0000 </r>
       <r>   14.7112    0.0000 </r>
       <r>   14.7799    0.0000 </r>
       <r>   15.3757    0.0000 </r>
       <r>   15.3923    0.0000 </r>
       <r>   15.5756    0.0000 </r>
       <r>   16.1324    0.0000 </r>
      </set>
      <set comment="kpoint 12">
       <r>  -15.4058    1.0000 </r>
       <r>  -15.3970    1.0000 </r>
       <r>  -15.3963    1.0000 </r>
       <r>  -15.3937    1.0000 </r>
       <r>  -15.3927    1.0000 </r>
       <r>  -15.3919    1.0000 </r>
       <r>  -15.3880    1.0000 </r>
       <r>  -15.3873    1.0000 </r>
       <r>  -15.3849    1.0000 </r>
       <r>  -15.3843    1.0000 </r>
       <r>  -15.3742    1.0000 </r>
       <r>  -15.3665    1.0000 </r>
       <r>  -15.3622    1.0000 </r>
       <r>  -15.3577    1.0000 </r>
       <r>  -15.3396    1.0000 </r>
       <r>  -15.3375    1.0000 </r>
       <r>  -15.3330    1.0000 </r>
       <r>  -15.3313    1.0000 </r>
       <r>  -15.3155    1.0000 </r>
       <r>  -15.3106    1.0000 </r>
       <r>   -7.8268    1.0000 </r>
       <r>   -7.4675    1.0000 </r>
       <r>   -6.9502    1.0000 </r>
       <r>   -6.5162    1.0000 </r>
       <r>   -1.9289    1.0000 </r>
       <r>   -0.9279    1.0000 </r>
       <r>   -0.5425    1.0000 </r>
       <r>   -0.2872    1.0000 </r>
       <r>    0.9520    1.0000 </r>
       <r>    1.7326    1.0000 </r>
       <r>    2.0566    1.0000 </r>
       <r>    2.9255    1.0000 </r>
       <r>    3.3650    1.0000 </r>
       <r>    3.6157    1.0000 </r>
       <r>    3.7021    1.0000 </r>
       <r>    4.0796    1.0000 </r>
       <r>    4.7718    1.0000 </r>
       <r>    5.0751    1.0000 </r>
       <r>    5.2279    1.0000 </r>
       <r>    5.4624    1.0000 </r>
       <r>    6.7563    0.0000 </r>
       <r>    7.1367    0.0000 </r>
       <r>    7.6698    0.0000 </r>
       <r>    7.8091    0.0000 </r>
       <r>    8.9398    0.0000 </r>
       <r>    9.0346    0.0000 </r>
       <r>    9.6438    0.0000 </r>
       <r>    9.9054    0.0000 </r>
       <r>   10.4771    0.0000 </r>
       <r>   10.5651    0.0000 </r>
       <r>   10.7370    0.0000 </r>
       <r>   11.3982    0.0000 </r>
       <r>   11.4376    0.0000 </r>
       <r>   12.4266    0.0000 </r>
       <r>   12.4557    0.0000 </r>
       <r>   12.9244    0.0000 </r>
       <r>   13.3422    0.0000 </r>
       <r>   13.8748    0.0000 </r>
       <r>   13.9792    0.0000 </r>
       <r>   14.3622    0.0000 </r>
       <r>   14.7741    0.0000 </r>
       <r>   15.5287    0.0000 </r>
       <r>   15.7049    0.0000 </r>
       <r>   15.9663    0.0000 </r>
      </set>
      <set comment="kpoint 13">
       <r>  -15.4076    1.0000 </r>
       <r>  -15.4006    1.0000 </r>
       <r>  -15.3966    1.0000 </r>
       <r>  -15.3954    1.0000 </r>
       <r>  -15.3931    1.0000 </r>
       <r>  -15.3912    1.0000 </r>
       <r>  -15.3889    1.0000 </r>
       <r>  -15.3863    1.0000 </r>
       <r>  -15.3847    1.0000 </r>
       <r>  -15.3842    1.0000 </r>
       <r>  -15.3714    1.0000 </r>
       <r>  -15.3627    1.0000 </r>
       <r>  -15.3623    1.0000 </r>
       <r>  -15.3557    1.0000 </r>
       <r>  -15.3394    1.0000 </r>
       <r>  -15.3363    1.0000 </r>
       <r>  -15.3333    1.0000 </r>
       <r>  -15.3326    1.0000 </r>
       <r>  -15.3148    1.0000 </r>
       <r>  -15.3111    1.0000 </r>
       <r>   -7.6312    1.0000 </r>
       <r>   -7.2936    1.0000 </r>
       <r>   -6.9116    1.0000 </r>
       <r>   -6.5354    1.0000 </r>
       <r>   -2.1192    1.0000 </r>
       <r>   -1.0405    1.0000 </r>
       <r>   -0.8565    1.0000 </r>
       <r>   -0.3819    1.0000 </r>
       <r>    1.1881    1.0000 </r>
       <r>    1.3008    1.0000 </r>
       <r>    1.5639    1.0000 </r>
       <r>    2.6982    1.0000 </r>
       <r>    2.8135    1.0000 </r>
       <r>    3.7900    1.0000 </r>
       <r>    3.9181    1.0000 </r>
       <r>    4.2919    1.0000 </r>
       <r>    4.6961    1.0000 </r>
       <r>    4.9433    1.0000 </r>
       <r>    5.0542    1.0000 </r>
       <r>    5.3115    1.0000 </r>
       <r>    6.7307    0.0000 </r>
       <r>    7.1913    0.0000 </r>
       <r>    7.8384    0.0000 </r>
       <r>    8.2802    0.0000 </r>
       <r>    8.5166    0.0000 </r>
       <r>    8.9655    0.0000 </r>
       <r>    9.3093    0.0000 </r>
       <r>   10.3349    0.0000 </r>
       <r>   10.8356    0.0000 </r>
       <r>   10.9574    0.0000 </r>
       <r>   11.0197    0.0000 </r>
       <r>   11.4336    0.0000 </r>
       <r>   11.6828    0.0000 </r>
       <r>   12.7361    0.0000 </r>
       <r>   12.9889    0.0000 </r>
       <r>   13.2385    0.0000 </r>
       <r>   13.8107    0.0000 </r>
       <r>   13.9019    0.0000 </r>
       <r>   14.1850    0.0000 </r>
       <r>   14.7126    0.0000 </r>
       <r>   15.1774    0.0000 </r>
       <r>   15.3705    0.0000 </r>
       <r>   16.0607    0.0000 </r>
       <r>   16.1558    0.0000 </r>
      </set>
      <set comment="kpoint 14">
       <r>  -15.4091    1.0000 </r>
       <r>  -15.4054    1.0000 </r>
       <r>  -15.3975    1.0000 </r>
       <r>  -15.3971    1.0000 </r>
       <r>  -15.3935    1.0000 </r>
       <r>  -15.3905    1.0000 </r>
       <r>  -15.3902    1.0000 </r>
       <r>  -15.3878    1.0000 </r>
       <r>  -15.3826    1.0000 </r>
       <r>  -15.3823    1.0000 </r>
       <r>  -15.3681    1.0000 </r>
       <r>  -15.3634    1.0000 </r>
       <r>  -15.3579    1.0000 </r>
       <r>  -15.3545    1.0000 </r>
       <r>  -15.3381    1.0000 </r>
       <r>  -15.3350    1.0000 </r>
       <r>  -15.3342    1.0000 </r>
       <r>  -15.3332    1.0000 </r>
       <r>  -15.3138    1.0000 </r>
       <r>  -15.3118    1.0000 </r>
       <r>   -7.3582    1.0000 </r>
       <r>   -7.0494    1.0000 </r>
       <r>   -6.9369    1.0000 </r>
       <r>   -6.6208    1.0000 </r>
       <r>   -2.2583    1.0000 </r>
       <r>   -1.6730    1.0000 </r>
       <r>   -0.8335    1.0000 </r>
       <r>   -0.5585    1.0000 </r>
       <r>    1.3672    1.0000 </r>
       <r>    1.5569    1.0000 </r>
       <r>    1.5904    1.0000 </r>
       <r>    2.5119    1.0000 </r>
       <r>    2.6309    1.0000 </r>
       <r>    3.3004    1.0000 </r>
       <r>    3.4384    1.0000 </r>
       <r>    4.0735    1.0000 </r>
       <r>    4.3438    1.0000 </r>
       <r>    4.8190    1.0000 </r>
       <r>    4.8291    1.0000 </r>
       <r>    5.3099    1.0000 </r>
       <r>    6.5255    0.0000 </r>
       <r>    7.7974    0.0000 </r>
       <r>    7.9292    0.0000 </r>
       <r>    8.8403    0.0000 </r>
       <r>    9.0024    0.0000 </r>
       <r>    9.3124    0.0000 </r>
       <r>    9.5351    0.0000 </r>
       <r>   10.5030    0.0000 </r>
       <r>   10.6308    0.0000 </r>
       <r>   11.0142    0.0000 </r>
       <r>   11.1018    0.0000 </r>
       <r>   11.5362    0.0000 </r>
       <r>   11.5897    0.0000 </r>
       <r>   11.8924    0.0000 </r>
       <r>   12.9392    0.0000 </r>
       <r>   13.7453    0.0000 </r>
       <r>   14.0185    0.0000 </r>
       <r>   14.5271    0.0000 </r>
       <r>   15.0431    0.0000 </r>
       <r>   15.6960    0.0000 </r>
       <r>   15.8540    0.0000 </r>
       <r>   16.2509    0.0000 </r>
       <r>   16.4129    0.0000 </r>
       <r>   16.8698    0.0000 </r>
      </set>
      <set comment="kpoint 15">
       <r>  -15.4086    1.0000 </r>
       <r>  -15.4086    1.0000 </r>
       <r>  -15.3982    1.0000 </r>
       <r>  -15.3982    1.0000 </r>
       <r>  -15.3919    1.0000 </r>
       <r>  -15.3919    1.0000 </r>
       <r>  -15.3894    1.0000 </r>
       <r>  -15.3894    1.0000 </r>
       <r>  -15.3816    1.0000 </r>
       <r>  -15.3816    1.0000 </r>
       <r>  -15.3652    1.0000 </r>
       <r>  -15.3652    1.0000 </r>
       <r>  -15.3551    1.0000 </r>
       <r>  -15.3551    1.0000 </r>
       <r>  -15.3360    1.0000 </r>
       <r>  -15.3360    1.0000 </r>
       <r>  -15.3338    1.0000 </r>
       <r>  -15.3338    1.0000 </r>
       <r>  -15.3127    1.0000 </r>
       <r>  -15.3127    1.0000 </r>
       <r>   -7.0945    1.0000 </r>
       <r>   -7.0945    1.0000 </r>
       <r>   -6.8017    1.0000 </r>
       <r>   -6.8017    1.0000 </r>
       <r>   -2.1273    1.0000 </r>
       <r>   -2.1273    1.0000 </r>
       <r>   -0.7542    1.0000 </r>
       <r>   -0.7542    1.0000 </r>
       <r>    1.7001    1.0000 </r>
       <r>    1.7001    1.0000 </r>
       <r>    1.9805    1.0000 </r>
       <r>    1.9805    1.0000 </r>
       <r>    2.7654    1.0000 </r>
       <r>    2.7654    1.0000 </r>
       <r>    3.4987    1.0000 </r>
       <r>    3.4987    1.0000 </r>
       <r>    4.5139    1.0000 </r>
       <r>    4.5139    1.0000 </r>
       <r>    5.0081    1.0000 </r>
       <r>    5.0081    1.0000 </r>
       <r>    7.0665    0.0000 </r>
       <r>    7.0665    0.0000 </r>
       <r>    8.6248    0.0000 </r>
       <r>    8.6248    0.0000 </r>
       <r>    9.6265    0.0000 </r>
       <r>    9.6265    0.0000 </r>
       <r>   10.1876    0.0000 </r>
       <r>   10.1876    0.0000 </r>
       <r>   10.5561    0.0000 </r>
       <r>   10.5561    0.0000 </r>
       <r>   11.2367    0.0000 </r>
       <r>   11.2367    0.0000 </r>
       <r>   11.6220    0.0000 </r>
       <r>   11.6220    0.0000 </r>
       <r>   13.2191    0.0000 </r>
       <r>   13.2191    0.0000 </r>
       <r>   15.2728    0.0000 </r>
       <r>   15.2728    0.0000 </r>
       <r>   15.7361    0.0000 </r>
       <r>   15.7361    0.0000 </r>
       <r>   16.0920    0.0000 </r>
       <r>   16.0920    0.0000 </r>
       <r>   17.0438    0.0000 </r>
       <r>   17.0438    0.0000 </r>
      </set>
      <set comment="kpoint 16">
       <r>  -15.4020    1.0000 </r>
       <r>  -15.3984    1.0000 </r>
       <r>  -15.3977    1.0000 </r>
       <r>  -15.3949    1.0000 </r>
       <r>  -15.3912    1.0000 </r>
       <r>  -15.3900    1.0000 </r>
       <r>  -15.3883    1.0000 </r>
       <r>  -15.3881    1.0000 </r>
       <r>  -15.3860    1.0000 </r>
       <r>  -15.3784    1.0000 </r>
       <r>  -15.3727    1.0000 </r>
       <r>  -15.3645    1.0000 </r>
       <r>  -15.3618    1.0000 </r>
       <r>  -15.3546    1.0000 </r>
       <r>  -15.3417    1.0000 </r>
       <r>  -15.3401    1.0000 </r>
       <r>  -15.3335    1.0000 </r>
       <r>  -15.3266    1.0000 </r>
       <r>  -15.3167    1.0000 </r>
       <r>  -15.3151    1.0000 </r>
       <r>   -7.5799    1.0000 </r>
       <r>   -7.2871    1.0000 </r>
       <r>   -6.8842    1.0000 </r>
       <r>   -6.6195    1.0000 </r>
       <r>   -2.1428    1.0000 </r>
       <r>   -1.3764    1.0000 </r>
       <r>   -1.2897    1.0000 </r>
       <r>   -0.7056    1.0000 </r>
       <r>    1.2291    1.0000 </r>
       <r>    2.7128    1.0000 </r>
       <r>    2.9625    1.0000 </r>
       <r>    3.1495    1.0000 </r>
       <r>    3.2470    1.0000 </r>
       <r>    3.4964    1.0000 </r>
       <r>    4.1048    1.0000 </r>
       <r>    4.2222    1.0000 </r>
       <r>    4.5820    1.0000 </r>
       <r>    4.9748    1.0000 </r>
       <r>    5.1145    1.0000 </r>
       <r>    5.7521    1.0000 </r>
       <r>    6.3139    0.0000 </r>
       <r>    7.0807    0.0000 </r>
       <r>    7.5272    0.0000 </r>
       <r>    7.6207    0.0000 </r>
       <r>    7.8414    0.0000 </r>
       <r>    8.3533    0.0000 </r>
       <r>    8.4237    0.0000 </r>
       <r>    9.2771    0.0000 </r>
       <r>    9.6851    0.0000 </r>
       <r>    9.8883    0.0000 </r>
       <r>   10.7332    0.0000 </r>
       <r>   11.1014    0.0000 </r>
       <r>   12.1140    0.0000 </r>
       <r>   12.6864    0.0000 </r>
       <r>   12.8347    0.0000 </r>
       <r>   13.1277    0.0000 </r>
       <r>   13.9979    0.0000 </r>
       <r>   14.1094    0.0000 </r>
       <r>   14.1563    0.0000 </r>
       <r>   14.6577    0.0000 </r>
       <r>   15.3732    0.0000 </r>
       <r>   15.4878    0.0000 </r>
       <r>   15.8763    0.0000 </r>
       <r>   16.4899    0.0000 </r>
      </set>
      <set comment="kpoint 17">
       <r>  -15.4052    1.0000 </r>
       <r>  -15.4012    1.0000 </r>
       <r>  -15.3981    1.0000 </r>
       <r>  -15.3961    1.0000 </r>
       <r>  -15.3911    1.0000 </r>
       <r>  -15.3891    1.0000 </r>
       <r>  -15.3884    1.0000 </r>
       <r>  -15.3862    1.0000 </r>
       <r>  -15.3851    1.0000 </r>
       <r>  -15.3786    1.0000 </r>
       <r>  -15.3721    1.0000 </r>
       <r>  -15.3646    1.0000 </r>
       <r>  -15.3604    1.0000 </r>
       <r>  -15.3538    1.0000 </r>
       <r>  -15.3412    1.0000 </r>
       <r>  -15.3397    1.0000 </r>
       <r>  -15.3335    1.0000 </r>
       <r>  -15.3271    1.0000 </r>
       <r>  -15.3165    1.0000 </r>
       <r>  -15.3150    1.0000 </r>
       <r>   -7.5167    1.0000 </r>
       <r>   -7.2320    1.0000 </r>
       <r>   -6.8590    1.0000 </r>
       <r>   -6.6052    1.0000 </r>
       <r>   -2.1000    1.0000 </r>
       <r>   -1.2834    1.0000 </r>
       <r>   -1.2290    1.0000 </r>
       <r>   -0.7423    1.0000 </r>
       <r>    1.3167    1.0000 </r>
       <r>    1.8244    1.0000 </r>
       <r>    2.2164    1.0000 </r>
       <r>    2.9610    1.0000 </r>
       <r>    3.4345    1.0000 </r>
       <r>    3.4967    1.0000 </r>
       <r>    4.0453    1.0000 </r>
       <r>    4.0650    1.0000 </r>
       <r>    4.6570    1.0000 </r>
       <r>    5.0362    1.0000 </r>
       <r>    5.1282    1.0000 </r>
       <r>    5.2314    1.0000 </r>
       <r>    6.8943    0.0000 </r>
       <r>    6.9944    0.0000 </r>
       <r>    7.0760    0.0000 </r>
       <r>    7.4282    0.0000 </r>
       <r>    8.4774    0.0000 </r>
       <r>    8.8424    0.0000 </r>
       <r>    9.0822    0.0000 </r>
       <r>    9.4092    0.0000 </r>
       <r>   10.1334    0.0000 </r>
       <r>   10.5847    0.0000 </r>
       <r>   10.8492    0.0000 </r>
       <r>   10.9866    0.0000 </r>
       <r>   11.7044    0.0000 </r>
       <r>   12.9098    0.0000 </r>
       <r>   13.0051    0.0000 </r>
       <r>   13.1778    0.0000 </r>
       <r>   13.8142    0.0000 </r>
       <r>   14.1481    0.0000 </r>
       <r>   14.2788    0.0000 </r>
       <r>   14.7278    0.0000 </r>
       <r>   15.3064    0.0000 </r>
       <r>   16.0252    0.0000 </r>
       <r>   16.4392    0.0000 </r>
       <r>   16.5739    0.0000 </r>
      </set>
      <set comment="kpoint 18">
       <r>  -15.4108    1.0000 </r>
       <r>  -15.4069    1.0000 </r>
       <r>  -15.4010    1.0000 </r>
       <r>  -15.3998    1.0000 </r>
       <r>  -15.3914    1.0000 </r>
       <r>  -15.3885    1.0000 </r>
       <r>  -15.3861    1.0000 </r>
       <r>  -15.3831    1.0000 </r>
       <r>  -15.3830    1.0000 </r>
       <r>  -15.3794    1.0000 </r>
       <r>  -15.3704    1.0000 </r>
       <r>  -15.3645    1.0000 </r>
       <r>  -15.3569    1.0000 </r>
       <r>  -15.3521    1.0000 </r>
       <r>  -15.3398    1.0000 </r>
       <r>  -15.3385    1.0000 </r>
       <r>  -15.3334    1.0000 </r>
       <r>  -15.3283    1.0000 </r>
       <r>  -15.3161    1.0000 </r>
       <r>  -15.3149    1.0000 </r>
       <r>   -7.3436    1.0000 </r>
       <r>   -7.0822    1.0000 </r>
       <r>   -6.8095    1.0000 </r>
       <r>   -6.5825    1.0000 </r>
       <r>   -2.0008    1.0000 </r>
       <r>   -1.1560    1.0000 </r>
       <r>   -1.0314    1.0000 </r>
       <r>   -0.8194    1.0000 </r>
       <r>    1.0342    1.0000 </r>
       <r>    1.4471    1.0000 </r>
       <r>    1.5454    1.0000 </r>
       <r>    2.2873    1.0000 </r>
       <r>    2.5712    1.0000 </r>
       <r>    3.4108    1.0000 </r>
       <r>    3.4970    1.0000 </r>
       <r>    3.9506    1.0000 </r>
       <r>    4.2829    1.0000 </r>
       <r>    4.3744    1.0000 </r>
       <r>    4.7344    1.0000 </r>
       <r>    5.2776    1.0000 </r>
       <r>    6.4009    0.0000 </r>
       <r>    7.8304    0.0000 </r>
       <r>    8.2086    0.0000 </r>
       <r>    8.5327    0.0000 </r>
       <r>    8.8359    0.0000 </r>
       <r>    9.2966    0.0000 </r>
       <r>    9.7975    0.0000 </r>
       <r>   10.2523    0.0000 </r>
       <r>   10.6211    0.0000 </r>
       <r>   10.7585    0.0000 </r>
       <r>   11.3913    0.0000 </r>
       <r>   11.5104    0.0000 </r>
       <r>   11.7502    0.0000 </r>
       <r>   11.8055    0.0000 </r>
       <r>   13.2785    0.0000 </r>
       <r>   14.0099    0.0000 </r>
       <r>   14.0846    0.0000 </r>
       <r>   14.1963    0.0000 </r>
       <r>   14.9126    0.0000 </r>
       <r>   15.2622    0.0000 </r>
       <r>   15.9054    0.0000 </r>
       <r>   15.9390    0.0000 </r>
       <r>   16.1489    0.0000 </r>
       <r>   16.7159    0.0000 </r>
      </set>
      <set comment="kpoint 19">
       <r>  -15.4151    1.0000 </r>
       <r>  -15.4128    1.0000 </r>
       <r>  -15.4043    1.0000 </r>
       <r>  -15.4038    1.0000 </r>
       <r>  -15.3910    1.0000 </r>
       <r>  -15.3891    1.0000 </r>
       <r>  -15.3840    1.0000 </r>
       <r>  -15.3817    1.0000 </r>
       <r>  -15.3804    1.0000 </r>
       <r>  -15.3800    1.0000 </r>
       <r>  -15.3682    1.0000 </r>
       <r>  -15.3648    1.0000 </r>
       <r>  -15.3530    1.0000 </r>
       <r>  -15.3508    1.0000 </r>
       <r>  -15.3381    1.0000 </r>
       <r>  -15.3374    1.0000 </r>
       <r>  -15.3324    1.0000 </r>
       <r>  -15.3295    1.0000 </r>
       <r>  -15.3155    1.0000 </r>
       <r>  -15.3148    1.0000 </r>
       <r>   -7.1126    1.0000 </r>
       <r>   -6.8835    1.0000 </r>
       <r>   -6.8038    1.0000 </r>
       <r>   -6.6009    1.0000 </r>
       <r>   -1.8866    1.0000 </r>
       <r>   -1.3941    1.0000 </r>
       <r>   -0.7432    1.0000 </r>
       <r>   -0.7146    1.0000 </r>
       <r>    0.7343    1.0000 </r>
       <r>    1.1384    1.0000 </r>
       <r>    1.5525    1.0000 </r>
       <r>    1.8521    1.0000 </r>
       <r>    2.1837    1.0000 </r>
       <r>    2.6793    1.0000 </r>
       <r>    2.9313    1.0000 </r>
       <r>    3.4794    1.0000 </r>
       <r>    3.6042    1.0000 </r>
       <r>    4.1102    1.0000 </r>
       <r>    4.6516    1.0000 </r>
       <r>    4.7941    1.0000 </r>
       <r>    6.8370    0.0000 </r>
       <r>    8.4293    0.0000 </r>
       <r>    8.9531    0.0000 </r>
       <r>    9.1905    0.0000 </r>
       <r>    9.9145    0.0000 </r>
       <r>    9.9263    0.0000 </r>
       <r>   10.3645    0.0000 </r>
       <r>   10.6864    0.0000 </r>
       <r>   10.7322    0.0000 </r>
       <r>   10.9571    0.0000 </r>
       <r>   11.5096    0.0000 </r>
       <r>   11.6314    0.0000 </r>
       <r>   11.8314    0.0000 </r>
       <r>   12.1812    0.0000 </r>
       <r>   12.7327    0.0000 </r>
       <r>   13.4347    0.0000 </r>
       <r>   15.1693    0.0000 </r>
       <r>   15.3290    0.0000 </r>
       <r>   15.7523    0.0000 </r>
       <r>   15.8287    0.0000 </r>
       <r>   16.0747    0.0000 </r>
       <r>   16.5592    0.0000 </r>
       <r>   16.8571    0.0000 </r>
       <r>   17.1854    0.0000 </r>
      </set>
      <set comment="kpoint 20">
       <r>  -15.4160    1.0000 </r>
       <r>  -15.4160    1.0000 </r>
       <r>  -15.4056    1.0000 </r>
       <r>  -15.4056    1.0000 </r>
       <r>  -15.3901    1.0000 </r>
       <r>  -15.3901    1.0000 </r>
       <r>  -15.3826    1.0000 </r>
       <r>  -15.3826    1.0000 </r>
       <r>  -15.3795    1.0000 </r>
       <r>  -15.3795    1.0000 </r>
       <r>  -15.3661    1.0000 </r>
       <r>  -15.3661    1.0000 </r>
       <r>  -15.3508    1.0000 </r>
       <r>  -15.3508    1.0000 </r>
       <r>  -15.3371    1.0000 </r>
       <r>  -15.3371    1.0000 </r>
       <r>  -15.3308    1.0000 </r>
       <r>  -15.3308    1.0000 </r>
       <r>  -15.3150    1.0000 </r>
       <r>  -15.3150    1.0000 </r>
       <r>   -6.9070    1.0000 </r>
       <r>   -6.9070    1.0000 </r>
       <r>   -6.7037    1.0000 </r>
       <r>   -6.7037    1.0000 </r>
       <r>   -1.7017    1.0000 </r>
       <r>   -1.7017    1.0000 </r>
       <r>   -0.6350    1.0000 </r>
       <r>   -0.6350    1.0000 </r>
       <r>    0.9949    1.0000 </r>
       <r>    0.9949    1.0000 </r>
       <r>    1.4250    1.0000 </r>
       <r>    1.4250    1.0000 </r>
       <r>    2.2794    1.0000 </r>
       <r>    2.2794    1.0000 </r>
       <r>    2.9922    1.0000 </r>
       <r>    2.9922    1.0000 </r>
       <r>    3.6519    1.0000 </r>
       <r>    3.6519    1.0000 </r>
       <r>    4.6322    1.0000 </r>
       <r>    4.6322    1.0000 </r>
       <r>    7.6023    0.0000 </r>
       <r>    7.6023    0.0000 </r>
       <r>    9.5178    0.0000 </r>
       <r>    9.5178    0.0000 </r>
       <r>   10.3923    0.0000 </r>
       <r>   10.3923    0.0000 </r>
       <r>   10.7621    0.0000 </r>
       <r>   10.7621    0.0000 </r>
       <r>   10.8824    0.0000 </r>
       <r>   10.8824    0.0000 </r>
       <r>   11.6900    0.0000 </r>
       <r>   11.6900    0.0000 </r>
       <r>   11.9811    0.0000 </r>
       <r>   11.9811    0.0000 </r>
       <r>   12.7765    0.0000 </r>
       <r>   12.7765    0.0000 </r>
       <r>   15.8775    0.0000 </r>
       <r>   15.8775    0.0000 </r>
       <r>   16.4509    0.0000 </r>
       <r>   16.4509    0.0000 </r>
       <r>   16.6477    0.0000 </r>
       <r>   16.6477    0.0000 </r>
       <r>   17.3031    0.0000 </r>
       <r>   17.3031    0.0000 </r>
      </set>
      <set comment="kpoint 21">
       <r>  -15.4043    1.0000 </r>
       <r>  -15.4029    1.0000 </r>
       <r>  -15.3987    1.0000 </r>
       <r>  -15.3970    1.0000 </r>
       <r>  -15.3895    1.0000 </r>
       <r>  -15.3885    1.0000 </r>
       <r>  -15.3881    1.0000 </r>
       <r>  -15.3861    1.0000 </r>
       <r>  -15.3798    1.0000 </r>
       <r>  -15.3729    1.0000 </r>
       <r>  -15.3713    1.0000 </r>
       <r>  -15.3704    1.0000 </r>
       <r>  -15.3549    1.0000 </r>
       <r>  -15.3503    1.0000 </r>
       <r>  -15.3479    1.0000 </r>
       <r>  -15.3460    1.0000 </r>
       <r>  -15.3268    1.0000 </r>
       <r>  -15.3221    1.0000 </r>
       <r>  -15.3205    1.0000 </r>
       <r>  -15.3186    1.0000 </r>
       <r>   -7.2061    1.0000 </r>
       <r>   -7.0433    1.0000 </r>
       <r>   -6.8920    1.0000 </r>
       <r>   -6.8575    1.0000 </r>
       <r>   -2.2108    1.0000 </r>
       <r>   -1.9206    1.0000 </r>
       <r>   -1.4608    1.0000 </r>
       <r>   -1.1993    1.0000 </r>
       <r>    1.7725    1.0000 </r>
       <r>    2.3746    1.0000 </r>
       <r>    3.3421    1.0000 </r>
       <r>    3.5580    1.0000 </r>
       <r>    3.6809    1.0000 </r>
       <r>    3.7588    1.0000 </r>
       <r>    3.8207    1.0000 </r>
       <r>    4.3462    1.0000 </r>
       <r>    4.9202    1.0000 </r>
       <r>    4.9439    1.0000 </r>
       <r>    5.0297    1.0000 </r>
       <r>    5.1730    1.0000 </r>
       <r>    6.8039    0.0000 </r>
       <r>    6.9024    0.0000 </r>
       <r>    7.0079    0.0000 </r>
       <r>    7.3671    0.0000 </r>
       <r>    7.4341    0.0000 </r>
       <r>    7.6425    0.0000 </r>
       <r>    8.1860    0.0000 </r>
       <r>    8.5768    0.0000 </r>
       <r>    8.9518    0.0000 </r>
       <r>    9.1306    0.0000 </r>
       <r>   10.9496    0.0000 </r>
       <r>   11.1198    0.0000 </r>
       <r>   12.7616    0.0000 </r>
       <r>   12.9539    0.0000 </r>
       <r>   13.3697    0.0000 </r>
       <r>   13.5828    0.0000 </r>
       <r>   14.4762    0.0000 </r>
       <r>   14.9075    0.0000 </r>
       <r>   15.1405    0.0000 </r>
       <r>   15.6610    0.0000 </r>
       <r>   15.7458    0.0000 </r>
       <r>   16.2563    0.0000 </r>
       <r>   16.5654    0.0000 </r>
       <r>   16.7162    0.0000 </r>
      </set>
      <set comment="kpoint 22">
       <r>  -15.4072    1.0000 </r>
       <r>  -15.4058    1.0000 </r>
       <r>  -15.4002    1.0000 </r>
       <r>  -15.3990    1.0000 </r>
       <r>  -15.3895    1.0000 </r>
       <r>  -15.3888    1.0000 </r>
       <r>  -15.3862    1.0000 </r>
       <r>  -15.3853    1.0000 </r>
       <r>  -15.3787    1.0000 </r>
       <r>  -15.3729    1.0000 </r>
       <r>  -15.3710    1.0000 </r>
       <r>  -15.3699    1.0000 </r>
       <r>  -15.3541    1.0000 </r>
       <r>  -15.3505    1.0000 </r>
       <r>  -15.3462    1.0000 </r>
       <r>  -15.3451    1.0000 </r>
       <r>  -15.3270    1.0000 </r>
       <r>  -15.3231    1.0000 </r>
       <r>  -15.3196    1.0000 </r>
       <r>  -15.3184    1.0000 </r>
       <r>   -7.1551    1.0000 </r>
       <r>   -6.9993    1.0000 </r>
       <r>   -6.8598    1.0000 </r>
       <r>   -6.8242    1.0000 </r>
       <r>   -2.1147    1.0000 </r>
       <r>   -1.8214    1.0000 </r>
       <r>   -1.3756    1.0000 </r>
       <r>   -1.1555    1.0000 </r>
       <r>    1.8119    1.0000 </r>
       <r>    2.1437    1.0000 </r>
       <r>    2.3897    1.0000 </r>
       <r>    2.9443    1.0000 </r>
       <r>    3.2113    1.0000 </r>
       <r>    3.2528    1.0000 </r>
       <r>    4.2353    1.0000 </r>
       <r>    4.3204    1.0000 </r>
       <r>    4.3371    1.0000 </r>
       <r>    4.5788    1.0000 </r>
       <r>    5.1683    1.0000 </r>
       <r>    5.2221    1.0000 </r>
       <r>    6.6251    0.0000 </r>
       <r>    6.6304    0.0000 </r>
       <r>    7.2964    0.0000 </r>
       <r>    7.5824    0.0000 </r>
       <r>    8.4037    0.0000 </r>
       <r>    8.5242    0.0000 </r>
       <r>    8.8395    0.0000 </r>
       <r>    9.2863    0.0000 </r>
       <r>    9.4057    0.0000 </r>
       <r>   10.0480    0.0000 </r>
       <r>   10.7754    0.0000 </r>
       <r>   10.8904    0.0000 </r>
       <r>   11.8402    0.0000 </r>
       <r>   12.1929    0.0000 </r>
       <r>   14.0439    0.0000 </r>
       <r>   14.4268    0.0000 </r>
       <r>   14.6853    0.0000 </r>
       <r>   14.9304    0.0000 </r>
       <r>   15.1802    0.0000 </r>
       <r>   15.3341    0.0000 </r>
       <r>   15.7970    0.0000 </r>
       <r>   16.2180    0.0000 </r>
       <r>   16.4822    0.0000 </r>
       <r>   16.5400    0.0000 </r>
      </set>
      <set comment="kpoint 23">
       <r>  -15.4135    1.0000 </r>
       <r>  -15.4121    1.0000 </r>
       <r>  -15.4043    1.0000 </r>
       <r>  -15.4037    1.0000 </r>
       <r>  -15.3892    1.0000 </r>
       <r>  -15.3882    1.0000 </r>
       <r>  -15.3837    1.0000 </r>
       <r>  -15.3837    1.0000 </r>
       <r>  -15.3766    1.0000 </r>
       <r>  -15.3732    1.0000 </r>
       <r>  -15.3702    1.0000 </r>
       <r>  -15.3688    1.0000 </r>
       <r>  -15.3518    1.0000 </r>
       <r>  -15.3496    1.0000 </r>
       <r>  -15.3430    1.0000 </r>
       <r>  -15.3428    1.0000 </r>
       <r>  -15.3272    1.0000 </r>
       <r>  -15.3245    1.0000 </r>
       <r>  -15.3186    1.0000 </r>
       <r>  -15.3180    1.0000 </r>
       <r>   -7.0212    1.0000 </r>
       <r>   -6.8853    1.0000 </r>
       <r>   -6.7845    1.0000 </r>
       <r>   -6.7445    1.0000 </r>
       <r>   -1.8446    1.0000 </r>
       <r>   -1.5439    1.0000 </r>
       <r>   -1.1436    1.0000 </r>
       <r>   -1.0585    1.0000 </r>
       <r>    1.2380    1.0000 </r>
       <r>    1.7336    1.0000 </r>
       <r>    1.7429    1.0000 </r>
       <r>    1.9885    1.0000 </r>
       <r>    2.4593    1.0000 </r>
       <r>    2.9287    1.0000 </r>
       <r>    3.3402    1.0000 </r>
       <r>    3.5602    1.0000 </r>
       <r>    3.6031    1.0000 </r>
       <r>    4.0737    1.0000 </r>
       <r>    4.8238    1.0000 </r>
       <r>    4.9976    1.0000 </r>
       <r>    6.7485    0.0000 </r>
       <r>    7.4617    0.0000 </r>
       <r>    8.5807    0.0000 </r>
       <r>    8.9165    0.0000 </r>
       <r>    9.4924    0.0000 </r>
       <r>    9.6032    0.0000 </r>
       <r>   10.0172    0.0000 </r>
       <r>   10.2306    0.0000 </r>
       <r>   10.3372    0.0000 </r>
       <r>   10.6059    0.0000 </r>
       <r>   10.7847    0.0000 </r>
       <r>   11.4215    0.0000 </r>
       <r>   11.4766    0.0000 </r>
       <r>   11.5495    0.0000 </r>
       <r>   13.3698    0.0000 </r>
       <r>   13.6441    0.0000 </r>
       <r>   15.2124    0.0000 </r>
       <r>   15.4351    0.0000 </r>
       <r>   15.6509    0.0000 </r>
       <r>   16.2891    0.0000 </r>
       <r>   16.3955    0.0000 </r>
       <r>   16.6806    0.0000 </r>
       <r>   16.9478    0.0000 </r>
       <r>   17.1730    0.0000 </r>
      </set>
      <set comment="kpoint 24">
       <r>  -15.4190    1.0000 </r>
       <r>  -15.4182    1.0000 </r>
       <r>  -15.4087    1.0000 </r>
       <r>  -15.4085    1.0000 </r>
       <r>  -15.3890    1.0000 </r>
       <r>  -15.3882    1.0000 </r>
       <r>  -15.3820    1.0000 </r>
       <r>  -15.3817    1.0000 </r>
       <r>  -15.3750    1.0000 </r>
       <r>  -15.3736    1.0000 </r>
       <r>  -15.3693    1.0000 </r>
       <r>  -15.3683    1.0000 </r>
       <r>  -15.3490    1.0000 </r>
       <r>  -15.3481    1.0000 </r>
       <r>  -15.3405    1.0000 </r>
       <r>  -15.3404    1.0000 </r>
       <r>  -15.3269    1.0000 </r>
       <r>  -15.3254    1.0000 </r>
       <r>  -15.3179    1.0000 </r>
       <r>  -15.3177    1.0000 </r>
       <r>   -6.8588    1.0000 </r>
       <r>   -6.7528    1.0000 </r>
       <r>   -6.7241    1.0000 </r>
       <r>   -6.6723    1.0000 </r>
       <r>   -1.4802    1.0000 </r>
       <r>   -1.2124    1.0000 </r>
       <r>   -0.9537    1.0000 </r>
       <r>   -0.8597    1.0000 </r>
       <r>    0.6190    1.0000 </r>
       <r>    1.0081    1.0000 </r>
       <r>    1.2614    1.0000 </r>
       <r>    1.5529    1.0000 </r>
       <r>    2.0430    1.0000 </r>
       <r>    2.2122    1.0000 </r>
       <r>    2.7146    1.0000 </r>
       <r>    3.1533    1.0000 </r>
       <r>    3.3016    1.0000 </r>
       <r>    3.4374    1.0000 </r>
       <r>    4.5089    1.0000 </r>
       <r>    4.5587    1.0000 </r>
       <r>    7.5140    0.0000 </r>
       <r>    8.2724    0.0000 </r>
       <r>    9.0595    0.0000 </r>
       <r>    9.3875    0.0000 </r>
       <r>   10.2595    0.0000 </r>
       <r>   10.3100    0.0000 </r>
       <r>   10.4342    0.0000 </r>
       <r>   10.8185    0.0000 </r>
       <r>   10.8326    0.0000 </r>
       <r>   11.3284    0.0000 </r>
       <r>   11.7909    0.0000 </r>
       <r>   11.9221    0.0000 </r>
       <r>   12.0544    0.0000 </r>
       <r>   12.4285    0.0000 </r>
       <r>   12.7902    0.0000 </r>
       <r>   13.0739    0.0000 </r>
       <r>   15.5929    0.0000 </r>
       <r>   15.7615    0.0000 </r>
       <r>   16.6807    0.0000 </r>
       <r>   16.7600    0.0000 </r>
       <r>   16.9871    0.0000 </r>
       <r>   17.1392    0.0000 </r>
       <r>   17.5928    0.0000 </r>
       <r>   17.6364    0.0000 </r>
      </set>
      <set comment="kpoint 25">
       <r>  -15.4209    1.0000 </r>
       <r>  -15.4209    1.0000 </r>
       <r>  -15.4104    1.0000 </r>
       <r>  -15.4104    1.0000 </r>
       <r>  -15.3887    1.0000 </r>
       <r>  -15.3887    1.0000 </r>
       <r>  -15.3811    1.0000 </r>
       <r>  -15.3811    1.0000 </r>
       <r>  -15.3741    1.0000 </r>
       <r>  -15.3741    1.0000 </r>
       <r>  -15.3686    1.0000 </r>
       <r>  -15.3686    1.0000 </r>
       <r>  -15.3475    1.0000 </r>
       <r>  -15.3475    1.0000 </r>
       <r>  -15.3395    1.0000 </r>
       <r>  -15.3395    1.0000 </r>
       <r>  -15.3261    1.0000 </r>
       <r>  -15.3261    1.0000 </r>
       <r>  -15.3176    1.0000 </r>
       <r>  -15.3176    1.0000 </r>
       <r>   -6.7431    1.0000 </r>
       <r>   -6.7431    1.0000 </r>
       <r>   -6.6683    1.0000 </r>
       <r>   -6.6683    1.0000 </r>
       <r>   -1.2079    1.0000 </r>
       <r>   -1.2079    1.0000 </r>
       <r>   -0.7615    1.0000 </r>
       <r>   -0.7615    1.0000 </r>
       <r>    0.5471    1.0000 </r>
       <r>    0.5471    1.0000 </r>
       <r>    1.1623    1.0000 </r>
       <r>    1.1623    1.0000 </r>
       <r>    1.9113    1.0000 </r>
       <r>    1.9113    1.0000 </r>
       <r>    2.6482    1.0000 </r>
       <r>    2.6482    1.0000 </r>
       <r>    3.3520    1.0000 </r>
       <r>    3.3520    1.0000 </r>
       <r>    4.3815    1.0000 </r>
       <r>    4.3815    1.0000 </r>
       <r>    8.2189    0.0000 </r>
       <r>    8.2189    0.0000 </r>
       <r>    9.0876    0.0000 </r>
       <r>    9.0876    0.0000 </r>
       <r>   10.3635    0.0000 </r>
       <r>   10.3635    0.0000 </r>
       <r>   10.8038    0.0000 </r>
       <r>   10.8038    0.0000 </r>
       <r>   11.7080    0.0000 </r>
       <r>   11.7080    0.0000 </r>
       <r>   12.3444    0.0000 </r>
       <r>   12.3444    0.0000 </r>
       <r>   12.6715    0.0000 </r>
       <r>   12.6715    0.0000 </r>
       <r>   12.8478    0.0000 </r>
       <r>   12.8478    0.0000 </r>
       <r>   15.9984    0.0000 </r>
       <r>   15.9984    0.0000 </r>
       <r>   16.6990    0.0000 </r>
       <r>   16.6990    0.0000 </r>
       <r>   16.9497    0.0000 </r>
       <r>   16.9497    0.0000 </r>
       <r>   17.7970    0.0000 </r>
       <r>   17.7975    0.0000 </r>
      </set>
      <set comment="kpoint 26">
       <r>  -15.4150    1.0000 </r>
       <r>  -15.4061    1.0000 </r>
       <r>  -15.3968    1.0000 </r>
       <r>  -15.3940    1.0000 </r>
       <r>  -15.3906    1.0000 </r>
       <r>  -15.3885    1.0000 </r>
       <r>  -15.3883    1.0000 </r>
       <r>  -15.3846    1.0000 </r>
       <r>  -15.3792    1.0000 </r>
       <r>  -15.3779    1.0000 </r>
       <r>  -15.3772    1.0000 </r>
       <r>  -15.3756    1.0000 </r>
       <r>  -15.3647    1.0000 </r>
       <r>  -15.3621    1.0000 </r>
       <r>  -15.3431    1.0000 </r>
       <r>  -15.3392    1.0000 </r>
       <r>  -15.3313    1.0000 </r>
       <r>  -15.3282    1.0000 </r>
       <r>  -15.3119    1.0000 </r>
       <r>  -15.3072    1.0000 </r>
       <r>   -8.1039    1.0000 </r>
       <r>   -7.9124    1.0000 </r>
       <r>   -6.9089    1.0000 </r>
       <r>   -6.6212    1.0000 </r>
       <r>   -1.3099    1.0000 </r>
       <r>   -0.8662    1.0000 </r>
       <r>    0.7161    1.0000 </r>
       <r>    0.8311    1.0000 </r>
       <r>    1.2160    1.0000 </r>
       <r>    2.0488    1.0000 </r>
       <r>    2.4195    1.0000 </r>
       <r>    2.5419    1.0000 </r>
       <r>    2.6750    1.0000 </r>
       <r>    3.0380    1.0000 </r>
       <r>    3.6844    1.0000 </r>
       <r>    3.7026    1.0000 </r>
       <r>    3.7160    1.0000 </r>
       <r>    4.0702    1.0000 </r>
       <r>    5.2337    1.0000 </r>
       <r>    5.3056    1.0000 </r>
       <r>    7.6380    0.0000 </r>
       <r>    8.4637    0.0000 </r>
       <r>    8.5522    0.0000 </r>
       <r>    9.0523    0.0000 </r>
       <r>    9.5015    0.0000 </r>
       <r>    9.6466    0.0000 </r>
       <r>    9.9043    0.0000 </r>
       <r>   10.1167    0.0000 </r>
       <r>   10.6490    0.0000 </r>
       <r>   10.8255    0.0000 </r>
       <r>   11.3386    0.0000 </r>
       <r>   11.3770    0.0000 </r>
       <r>   11.6233    0.0000 </r>
       <r>   11.8760    0.0000 </r>
       <r>   12.1985    0.0000 </r>
       <r>   12.4623    0.0000 </r>
       <r>   13.0147    0.0000 </r>
       <r>   13.4062    0.0000 </r>
       <r>   13.9248    0.0000 </r>
       <r>   14.3283    0.0000 </r>
       <r>   14.5226    0.0000 </r>
       <r>   14.5396    0.0000 </r>
       <r>   14.8581    0.0000 </r>
       <r>   14.8663    0.0000 </r>
      </set>
      <set comment="kpoint 27">
       <r>  -15.4139    1.0000 </r>
       <r>  -15.4057    1.0000 </r>
       <r>  -15.3955    1.0000 </r>
       <r>  -15.3931    1.0000 </r>
       <r>  -15.3914    1.0000 </r>
       <r>  -15.3894    1.0000 </r>
       <r>  -15.3889    1.0000 </r>
       <r>  -15.3849    1.0000 </r>
       <r>  -15.3795    1.0000 </r>
       <r>  -15.3778    1.0000 </r>
       <r>  -15.3769    1.0000 </r>
       <r>  -15.3738    1.0000 </r>
       <r>  -15.3639    1.0000 </r>
       <r>  -15.3622    1.0000 </r>
       <r>  -15.3432    1.0000 </r>
       <r>  -15.3393    1.0000 </r>
       <r>  -15.3316    1.0000 </r>
       <r>  -15.3286    1.0000 </r>
       <r>  -15.3117    1.0000 </r>
       <r>  -15.3074    1.0000 </r>
       <r>   -8.0312    1.0000 </r>
       <r>   -7.8433    1.0000 </r>
       <r>   -6.8937    1.0000 </r>
       <r>   -6.6220    1.0000 </r>
       <r>   -1.5786    1.0000 </r>
       <r>   -1.0925    1.0000 </r>
       <r>    0.2683    1.0000 </r>
       <r>    0.4970    1.0000 </r>
       <r>    1.2665    1.0000 </r>
       <r>    2.2062    1.0000 </r>
       <r>    2.5295    1.0000 </r>
       <r>    2.7802    1.0000 </r>
       <r>    2.8319    1.0000 </r>
       <r>    3.2231    1.0000 </r>
       <r>    3.7765    1.0000 </r>
       <r>    3.8795    1.0000 </r>
       <r>    4.1280    1.0000 </r>
       <r>    4.2444    1.0000 </r>
       <r>    5.1268    1.0000 </r>
       <r>    5.3068    1.0000 </r>
       <r>    7.5935    0.0000 </r>
       <r>    8.3031    0.0000 </r>
       <r>    8.7466    0.0000 </r>
       <r>    9.0029    0.0000 </r>
       <r>    9.0072    0.0000 </r>
       <r>    9.3287    0.0000 </r>
       <r>    9.4366    0.0000 </r>
       <r>    9.9359    0.0000 </r>
       <r>   10.4708    0.0000 </r>
       <r>   10.8572    0.0000 </r>
       <r>   10.9896    0.0000 </r>
       <r>   11.2815    0.0000 </r>
       <r>   11.3745    0.0000 </r>
       <r>   11.5315    0.0000 </r>
       <r>   12.1288    0.0000 </r>
       <r>   12.6607    0.0000 </r>
       <r>   12.9694    0.0000 </r>
       <r>   13.4764    0.0000 </r>
       <r>   13.9357    0.0000 </r>
       <r>   14.1459    0.0000 </r>
       <r>   15.0398    0.0000 </r>
       <r>   15.2511    0.0000 </r>
       <r>   15.4273    0.0000 </r>
       <r>   15.5287    0.0000 </r>
      </set>
      <set comment="kpoint 28">
       <r>  -15.4112    1.0000 </r>
       <r>  -15.4047    1.0000 </r>
       <r>  -15.3937    1.0000 </r>
       <r>  -15.3932    1.0000 </r>
       <r>  -15.3921    1.0000 </r>
       <r>  -15.3912    1.0000 </r>
       <r>  -15.3894    1.0000 </r>
       <r>  -15.3861    1.0000 </r>
       <r>  -15.3802    1.0000 </r>
       <r>  -15.3787    1.0000 </r>
       <r>  -15.3738    1.0000 </r>
       <r>  -15.3697    1.0000 </r>
       <r>  -15.3629    1.0000 </r>
       <r>  -15.3615    1.0000 </r>
       <r>  -15.3431    1.0000 </r>
       <r>  -15.3395    1.0000 </r>
       <r>  -15.3318    1.0000 </r>
       <r>  -15.3295    1.0000 </r>
       <r>  -15.3113    1.0000 </r>
       <r>  -15.3080    1.0000 </r>
       <r>   -7.8265    1.0000 </r>
       <r>   -7.6502    1.0000 </r>
       <r>   -6.8774    1.0000 </r>
       <r>   -6.6492    1.0000 </r>
       <r>   -2.0920    1.0000 </r>
       <r>   -1.6065    1.0000 </r>
       <r>   -0.4949    1.0000 </r>
       <r>   -0.1444    1.0000 </r>
       <r>    1.4556    1.0000 </r>
       <r>    2.4978    1.0000 </r>
       <r>    2.8436    1.0000 </r>
       <r>    3.0782    1.0000 </r>
       <r>    3.3249    1.0000 </r>
       <r>    3.6310    1.0000 </r>
       <r>    3.9537    1.0000 </r>
       <r>    4.2514    1.0000 </r>
       <r>    4.4987    1.0000 </r>
       <r>    4.7499    1.0000 </r>
       <r>    5.0976    1.0000 </r>
       <r>    5.3945    1.0000 </r>
       <r>    7.4685    0.0000 </r>
       <r>    7.7927    0.0000 </r>
       <r>    8.0797    0.0000 </r>
       <r>    8.3031    0.0000 </r>
       <r>    8.5172    0.0000 </r>
       <r>    8.6395    0.0000 </r>
       <r>    9.1202    0.0000 </r>
       <r>    9.8371    0.0000 </r>
       <r>    9.8690    0.0000 </r>
       <r>   10.3648    0.0000 </r>
       <r>   10.6811    0.0000 </r>
       <r>   10.8284    0.0000 </r>
       <r>   11.4166    0.0000 </r>
       <r>   11.6883    0.0000 </r>
       <r>   12.6003    0.0000 </r>
       <r>   13.1156    0.0000 </r>
       <r>   13.2948    0.0000 </r>
       <r>   13.8884    0.0000 </r>
       <r>   14.2007    0.0000 </r>
       <r>   14.2184    0.0000 </r>
       <r>   15.2503    0.0000 </r>
       <r>   15.6541    0.0000 </r>
       <r>   16.4096    0.0000 </r>
       <r>   16.5557    0.0000 </r>
      </set>
      <set comment="kpoint 29">
       <r>  -15.4079    1.0000 </r>
       <r>  -15.4042    1.0000 </r>
       <r>  -15.3958    1.0000 </r>
       <r>  -15.3950    1.0000 </r>
       <r>  -15.3914    1.0000 </r>
       <r>  -15.3902    1.0000 </r>
       <r>  -15.3898    1.0000 </r>
       <r>  -15.3881    1.0000 </r>
       <r>  -15.3804    1.0000 </r>
       <r>  -15.3795    1.0000 </r>
       <r>  -15.3698    1.0000 </r>
       <r>  -15.3664    1.0000 </r>
       <r>  -15.3624    1.0000 </r>
       <r>  -15.3605    1.0000 </r>
       <r>  -15.3421    1.0000 </r>
       <r>  -15.3399    1.0000 </r>
       <r>  -15.3316    1.0000 </r>
       <r>  -15.3304    1.0000 </r>
       <r>  -15.3106    1.0000 </r>
       <r>  -15.3088    1.0000 </r>
       <r>   -7.5376    1.0000 </r>
       <r>   -7.3876    1.0000 </r>
       <r>   -6.9247    1.0000 </r>
       <r>   -6.7561    1.0000 </r>
       <r>   -2.4432    1.0000 </r>
       <r>   -2.1140    1.0000 </r>
       <r>   -1.0313    1.0000 </r>
       <r>   -0.7672    1.0000 </r>
       <r>    1.8765    1.0000 </r>
       <r>    2.8096    1.0000 </r>
       <r>    3.2843    1.0000 </r>
       <r>    3.3001    1.0000 </r>
       <r>    3.4973    1.0000 </r>
       <r>    3.9512    1.0000 </r>
       <r>    4.0757    1.0000 </r>
       <r>    4.2823    1.0000 </r>
       <r>    4.8149    1.0000 </r>
       <r>    4.9839    1.0000 </r>
       <r>    5.6235    1.0000 </r>
       <r>    5.8271    1.0000 </r>
       <r>    6.8892    0.0000 </r>
       <r>    7.3013    0.0000 </r>
       <r>    7.3916    0.0000 </r>
       <r>    7.7242    0.0000 </r>
       <r>    7.7626    0.0000 </r>
       <r>    8.1468    0.0000 </r>
       <r>    8.6028    0.0000 </r>
       <r>    9.0628    0.0000 </r>
       <r>    9.4132    0.0000 </r>
       <r>    9.4471    0.0000 </r>
       <r>   10.9306    0.0000 </r>
       <r>   11.1918    0.0000 </r>
       <r>   12.5592    0.0000 </r>
       <r>   12.8019    0.0000 </r>
       <r>   13.1953    0.0000 </r>
       <r>   13.5627    0.0000 </r>
       <r>   13.8600    0.0000 </r>
       <r>   14.3160    0.0000 </r>
       <r>   14.5765    0.0000 </r>
       <r>   14.5919    0.0000 </r>
       <r>   15.3816    0.0000 </r>
       <r>   15.5709    0.0000 </r>
       <r>   15.5854    0.0000 </r>
       <r>   16.3882    0.0000 </r>
      </set>
      <set comment="kpoint 30">
       <r>  -15.4052    1.0000 </r>
       <r>  -15.4052    1.0000 </r>
       <r>  -15.3964    1.0000 </r>
       <r>  -15.3964    1.0000 </r>
       <r>  -15.3905    1.0000 </r>
       <r>  -15.3905    1.0000 </r>
       <r>  -15.3895    1.0000 </r>
       <r>  -15.3895    1.0000 </r>
       <r>  -15.3801    1.0000 </r>
       <r>  -15.3801    1.0000 </r>
       <r>  -15.3667    1.0000 </r>
       <r>  -15.3667    1.0000 </r>
       <r>  -15.3610    1.0000 </r>
       <r>  -15.3610    1.0000 </r>
       <r>  -15.3408    1.0000 </r>
       <r>  -15.3408    1.0000 </r>
       <r>  -15.3311    1.0000 </r>
       <r>  -15.3311    1.0000 </r>
       <r>  -15.3097    1.0000 </r>
       <r>  -15.3097    1.0000 </r>
       <r>   -7.2861    1.0000 </r>
       <r>   -7.2861    1.0000 </r>
       <r>   -6.9341    1.0000 </r>
       <r>   -6.9341    1.0000 </r>
       <r>   -2.4393    1.0000 </r>
       <r>   -2.4393    1.0000 </r>
       <r>   -1.1179    1.0000 </r>
       <r>   -1.1179    1.0000 </r>
       <r>    2.4443    1.0000 </r>
       <r>    2.4443    1.0000 </r>
       <r>    3.5863    1.0000 </r>
       <r>    3.5863    1.0000 </r>
       <r>    3.7025    1.0000 </r>
       <r>    3.7025    1.0000 </r>
       <r>    4.1017    1.0000 </r>
       <r>    4.1017    1.0000 </r>
       <r>    5.3446    1.0000 </r>
       <r>    5.3446    1.0000 </r>
       <r>    5.7133    1.0000 </r>
       <r>    5.7133    1.0000 </r>
       <r>    6.9199    0.0000 </r>
       <r>    6.9199    0.0000 </r>
       <r>    7.2919    0.0000 </r>
       <r>    7.2919    0.0000 </r>
       <r>    7.5969    0.0000 </r>
       <r>    7.5969    0.0000 </r>
       <r>    8.8598    0.0000 </r>
       <r>    8.8598    0.0000 </r>
       <r>    8.8844    0.0000 </r>
       <r>    8.8844    0.0000 </r>
       <r>   11.2089    0.0000 </r>
       <r>   11.2089    0.0000 </r>
       <r>   13.4969    0.0000 </r>
       <r>   13.4969    0.0000 </r>
       <r>   14.1196    0.0000 </r>
       <r>   14.1196    0.0000 </r>
       <r>   14.2087    0.0000 </r>
       <r>   14.2087    0.0000 </r>
       <r>   14.5181    0.0000 </r>
       <r>   14.5181    0.0000 </r>
       <r>   15.7736    0.0000 </r>
       <r>   15.7736    0.0000 </r>
       <r>   15.7977    0.0000 </r>
       <r>   15.7977    0.0000 </r>
      </set>
      <set comment="kpoint 31">
       <r>  -15.4115    1.0000 </r>
       <r>  -15.4035    1.0000 </r>
       <r>  -15.3953    1.0000 </r>
       <r>  -15.3931    1.0000 </r>
       <r>  -15.3913    1.0000 </r>
       <r>  -15.3901    1.0000 </r>
       <r>  -15.3894    1.0000 </r>
       <r>  -15.3864    1.0000 </r>
       <r>  -15.3815    1.0000 </r>
       <r>  -15.3798    1.0000 </r>
       <r>  -15.3759    1.0000 </r>
       <r>  -15.3735    1.0000 </r>
       <r>  -15.3630    1.0000 </r>
       <r>  -15.3618    1.0000 </r>
       <r>  -15.3417    1.0000 </r>
       <r>  -15.3384    1.0000 </r>
       <r>  -15.3316    1.0000 </r>
       <r>  -15.3295    1.0000 </r>
       <r>  -15.3127    1.0000 </r>
       <r>  -15.3086    1.0000 </r>
       <r>   -8.0337    1.0000 </r>
       <r>   -7.8471    1.0000 </r>
       <r>   -6.8805    1.0000 </r>
       <r>   -6.6105    1.0000 </r>
       <r>   -1.4267    1.0000 </r>
       <r>   -1.0001    1.0000 </r>
       <r>    0.4427    1.0000 </r>
       <r>    0.4443    1.0000 </r>
       <r>    1.2334    1.0000 </r>
       <r>    2.1117    1.0000 </r>
       <r>    2.3370    1.0000 </r>
       <r>    2.6590    1.0000 </r>
       <r>    2.8572    1.0000 </r>
       <r>    3.1488    1.0000 </r>
       <r>    3.6632    1.0000 </r>
       <r>    3.7632    1.0000 </r>
       <r>    4.0685    1.0000 </r>
       <r>    4.1057    1.0000 </r>
       <r>    5.2615    1.0000 </r>
       <r>    5.2986    1.0000 </r>
       <r>    7.7336    0.0000 </r>
       <r>    8.4372    0.0000 </r>
       <r>    8.6782    0.0000 </r>
       <r>    8.9352    0.0000 </r>
       <r>    9.0955    0.0000 </r>
       <r>    9.4211    0.0000 </r>
       <r>    9.4302    0.0000 </r>
       <r>    9.9569    0.0000 </r>
       <r>   10.5496    0.0000 </r>
       <r>   11.0256    0.0000 </r>
       <r>   11.0331    0.0000 </r>
       <r>   11.3039    0.0000 </r>
       <r>   11.4955    0.0000 </r>
       <r>   11.6201    0.0000 </r>
       <r>   11.8225    0.0000 </r>
       <r>   12.2296    0.0000 </r>
       <r>   12.5740    0.0000 </r>
       <r>   13.5768    0.0000 </r>
       <r>   13.8559    0.0000 </r>
       <r>   14.3826    0.0000 </r>
       <r>   15.2816    0.0000 </r>
       <r>   15.2993    0.0000 </r>
       <r>   15.3424    0.0000 </r>
       <r>   15.4474    0.0000 </r>
      </set>
      <set comment="kpoint 32">
       <r>  -15.4116    1.0000 </r>
       <r>  -15.4033    1.0000 </r>
       <r>  -15.3954    1.0000 </r>
       <r>  -15.3928    1.0000 </r>
       <r>  -15.3915    1.0000 </r>
       <r>  -15.3902    1.0000 </r>
       <r>  -15.3896    1.0000 </r>
       <r>  -15.3861    1.0000 </r>
       <r>  -15.3816    1.0000 </r>
       <r>  -15.3797    1.0000 </r>
       <r>  -15.3760    1.0000 </r>
       <r>  -15.3735    1.0000 </r>
       <r>  -15.3631    1.0000 </r>
       <r>  -15.3616    1.0000 </r>
       <r>  -15.3418    1.0000 </r>
       <r>  -15.3381    1.0000 </r>
       <r>  -15.3319    1.0000 </r>
       <r>  -15.3293    1.0000 </r>
       <r>  -15.3127    1.0000 </r>
       <r>  -15.3086    1.0000 </r>
       <r>   -8.0338    1.0000 </r>
       <r>   -7.8471    1.0000 </r>
       <r>   -6.8806    1.0000 </r>
       <r>   -6.6105    1.0000 </r>
       <r>   -1.4289    1.0000 </r>
       <r>   -0.9961    1.0000 </r>
       <r>    0.4334    1.0000 </r>
       <r>    0.4500    1.0000 </r>
       <r>    1.2332    1.0000 </r>
       <r>    2.1126    1.0000 </r>
       <r>    2.3364    1.0000 </r>
       <r>    2.6593    1.0000 </r>
       <r>    2.8629    1.0000 </r>
       <r>    3.1465    1.0000 </r>
       <r>    3.6646    1.0000 </r>
       <r>    3.7641    1.0000 </r>
       <r>    4.0596    1.0000 </r>
       <r>    4.1089    1.0000 </r>
       <r>    5.2624    1.0000 </r>
       <r>    5.2996    1.0000 </r>
       <r>    7.7314    0.0000 </r>
       <r>    8.4498    0.0000 </r>
       <r>    8.6662    0.0000 </r>
       <r>    8.9369    0.0000 </r>
       <r>    9.0907    0.0000 </r>
       <r>    9.4239    0.0000 </r>
       <r>    9.4262    0.0000 </r>
       <r>    9.9623    0.0000 </r>
       <r>   10.5482    0.0000 </r>
       <r>   11.0288    0.0000 </r>
       <r>   11.0298    0.0000 </r>
       <r>   11.3087    0.0000 </r>
       <r>   11.4959    0.0000 </r>
       <r>   11.6165    0.0000 </r>
       <r>   11.8253    0.0000 </r>
       <r>   12.2235    0.0000 </r>
       <r>   12.5748    0.0000 </r>
       <r>   13.5818    0.0000 </r>
       <r>   13.8685    0.0000 </r>
       <r>   14.3743    0.0000 </r>
       <r>   15.2750    0.0000 </r>
       <r>   15.2967    0.0000 </r>
       <r>   15.3364    0.0000 </r>
       <r>   15.4542    0.0000 </r>
      </set>
      <set comment="kpoint 33">
       <r>  -15.4107    1.0000 </r>
       <r>  -15.4032    1.0000 </r>
       <r>  -15.3942    1.0000 </r>
       <r>  -15.3926    1.0000 </r>
       <r>  -15.3921    1.0000 </r>
       <r>  -15.3911    1.0000 </r>
       <r>  -15.3895    1.0000 </r>
       <r>  -15.3868    1.0000 </r>
       <r>  -15.3819    1.0000 </r>
       <r>  -15.3803    1.0000 </r>
       <r>  -15.3747    1.0000 </r>
       <r>  -15.3719    1.0000 </r>
       <r>  -15.3626    1.0000 </r>
       <r>  -15.3615    1.0000 </r>
       <r>  -15.3418    1.0000 </r>
       <r>  -15.3383    1.0000 </r>
       <r>  -15.3320    1.0000 </r>
       <r>  -15.3299    1.0000 </r>
       <r>  -15.3125    1.0000 </r>
       <r>  -15.3087    1.0000 </r>
       <r>   -7.9619    1.0000 </r>
       <r>   -7.7791    1.0000 </r>
       <r>   -6.8650    1.0000 </r>
       <r>   -6.6100    1.0000 </r>
       <r>   -1.6271    1.0000 </r>
       <r>   -1.1554    1.0000 </r>
       <r>    0.0996    1.0000 </r>
       <r>    0.2631    1.0000 </r>
       <r>    1.3000    1.0000 </r>
       <r>    2.0332    1.0000 </r>
       <r>    2.2539    1.0000 </r>
       <r>    2.5811    1.0000 </r>
       <r>    3.0809    1.0000 </r>
       <r>    3.4269    1.0000 </r>
       <r>    3.5906    1.0000 </r>
       <r>    3.7467    1.0000 </r>
       <r>    4.4872    1.0000 </r>
       <r>    4.7397    1.0000 </r>
       <r>    5.1622    1.0000 </r>
       <r>    5.3203    1.0000 </r>
       <r>    7.6596    0.0000 </r>
       <r>    7.9198    0.0000 </r>
       <r>    8.3110    0.0000 </r>
       <r>    8.7493    0.0000 </r>
       <r>    8.9102    0.0000 </r>
       <r>    9.2002    0.0000 </r>
       <r>    9.6514    0.0000 </r>
       <r>    9.9713    0.0000 </r>
       <r>   10.3136    0.0000 </r>
       <r>   10.4879    0.0000 </r>
       <r>   10.8832    0.0000 </r>
       <r>   10.9874    0.0000 </r>
       <r>   11.7529    0.0000 </r>
       <r>   12.0167    0.0000 </r>
       <r>   12.1354    0.0000 </r>
       <r>   12.5142    0.0000 </r>
       <r>   12.9646    0.0000 </r>
       <r>   13.7355    0.0000 </r>
       <r>   14.0720    0.0000 </r>
       <r>   14.6256    0.0000 </r>
       <r>   14.8170    0.0000 </r>
       <r>   15.2189    0.0000 </r>
       <r>   15.5464    0.0000 </r>
       <r>   15.7676    0.0000 </r>
      </set>
      <set comment="kpoint 34">
       <r>  -15.4108    1.0000 </r>
       <r>  -15.4031    1.0000 </r>
       <r>  -15.3943    1.0000 </r>
       <r>  -15.3927    1.0000 </r>
       <r>  -15.3918    1.0000 </r>
       <r>  -15.3911    1.0000 </r>
       <r>  -15.3898    1.0000 </r>
       <r>  -15.3865    1.0000 </r>
       <r>  -15.3819    1.0000 </r>
       <r>  -15.3803    1.0000 </r>
       <r>  -15.3747    1.0000 </r>
       <r>  -15.3720    1.0000 </r>
       <r>  -15.3627    1.0000 </r>
       <r>  -15.3614    1.0000 </r>
       <r>  -15.3419    1.0000 </r>
       <r>  -15.3381    1.0000 </r>
       <r>  -15.3322    1.0000 </r>
       <r>  -15.3297    1.0000 </r>
       <r>  -15.3125    1.0000 </r>
       <r>  -15.3087    1.0000 </r>
       <r>   -7.9620    1.0000 </r>
       <r>   -7.7790    1.0000 </r>
       <r>   -6.8651    1.0000 </r>
       <r>   -6.6099    1.0000 </r>
       <r>   -1.6288    1.0000 </r>
       <r>   -1.1520    1.0000 </r>
       <r>    0.0944    1.0000 </r>
       <r>    0.2662    1.0000 </r>
       <r>    1.2988    1.0000 </r>
       <r>    2.0381    1.0000 </r>
       <r>    2.2488    1.0000 </r>
       <r>    2.5836    1.0000 </r>
       <r>    3.0800    1.0000 </r>
       <r>    3.4269    1.0000 </r>
       <r>    3.5905    1.0000 </r>
       <r>    3.7469    1.0000 </r>
       <r>    4.4909    1.0000 </r>
       <r>    4.7353    1.0000 </r>
       <r>    5.1635    1.0000 </r>
       <r>    5.3208    1.0000 </r>
       <r>    7.6564    0.0000 </r>
       <r>    7.9245    0.0000 </r>
       <r>    8.3042    0.0000 </r>
       <r>    8.7476    0.0000 </r>
       <r>    8.9151    0.0000 </r>
       <r>    9.2029    0.0000 </r>
       <r>    9.6478    0.0000 </r>
       <r>    9.9763    0.0000 </r>
       <r>   10.3091    0.0000 </r>
       <r>   10.4889    0.0000 </r>
       <r>   10.8746    0.0000 </r>
       <r>   10.9916    0.0000 </r>
       <r>   11.7638    0.0000 </r>
       <r>   12.0143    0.0000 </r>
       <r>   12.1285    0.0000 </r>
       <r>   12.5174    0.0000 </r>
       <r>   12.9692    0.0000 </r>
       <r>   13.7343    0.0000 </r>
       <r>   14.0819    0.0000 </r>
       <r>   14.6149    0.0000 </r>
       <r>   14.8214    0.0000 </r>
       <r>   15.2088    0.0000 </r>
       <r>   15.5473    0.0000 </r>
       <r>   15.7691    0.0000 </r>
      </set>
      <set comment="kpoint 35">
       <r>  -15.4086    1.0000 </r>
       <r>  -15.4026    1.0000 </r>
       <r>  -15.3956    1.0000 </r>
       <r>  -15.3946    1.0000 </r>
       <r>  -15.3912    1.0000 </r>
       <r>  -15.3904    1.0000 </r>
       <r>  -15.3898    1.0000 </r>
       <r>  -15.3874    1.0000 </r>
       <r>  -15.3825    1.0000 </r>
       <r>  -15.3813    1.0000 </r>
       <r>  -15.3720    1.0000 </r>
       <r>  -15.3683    1.0000 </r>
       <r>  -15.3621    1.0000 </r>
       <r>  -15.3601    1.0000 </r>
       <r>  -15.3416    1.0000 </r>
       <r>  -15.3383    1.0000 </r>
       <r>  -15.3325    1.0000 </r>
       <r>  -15.3307    1.0000 </r>
       <r>  -15.3120    1.0000 </r>
       <r>  -15.3091    1.0000 </r>
       <r>   -7.7604    1.0000 </r>
       <r>   -7.5894    1.0000 </r>
       <r>   -6.8470    1.0000 </r>
       <r>   -6.6323    1.0000 </r>
       <r>   -2.0494    1.0000 </r>
       <r>   -1.5694    1.0000 </r>
       <r>   -0.5125    1.0000 </r>
       <r>   -0.2116    1.0000 </r>
       <r>    1.5037    1.0000 </r>
       <r>    2.0495    1.0000 </r>
       <r>    2.2746    1.0000 </r>
       <r>    2.9130    1.0000 </r>
       <r>    3.0850    1.0000 </r>
       <r>    3.4449    1.0000 </r>
       <r>    4.0494    1.0000 </r>
       <r>    4.2131    1.0000 </r>
       <r>    4.9362    1.0000 </r>
       <r>    5.0690    1.0000 </r>
       <r>    5.1743    1.0000 </r>
       <r>    5.3815    1.0000 </r>
       <r>    7.2720    0.0000 </r>
       <r>    7.4269    0.0000 </r>
       <r>    7.8558    0.0000 </r>
       <r>    8.0324    0.0000 </r>
       <r>    8.6651    0.0000 </r>
       <r>    9.0130    0.0000 </r>
       <r>    9.3442    0.0000 </r>
       <r>    9.5197    0.0000 </r>
       <r>   10.1541    0.0000 </r>
       <r>   10.3135    0.0000 </r>
       <r>   10.8527    0.0000 </r>
       <r>   10.9324    0.0000 </r>
       <r>   12.0025    0.0000 </r>
       <r>   12.1023    0.0000 </r>
       <r>   12.9024    0.0000 </r>
       <r>   12.9802    0.0000 </r>
       <r>   13.4033    0.0000 </r>
       <r>   13.8830    0.0000 </r>
       <r>   14.1697    0.0000 </r>
       <r>   14.7445    0.0000 </r>
       <r>   14.9101    0.0000 </r>
       <r>   15.5242    0.0000 </r>
       <r>   15.8928    0.0000 </r>
       <r>   16.2307    0.0000 </r>
      </set>
      <set comment="kpoint 36">
       <r>  -15.4088    1.0000 </r>
       <r>  -15.4024    1.0000 </r>
       <r>  -15.3957    1.0000 </r>
       <r>  -15.3946    1.0000 </r>
       <r>  -15.3912    1.0000 </r>
       <r>  -15.3901    1.0000 </r>
       <r>  -15.3900    1.0000 </r>
       <r>  -15.3873    1.0000 </r>
       <r>  -15.3826    1.0000 </r>
       <r>  -15.3813    1.0000 </r>
       <r>  -15.3720    1.0000 </r>
       <r>  -15.3684    1.0000 </r>
       <r>  -15.3620    1.0000 </r>
       <r>  -15.3602    1.0000 </r>
       <r>  -15.3416    1.0000 </r>
       <r>  -15.3381    1.0000 </r>
       <r>  -15.3327    1.0000 </r>
       <r>  -15.3306    1.0000 </r>
       <r>  -15.3120    1.0000 </r>
       <r>  -15.3091    1.0000 </r>
       <r>   -7.7605    1.0000 </r>
       <r>   -7.5893    1.0000 </r>
       <r>   -6.8472    1.0000 </r>
       <r>   -6.6322    1.0000 </r>
       <r>   -2.0502    1.0000 </r>
       <r>   -1.5677    1.0000 </r>
       <r>   -0.5155    1.0000 </r>
       <r>   -0.2090    1.0000 </r>
       <r>    1.5030    1.0000 </r>
       <r>    2.0520    1.0000 </r>
       <r>    2.2701    1.0000 </r>
       <r>    2.9149    1.0000 </r>
       <r>    3.0817    1.0000 </r>
       <r>    3.4477    1.0000 </r>
       <r>    4.0516    1.0000 </r>
       <r>    4.2125    1.0000 </r>
       <r>    4.9367    1.0000 </r>
       <r>    5.0686    1.0000 </r>
       <r>    5.1785    1.0000 </r>
       <r>    5.3781    1.0000 </r>
       <r>    7.2655    0.0000 </r>
       <r>    7.4305    0.0000 </r>
       <r>    7.8573    0.0000 </r>
       <r>    8.0312    0.0000 </r>
       <r>    8.6661    0.0000 </r>
       <r>    9.0151    0.0000 </r>
       <r>    9.3456    0.0000 </r>
       <r>    9.5104    0.0000 </r>
       <r>   10.1660    0.0000 </r>
       <r>   10.3040    0.0000 </r>
       <r>   10.8393    0.0000 </r>
       <r>   10.9450    0.0000 </r>
       <r>   12.0162    0.0000 </r>
       <r>   12.0952    0.0000 </r>
       <r>   12.8938    0.0000 </r>
       <r>   12.9926    0.0000 </r>
       <r>   13.4076    0.0000 </r>
       <r>   13.8771    0.0000 </r>
       <r>   14.1755    0.0000 </r>
       <r>   14.7437    0.0000 </r>
       <r>   14.9041    0.0000 </r>
       <r>   15.5190    0.0000 </r>
       <r>   15.8919    0.0000 </r>
       <r>   16.2295    0.0000 </r>
      </set>
      <set comment="kpoint 37">
       <r>  -15.4060    1.0000 </r>
       <r>  -15.4021    1.0000 </r>
       <r>  -15.3988    1.0000 </r>
       <r>  -15.3975    1.0000 </r>
       <r>  -15.3911    1.0000 </r>
       <r>  -15.3908    1.0000 </r>
       <r>  -15.3885    1.0000 </r>
       <r>  -15.3871    1.0000 </r>
       <r>  -15.3827    1.0000 </r>
       <r>  -15.3821    1.0000 </r>
       <r>  -15.3687    1.0000 </r>
       <r>  -15.3658    1.0000 </r>
       <r>  -15.3608    1.0000 </r>
       <r>  -15.3589    1.0000 </r>
       <r>  -15.3406    1.0000 </r>
       <r>  -15.3385    1.0000 </r>
       <r>  -15.3326    1.0000 </r>
       <r>  -15.3315    1.0000 </r>
       <r>  -15.3112    1.0000 </r>
       <r>  -15.3097    1.0000 </r>
       <r>   -7.4778    1.0000 </r>
       <r>   -7.3331    1.0000 </r>
       <r>   -6.8895    1.0000 </r>
       <r>   -6.7299    1.0000 </r>
       <r>   -2.3585    1.0000 </r>
       <r>   -2.0354    1.0000 </r>
       <r>   -0.9729    1.0000 </r>
       <r>   -0.7342    1.0000 </r>
       <r>    1.8741    1.0000 </r>
       <r>    2.3428    1.0000 </r>
       <r>    2.6229    1.0000 </r>
       <r>    3.0254    1.0000 </r>
       <r>    3.3335    1.0000 </r>
       <r>    3.4484    1.0000 </r>
       <r>    3.8559    1.0000 </r>
       <r>    4.3327    1.0000 </r>
       <r>    4.9489    1.0000 </r>
       <r>    5.1404    1.0000 </r>
       <r>    5.2933    1.0000 </r>
       <r>    5.3890    1.0000 </r>
       <r>    7.0847    0.0000 </r>
       <r>    7.3456    0.0000 </r>
       <r>    7.5800    0.0000 </r>
       <r>    7.9328    0.0000 </r>
       <r>    8.2267    0.0000 </r>
       <r>    8.6507    0.0000 </r>
       <r>    8.7326    0.0000 </r>
       <r>    9.0396    0.0000 </r>
       <r>   10.0403    0.0000 </r>
       <r>   10.1917    0.0000 </r>
       <r>   10.8201    0.0000 </r>
       <r>   11.0766    0.0000 </r>
       <r>   12.5946    0.0000 </r>
       <r>   12.8836    0.0000 </r>
       <r>   13.1278    0.0000 </r>
       <r>   13.3901    0.0000 </r>
       <r>   13.9379    0.0000 </r>
       <r>   14.2760    0.0000 </r>
       <r>   14.4532    0.0000 </r>
       <r>   14.6458    0.0000 </r>
       <r>   15.3043    0.0000 </r>
       <r>   15.6903    0.0000 </r>
       <r>   15.9446    0.0000 </r>
       <r>   16.6522    0.0000 </r>
      </set>
      <set comment="kpoint 38">
       <r>  -15.4061    1.0000 </r>
       <r>  -15.4020    1.0000 </r>
       <r>  -15.3988    1.0000 </r>
       <r>  -15.3974    1.0000 </r>
       <r>  -15.3911    1.0000 </r>
       <r>  -15.3909    1.0000 </r>
       <r>  -15.3884    1.0000 </r>
       <r>  -15.3870    1.0000 </r>
       <r>  -15.3829    1.0000 </r>
       <r>  -15.3821    1.0000 </r>
       <r>  -15.3687    1.0000 </r>
       <r>  -15.3658    1.0000 </r>
       <r>  -15.3607    1.0000 </r>
       <r>  -15.3589    1.0000 </r>
       <r>  -15.3406    1.0000 </r>
       <r>  -15.3384    1.0000 </r>
       <r>  -15.3327    1.0000 </r>
       <r>  -15.3315    1.0000 </r>
       <r>  -15.3112    1.0000 </r>
       <r>  -15.3097    1.0000 </r>
       <r>   -7.4779    1.0000 </r>
       <r>   -7.3329    1.0000 </r>
       <r>   -6.8896    1.0000 </r>
       <r>   -6.7298    1.0000 </r>
       <r>   -2.3589    1.0000 </r>
       <r>   -2.0350    1.0000 </r>
       <r>   -0.9737    1.0000 </r>
       <r>   -0.7329    1.0000 </r>
       <r>    1.8742    1.0000 </r>
       <r>    2.3426    1.0000 </r>
       <r>    2.6199    1.0000 </r>
       <r>    3.0220    1.0000 </r>
       <r>    3.3347    1.0000 </r>
       <r>    3.4514    1.0000 </r>
       <r>    3.8585    1.0000 </r>
       <r>    4.3316    1.0000 </r>
       <r>    4.9549    1.0000 </r>
       <r>    5.1403    1.0000 </r>
       <r>    5.2923    1.0000 </r>
       <r>    5.3863    1.0000 </r>
       <r>    7.0892    0.0000 </r>
       <r>    7.3398    0.0000 </r>
       <r>    7.5804    0.0000 </r>
       <r>    7.9305    0.0000 </r>
       <r>    8.2251    0.0000 </r>
       <r>    8.6512    0.0000 </r>
       <r>    8.7359    0.0000 </r>
       <r>    9.0332    0.0000 </r>
       <r>   10.0365    0.0000 </r>
       <r>   10.1935    0.0000 </r>
       <r>   10.8163    0.0000 </r>
       <r>   11.0887    0.0000 </r>
       <r>   12.6050    0.0000 </r>
       <r>   12.8868    0.0000 </r>
       <r>   13.1279    0.0000 </r>
       <r>   13.3942    0.0000 </r>
       <r>   13.9216    0.0000 </r>
       <r>   14.2752    0.0000 </r>
       <r>   14.4504    0.0000 </r>
       <r>   14.6388    0.0000 </r>
       <r>   15.3136    0.0000 </r>
       <r>   15.6844    0.0000 </r>
       <r>   15.9494    0.0000 </r>
       <r>   16.6438    0.0000 </r>
      </set>
      <set comment="kpoint 39">
       <r>  -15.4034    1.0000 </r>
       <r>  -15.4034    1.0000 </r>
       <r>  -15.3994    1.0000 </r>
       <r>  -15.3994    1.0000 </r>
       <r>  -15.3914    1.0000 </r>
       <r>  -15.3914    1.0000 </r>
       <r>  -15.3873    1.0000 </r>
       <r>  -15.3873    1.0000 </r>
       <r>  -15.3826    1.0000 </r>
       <r>  -15.3826    1.0000 </r>
       <r>  -15.3662    1.0000 </r>
       <r>  -15.3662    1.0000 </r>
       <r>  -15.3591    1.0000 </r>
       <r>  -15.3591    1.0000 </r>
       <r>  -15.3393    1.0000 </r>
       <r>  -15.3393    1.0000 </r>
       <r>  -15.3322    1.0000 </r>
       <r>  -15.3322    1.0000 </r>
       <r>  -15.3104    1.0000 </r>
       <r>  -15.3104    1.0000 </r>
       <r>   -7.2341    1.0000 </r>
       <r>   -7.2341    1.0000 </r>
       <r>   -6.8974    1.0000 </r>
       <r>   -6.8974    1.0000 </r>
       <r>   -2.3483    1.0000 </r>
       <r>   -2.3483    1.0000 </r>
       <r>   -1.0468    1.0000 </r>
       <r>   -1.0468    1.0000 </r>
       <r>    2.3440    1.0000 </r>
       <r>    2.3440    1.0000 </r>
       <r>    2.9749    1.0000 </r>
       <r>    2.9749    1.0000 </r>
       <r>    3.3248    1.0000 </r>
       <r>    3.3248    1.0000 </r>
       <r>    3.9622    1.0000 </r>
       <r>    3.9622    1.0000 </r>
       <r>    5.0205    1.0000 </r>
       <r>    5.0205    1.0000 </r>
       <r>    5.3792    1.0000 </r>
       <r>    5.3792    1.0000 </r>
       <r>    7.2391    0.0000 </r>
       <r>    7.2391    0.0000 </r>
       <r>    7.6513    0.0000 </r>
       <r>    7.6513    0.0000 </r>
       <r>    8.2415    0.0000 </r>
       <r>    8.2415    0.0000 </r>
       <r>    8.9033    0.0000 </r>
       <r>    8.9033    0.0000 </r>
       <r>    9.7825    0.0000 </r>
       <r>    9.7825    0.0000 </r>
       <r>   11.0576    0.0000 </r>
       <r>   11.0576    0.0000 </r>
       <r>   12.8114    0.0000 </r>
       <r>   12.8114    0.0000 </r>
       <r>   13.9322    0.0000 </r>
       <r>   13.9322    0.0000 </r>
       <r>   14.3147    0.0000 </r>
       <r>   14.3147    0.0000 </r>
       <r>   15.2161    0.0000 </r>
       <r>   15.2161    0.0000 </r>
       <r>   15.7511    0.0000 </r>
       <r>   15.7511    0.0000 </r>
       <r>   15.9358    0.0000 </r>
       <r>   15.9358    0.0000 </r>
      </set>
      <set comment="kpoint 40">
       <r>  -15.4035    1.0000 </r>
       <r>  -15.4035    1.0000 </r>
       <r>  -15.3993    1.0000 </r>
       <r>  -15.3993    1.0000 </r>
       <r>  -15.3914    1.0000 </r>
       <r>  -15.3914    1.0000 </r>
       <r>  -15.3872    1.0000 </r>
       <r>  -15.3872    1.0000 </r>
       <r>  -15.3827    1.0000 </r>
       <r>  -15.3827    1.0000 </r>
       <r>  -15.3662    1.0000 </r>
       <r>  -15.3662    1.0000 </r>
       <r>  -15.3592    1.0000 </r>
       <r>  -15.3592    1.0000 </r>
       <r>  -15.3393    1.0000 </r>
       <r>  -15.3393    1.0000 </r>
       <r>  -15.3322    1.0000 </r>
       <r>  -15.3322    1.0000 </r>
       <r>  -15.3104    1.0000 </r>
       <r>  -15.3104    1.0000 </r>
       <r>   -7.2341    1.0000 </r>
       <r>   -7.2341    1.0000 </r>
       <r>   -6.8974    1.0000 </r>
       <r>   -6.8974    1.0000 </r>
       <r>   -2.3484    1.0000 </r>
       <r>   -2.3484    1.0000 </r>
       <r>   -1.0464    1.0000 </r>
       <r>   -1.0464    1.0000 </r>
       <r>    2.3433    1.0000 </r>
       <r>    2.3433    1.0000 </r>
       <r>    2.9743    1.0000 </r>
       <r>    2.9743    1.0000 </r>
       <r>    3.3237    1.0000 </r>
       <r>    3.3237    1.0000 </r>
       <r>    3.9637    1.0000 </r>
       <r>    3.9637    1.0000 </r>
       <r>    5.0242    1.0000 </r>
       <r>    5.0242    1.0000 </r>
       <r>    5.3780    1.0000 </r>
       <r>    5.3780    1.0000 </r>
       <r>    7.2390    0.0000 </r>
       <r>    7.2390    0.0000 </r>
       <r>    7.6506    0.0000 </r>
       <r>    7.6506    0.0000 </r>
       <r>    8.2373    0.0000 </r>
       <r>    8.2373    0.0000 </r>
       <r>    8.9038    0.0000 </r>
       <r>    8.9038    0.0000 </r>
       <r>    9.7809    0.0000 </r>
       <r>    9.7809    0.0000 </r>
       <r>   11.0627    0.0000 </r>
       <r>   11.0627    0.0000 </r>
       <r>   12.8220    0.0000 </r>
       <r>   12.8220    0.0000 </r>
       <r>   13.9235    0.0000 </r>
       <r>   13.9235    0.0000 </r>
       <r>   14.3102    0.0000 </r>
       <r>   14.3102    0.0000 </r>
       <r>   15.2131    0.0000 </r>
       <r>   15.2131    0.0000 </r>
       <r>   15.7437    0.0000 </r>
       <r>   15.7437    0.0000 </r>
       <r>   15.9347    0.0000 </r>
       <r>   15.9347    0.0000 </r>
      </set>
      <set comment="kpoint 41">
       <r>  -15.4033    1.0000 </r>
       <r>  -15.4000    1.0000 </r>
       <r>  -15.3939    1.0000 </r>
       <r>  -15.3925    1.0000 </r>
       <r>  -15.3921    1.0000 </r>
       <r>  -15.3904    1.0000 </r>
       <r>  -15.3899    1.0000 </r>
       <r>  -15.3888    1.0000 </r>
       <r>  -15.3856    1.0000 </r>
       <r>  -15.3847    1.0000 </r>
       <r>  -15.3726    1.0000 </r>
       <r>  -15.3696    1.0000 </r>
       <r>  -15.3610    1.0000 </r>
       <r>  -15.3596    1.0000 </r>
       <r>  -15.3382    1.0000 </r>
       <r>  -15.3380    1.0000 </r>
       <r>  -15.3330    1.0000 </r>
       <r>  -15.3315    1.0000 </r>
       <r>  -15.3144    1.0000 </r>
       <r>  -15.3117    1.0000 </r>
       <r>   -7.8317    1.0000 </r>
       <r>   -7.6616    1.0000 </r>
       <r>   -6.8181    1.0000 </r>
       <r>   -6.6032    1.0000 </r>
       <r>   -1.7206    1.0000 </r>
       <r>   -1.3373    1.0000 </r>
       <r>   -0.3505    1.0000 </r>
       <r>   -0.1718    1.0000 </r>
       <r>    1.3754    1.0000 </r>
       <r>    2.3086    1.0000 </r>
       <r>    2.5037    1.0000 </r>
       <r>    2.7814    1.0000 </r>
       <r>    3.1971    1.0000 </r>
       <r>    3.3868    1.0000 </r>
       <r>    3.8031    1.0000 </r>
       <r>    3.9036    1.0000 </r>
       <r>    4.1971    1.0000 </r>
       <r>    4.5097    1.0000 </r>
       <r>    5.2561    1.0000 </r>
       <r>    5.3962    1.0000 </r>
       <r>    7.3152    0.0000 </r>
       <r>    8.0126    0.0000 </r>
       <r>    8.0460    0.0000 </r>
       <r>    8.4915    0.0000 </r>
       <r>    8.6514    0.0000 </r>
       <r>    9.1851    0.0000 </r>
       <r>    9.2764    0.0000 </r>
       <r>    9.8833    0.0000 </r>
       <r>   10.0586    0.0000 </r>
       <r>   10.4662    0.0000 </r>
       <r>   10.5956    0.0000 </r>
       <r>   10.6482    0.0000 </r>
       <r>   11.2860    0.0000 </r>
       <r>   11.4442    0.0000 </r>
       <r>   12.3666    0.0000 </r>
       <r>   12.3778    0.0000 </r>
       <r>   12.9029    0.0000 </r>
       <r>   13.4709    0.0000 </r>
       <r>   14.5417    0.0000 </r>
       <r>   14.7402    0.0000 </r>
       <r>   15.8050    0.0000 </r>
       <r>   15.9491    0.0000 </r>
       <r>   16.0228    0.0000 </r>
       <r>   16.4104    0.0000 </r>
      </set>
      <set comment="kpoint 42">
       <r>  -15.4036    1.0000 </r>
       <r>  -15.3997    1.0000 </r>
       <r>  -15.3938    1.0000 </r>
       <r>  -15.3930    1.0000 </r>
       <r>  -15.3916    1.0000 </r>
       <r>  -15.3905    1.0000 </r>
       <r>  -15.3895    1.0000 </r>
       <r>  -15.3894    1.0000 </r>
       <r>  -15.3856    1.0000 </r>
       <r>  -15.3846    1.0000 </r>
       <r>  -15.3727    1.0000 </r>
       <r>  -15.3696    1.0000 </r>
       <r>  -15.3608    1.0000 </r>
       <r>  -15.3598    1.0000 </r>
       <r>  -15.3386    1.0000 </r>
       <r>  -15.3377    1.0000 </r>
       <r>  -15.3326    1.0000 </r>
       <r>  -15.3319    1.0000 </r>
       <r>  -15.3144    1.0000 </r>
       <r>  -15.3118    1.0000 </r>
       <r>   -7.8317    1.0000 </r>
       <r>   -7.6615    1.0000 </r>
       <r>   -6.8182    1.0000 </r>
       <r>   -6.6031    1.0000 </r>
       <r>   -1.7243    1.0000 </r>
       <r>   -1.3312    1.0000 </r>
       <r>   -0.3436    1.0000 </r>
       <r>   -0.1825    1.0000 </r>
       <r>    1.3739    1.0000 </r>
       <r>    2.3108    1.0000 </r>
       <r>    2.5046    1.0000 </r>
       <r>    2.7806    1.0000 </r>
       <r>    3.2017    1.0000 </r>
       <r>    3.3849    1.0000 </r>
       <r>    3.8042    1.0000 </r>
       <r>    3.9052    1.0000 </r>
       <r>    4.2025    1.0000 </r>
       <r>    4.4975    1.0000 </r>
       <r>    5.2562    1.0000 </r>
       <r>    5.3968    1.0000 </r>
       <r>    7.3242    0.0000 </r>
       <r>    8.0035    0.0000 </r>
       <r>    8.0455    0.0000 </r>
       <r>    8.4887    0.0000 </r>
       <r>    8.6459    0.0000 </r>
       <r>    9.1853    0.0000 </r>
       <r>    9.2868    0.0000 </r>
       <r>    9.8882    0.0000 </r>
       <r>   10.0601    0.0000 </r>
       <r>   10.4617    0.0000 </r>
       <r>   10.6062    0.0000 </r>
       <r>   10.6298    0.0000 </r>
       <r>   11.2806    0.0000 </r>
       <r>   11.4563    0.0000 </r>
       <r>   12.3686    0.0000 </r>
       <r>   12.3796    0.0000 </r>
       <r>   12.9036    0.0000 </r>
       <r>   13.4677    0.0000 </r>
       <r>   14.5270    0.0000 </r>
       <r>   14.7559    0.0000 </r>
       <r>   15.8075    0.0000 </r>
       <r>   15.9430    0.0000 </r>
       <r>   16.0198    0.0000 </r>
       <r>   16.4095    0.0000 </r>
      </set>
      <set comment="kpoint 43">
       <r>  -15.4041    1.0000 </r>
       <r>  -15.4005    1.0000 </r>
       <r>  -15.3954    1.0000 </r>
       <r>  -15.3930    1.0000 </r>
       <r>  -15.3917    1.0000 </r>
       <r>  -15.3902    1.0000 </r>
       <r>  -15.3899    1.0000 </r>
       <r>  -15.3878    1.0000 </r>
       <r>  -15.3859    1.0000 </r>
       <r>  -15.3847    1.0000 </r>
       <r>  -15.3718    1.0000 </r>
       <r>  -15.3684    1.0000 </r>
       <r>  -15.3610    1.0000 </r>
       <r>  -15.3587    1.0000 </r>
       <r>  -15.3384    1.0000 </r>
       <r>  -15.3375    1.0000 </r>
       <r>  -15.3333    1.0000 </r>
       <r>  -15.3320    1.0000 </r>
       <r>  -15.3142    1.0000 </r>
       <r>  -15.3117    1.0000 </r>
       <r>   -7.7631    1.0000 </r>
       <r>   -7.5970    1.0000 </r>
       <r>   -6.8011    1.0000 </r>
       <r>   -6.5976    1.0000 </r>
       <r>   -1.7774    1.0000 </r>
       <r>   -1.3516    1.0000 </r>
       <r>   -0.4124    1.0000 </r>
       <r>   -0.2823    1.0000 </r>
       <r>    1.4348    1.0000 </r>
       <r>    1.8178    1.0000 </r>
       <r>    2.1430    1.0000 </r>
       <r>    2.6474    1.0000 </r>
       <r>    3.0007    1.0000 </r>
       <r>    3.3778    1.0000 </r>
       <r>    3.9250    1.0000 </r>
       <r>    4.0181    1.0000 </r>
       <r>    4.7209    1.0000 </r>
       <r>    4.8857    1.0000 </r>
       <r>    5.2706    1.0000 </r>
       <r>    5.3758    1.0000 </r>
       <r>    7.1238    0.0000 </r>
       <r>    7.3810    0.0000 </r>
       <r>    8.0502    0.0000 </r>
       <r>    8.2594    0.0000 </r>
       <r>    8.7458    0.0000 </r>
       <r>    9.0471    0.0000 </r>
       <r>    9.4617    0.0000 </r>
       <r>    9.6348    0.0000 </r>
       <r>   10.0674    0.0000 </r>
       <r>   10.4262    0.0000 </r>
       <r>   10.7027    0.0000 </r>
       <r>   10.9751    0.0000 </r>
       <r>   11.8433    0.0000 </r>
       <r>   12.2745    0.0000 </r>
       <r>   12.6991    0.0000 </r>
       <r>   12.7153    0.0000 </r>
       <r>   13.1172    0.0000 </r>
       <r>   13.7712    0.0000 </r>
       <r>   14.3574    0.0000 </r>
       <r>   14.6404    0.0000 </r>
       <r>   15.1818    0.0000 </r>
       <r>   15.5795    0.0000 </r>
       <r>   15.7774    0.0000 </r>
       <r>   16.0061    0.0000 </r>
      </set>
      <set comment="kpoint 44">
       <r>  -15.4043    1.0000 </r>
       <r>  -15.4002    1.0000 </r>
       <r>  -15.3954    1.0000 </r>
       <r>  -15.3928    1.0000 </r>
       <r>  -15.3921    1.0000 </r>
       <r>  -15.3901    1.0000 </r>
       <r>  -15.3897    1.0000 </r>
       <r>  -15.3880    1.0000 </r>
       <r>  -15.3861    1.0000 </r>
       <r>  -15.3844    1.0000 </r>
       <r>  -15.3719    1.0000 </r>
       <r>  -15.3684    1.0000 </r>
       <r>  -15.3608    1.0000 </r>
       <r>  -15.3589    1.0000 </r>
       <r>  -15.3386    1.0000 </r>
       <r>  -15.3373    1.0000 </r>
       <r>  -15.3329    1.0000 </r>
       <r>  -15.3324    1.0000 </r>
       <r>  -15.3142    1.0000 </r>
       <r>  -15.3118    1.0000 </r>
       <r>   -7.7632    1.0000 </r>
       <r>   -7.5969    1.0000 </r>
       <r>   -6.8012    1.0000 </r>
       <r>   -6.5975    1.0000 </r>
       <r>   -1.7807    1.0000 </r>
       <r>   -1.3456    1.0000 </r>
       <r>   -0.4101    1.0000 </r>
       <r>   -0.2883    1.0000 </r>
       <r>    1.4327    1.0000 </r>
       <r>    1.8202    1.0000 </r>
       <r>    2.1415    1.0000 </r>
       <r>    2.6502    1.0000 </r>
       <r>    3.0013    1.0000 </r>
       <r>    3.3770    1.0000 </r>
       <r>    3.9266    1.0000 </r>
       <r>    4.0176    1.0000 </r>
       <r>    4.7232    1.0000 </r>
       <r>    4.8826    1.0000 </r>
       <r>    5.2725    1.0000 </r>
       <r>    5.3728    1.0000 </r>
       <r>    7.1270    0.0000 </r>
       <r>    7.3786    0.0000 </r>
       <r>    8.0490    0.0000 </r>
       <r>    8.2608    0.0000 </r>
       <r>    8.7429    0.0000 </r>
       <r>    9.0473    0.0000 </r>
       <r>    9.4578    0.0000 </r>
       <r>    9.6334    0.0000 </r>
       <r>   10.0771    0.0000 </r>
       <r>   10.4243    0.0000 </r>
       <r>   10.6883    0.0000 </r>
       <r>   10.9911    0.0000 </r>
       <r>   11.8422    0.0000 </r>
       <r>   12.2714    0.0000 </r>
       <r>   12.7003    0.0000 </r>
       <r>   12.7224    0.0000 </r>
       <r>   13.1172    0.0000 </r>
       <r>   13.7677    0.0000 </r>
       <r>   14.3584    0.0000 </r>
       <r>   14.6476    0.0000 </r>
       <r>   15.1727    0.0000 </r>
       <r>   15.5740    0.0000 </r>
       <r>   15.7778    0.0000 </r>
       <r>   16.0040    0.0000 </r>
      </set>
      <set comment="kpoint 45">
       <r>  -15.4060    1.0000 </r>
       <r>  -15.4020    1.0000 </r>
       <r>  -15.3991    1.0000 </r>
       <r>  -15.3962    1.0000 </r>
       <r>  -15.3906    1.0000 </r>
       <r>  -15.3898    1.0000 </r>
       <r>  -15.3889    1.0000 </r>
       <r>  -15.3864    1.0000 </r>
       <r>  -15.3849    1.0000 </r>
       <r>  -15.3844    1.0000 </r>
       <r>  -15.3700    1.0000 </r>
       <r>  -15.3663    1.0000 </r>
       <r>  -15.3595    1.0000 </r>
       <r>  -15.3569    1.0000 </r>
       <r>  -15.3380    1.0000 </r>
       <r>  -15.3367    1.0000 </r>
       <r>  -15.3339    1.0000 </r>
       <r>  -15.3331    1.0000 </r>
       <r>  -15.3136    1.0000 </r>
       <r>  -15.3118    1.0000 </r>
       <r>   -7.5726    1.0000 </r>
       <r>   -7.4188    1.0000 </r>
       <r>   -6.7762    1.0000 </r>
       <r>   -6.6031    1.0000 </r>
       <r>   -1.9484    1.0000 </r>
       <r>   -1.4919    1.0000 </r>
       <r>   -0.6402    1.0000 </r>
       <r>   -0.4676    1.0000 </r>
       <r>    1.3794    1.0000 </r>
       <r>    1.5032    1.0000 </r>
       <r>    1.9171    1.0000 </r>
       <r>    2.5305    1.0000 </r>
       <r>    2.5741    1.0000 </r>
       <r>    3.2029    1.0000 </r>
       <r>    4.1314    1.0000 </r>
       <r>    4.3895    1.0000 </r>
       <r>    4.4649    1.0000 </r>
       <r>    4.6219    1.0000 </r>
       <r>    5.2668    1.0000 </r>
       <r>    5.4126    1.0000 </r>
       <r>    7.2670    0.0000 </r>
       <r>    7.6570    0.0000 </r>
       <r>    7.7528    0.0000 </r>
       <r>    8.1915    0.0000 </r>
       <r>    8.4616    0.0000 </r>
       <r>    8.9020    0.0000 </r>
       <r>    9.3351    0.0000 </r>
       <r>    9.9109    0.0000 </r>
       <r>   10.4274    0.0000 </r>
       <r>   10.7863    0.0000 </r>
       <r>   11.0456    0.0000 </r>
       <r>   11.1630    0.0000 </r>
       <r>   12.2112    0.0000 </r>
       <r>   13.0041    0.0000 </r>
       <r>   13.3257    0.0000 </r>
       <r>   13.4018    0.0000 </r>
       <r>   13.6567    0.0000 </r>
       <r>   13.9338    0.0000 </r>
       <r>   14.2088    0.0000 </r>
       <r>   14.6591    0.0000 </r>
       <r>   14.8659    0.0000 </r>
       <r>   15.2739    0.0000 </r>
       <r>   15.9818    0.0000 </r>
       <r>   16.1166    0.0000 </r>
      </set>
      <set comment="kpoint 46">
       <r>  -15.4061    1.0000 </r>
       <r>  -15.4019    1.0000 </r>
       <r>  -15.3991    1.0000 </r>
       <r>  -15.3961    1.0000 </r>
       <r>  -15.3908    1.0000 </r>
       <r>  -15.3898    1.0000 </r>
       <r>  -15.3887    1.0000 </r>
       <r>  -15.3865    1.0000 </r>
       <r>  -15.3853    1.0000 </r>
       <r>  -15.3840    1.0000 </r>
       <r>  -15.3700    1.0000 </r>
       <r>  -15.3663    1.0000 </r>
       <r>  -15.3593    1.0000 </r>
       <r>  -15.3570    1.0000 </r>
       <r>  -15.3383    1.0000 </r>
       <r>  -15.3365    1.0000 </r>
       <r>  -15.3336    1.0000 </r>
       <r>  -15.3334    1.0000 </r>
       <r>  -15.3136    1.0000 </r>
       <r>  -15.3118    1.0000 </r>
       <r>   -7.5727    1.0000 </r>
       <r>   -7.4187    1.0000 </r>
       <r>   -6.7764    1.0000 </r>
       <r>   -6.6030    1.0000 </r>
       <r>   -1.9506    1.0000 </r>
       <r>   -1.4877    1.0000 </r>
       <r>   -0.6459    1.0000 </r>
       <r>   -0.4636    1.0000 </r>
       <r>    1.3808    1.0000 </r>
       <r>    1.5025    1.0000 </r>
       <r>    1.9138    1.0000 </r>
       <r>    2.5307    1.0000 </r>
       <r>    2.5723    1.0000 </r>
       <r>    3.2067    1.0000 </r>
       <r>    4.1321    1.0000 </r>
       <r>    4.3903    1.0000 </r>
       <r>    4.4695    1.0000 </r>
       <r>    4.6183    1.0000 </r>
       <r>    5.2655    1.0000 </r>
       <r>    5.4132    1.0000 </r>
       <r>    7.2695    0.0000 </r>
       <r>    7.6535    0.0000 </r>
       <r>    7.7533    0.0000 </r>
       <r>    8.1839    0.0000 </r>
       <r>    8.4676    0.0000 </r>
       <r>    8.8952    0.0000 </r>
       <r>    9.3363    0.0000 </r>
       <r>    9.9106    0.0000 </r>
       <r>   10.4332    0.0000 </r>
       <r>   10.7839    0.0000 </r>
       <r>   11.0359    0.0000 </r>
       <r>   11.1772    0.0000 </r>
       <r>   12.2156    0.0000 </r>
       <r>   13.0028    0.0000 </r>
       <r>   13.3290    0.0000 </r>
       <r>   13.4059    0.0000 </r>
       <r>   13.6555    0.0000 </r>
       <r>   13.9303    0.0000 </r>
       <r>   14.2058    0.0000 </r>
       <r>   14.6617    0.0000 </r>
       <r>   14.8638    0.0000 </r>
       <r>   15.2715    0.0000 </r>
       <r>   15.9793    0.0000 </r>
       <r>   16.1107    0.0000 </r>
      </set>
      <set comment="kpoint 47">
       <r>  -15.4077    1.0000 </r>
       <r>  -15.4051    1.0000 </r>
       <r>  -15.4016    1.0000 </r>
       <r>  -15.3997    1.0000 </r>
       <r>  -15.3903    1.0000 </r>
       <r>  -15.3893    1.0000 </r>
       <r>  -15.3884    1.0000 </r>
       <r>  -15.3860    1.0000 </r>
       <r>  -15.3837    1.0000 </r>
       <r>  -15.3829    1.0000 </r>
       <r>  -15.3679    1.0000 </r>
       <r>  -15.3656    1.0000 </r>
       <r>  -15.3566    1.0000 </r>
       <r>  -15.3550    1.0000 </r>
       <r>  -15.3370    1.0000 </r>
       <r>  -15.3357    1.0000 </r>
       <r>  -15.3346    1.0000 </r>
       <r>  -15.3341    1.0000 </r>
       <r>  -15.3129    1.0000 </r>
       <r>  -15.3119    1.0000 </r>
       <r>   -7.3110    1.0000 </r>
       <r>   -7.1831    1.0000 </r>
       <r>   -6.8018    1.0000 </r>
       <r>   -6.6703    1.0000 </r>
       <r>   -2.1166    1.0000 </r>
       <r>   -1.8151    1.0000 </r>
       <r>   -0.8401    1.0000 </r>
       <r>   -0.6868    1.0000 </r>
       <r>    1.4141    1.0000 </r>
       <r>    1.5606    1.0000 </r>
       <r>    2.1623    1.0000 </r>
       <r>    2.3121    1.0000 </r>
       <r>    2.5559    1.0000 </r>
       <r>    3.2749    1.0000 </r>
       <r>    3.7003    1.0000 </r>
       <r>    3.8775    1.0000 </r>
       <r>    4.1389    1.0000 </r>
       <r>    4.2127    1.0000 </r>
       <r>    4.9663    1.0000 </r>
       <r>    5.2041    1.0000 </r>
       <r>    7.4413    0.0000 </r>
       <r>    8.0041    0.0000 </r>
       <r>    8.2092    0.0000 </r>
       <r>    8.3759    0.0000 </r>
       <r>    8.9768    0.0000 </r>
       <r>    9.2128    0.0000 </r>
       <r>    9.4247    0.0000 </r>
       <r>    9.9361    0.0000 </r>
       <r>   10.4575    0.0000 </r>
       <r>   10.7847    0.0000 </r>
       <r>   11.1491    0.0000 </r>
       <r>   11.2809    0.0000 </r>
       <r>   12.1910    0.0000 </r>
       <r>   12.6494    0.0000 </r>
       <r>   13.2304    0.0000 </r>
       <r>   13.8157    0.0000 </r>
       <r>   14.0074    0.0000 </r>
       <r>   14.3818    0.0000 </r>
       <r>   14.9421    0.0000 </r>
       <r>   15.1236    0.0000 </r>
       <r>   15.4576    0.0000 </r>
       <r>   15.6149    0.0000 </r>
       <r>   16.5833    0.0000 </r>
       <r>   17.0046    0.0000 </r>
      </set>
      <set comment="kpoint 48">
       <r>  -15.4077    1.0000 </r>
       <r>  -15.4051    1.0000 </r>
       <r>  -15.4015    1.0000 </r>
       <r>  -15.3996    1.0000 </r>
       <r>  -15.3903    1.0000 </r>
       <r>  -15.3892    1.0000 </r>
       <r>  -15.3885    1.0000 </r>
       <r>  -15.3861    1.0000 </r>
       <r>  -15.3836    1.0000 </r>
       <r>  -15.3830    1.0000 </r>
       <r>  -15.3679    1.0000 </r>
       <r>  -15.3655    1.0000 </r>
       <r>  -15.3566    1.0000 </r>
       <r>  -15.3551    1.0000 </r>
       <r>  -15.3372    1.0000 </r>
       <r>  -15.3355    1.0000 </r>
       <r>  -15.3347    1.0000 </r>
       <r>  -15.3340    1.0000 </r>
       <r>  -15.3129    1.0000 </r>
       <r>  -15.3119    1.0000 </r>
       <r>   -7.3111    1.0000 </r>
       <r>   -7.1828    1.0000 </r>
       <r>   -6.8021    1.0000 </r>
       <r>   -6.6701    1.0000 </r>
       <r>   -2.1176    1.0000 </r>
       <r>   -1.8140    1.0000 </r>
       <r>   -0.8422    1.0000 </r>
       <r>   -0.6839    1.0000 </r>
       <r>    1.4181    1.0000 </r>
       <r>    1.5564    1.0000 </r>
       <r>    2.1596    1.0000 </r>
       <r>    2.3092    1.0000 </r>
       <r>    2.5556    1.0000 </r>
       <r>    3.2752    1.0000 </r>
       <r>    3.6995    1.0000 </r>
       <r>    3.8863    1.0000 </r>
       <r>    4.1370    1.0000 </r>
       <r>    4.2135    1.0000 </r>
       <r>    4.9680    1.0000 </r>
       <r>    5.2047    1.0000 </r>
       <r>    7.4370    0.0000 </r>
       <r>    8.0044    0.0000 </r>
       <r>    8.2004    0.0000 </r>
       <r>    8.3736    0.0000 </r>
       <r>    8.9802    0.0000 </r>
       <r>    9.2143    0.0000 </r>
       <r>    9.4282    0.0000 </r>
       <r>    9.9279    0.0000 </r>
       <r>   10.4619    0.0000 </r>
       <r>   10.7873    0.0000 </r>
       <r>   11.1431    0.0000 </r>
       <r>   11.2926    0.0000 </r>
       <r>   12.1996    0.0000 </r>
       <r>   12.6572    0.0000 </r>
       <r>   13.2256    0.0000 </r>
       <r>   13.8099    0.0000 </r>
       <r>   14.0014    0.0000 </r>
       <r>   14.3759    0.0000 </r>
       <r>   14.9382    0.0000 </r>
       <r>   15.1292    0.0000 </r>
       <r>   15.4645    0.0000 </r>
       <r>   15.6036    0.0000 </r>
       <r>   16.5839    0.0000 </r>
       <r>   17.0032    0.0000 </r>
      </set>
      <set comment="kpoint 49">
       <r>  -15.4076    1.0000 </r>
       <r>  -15.4076    1.0000 </r>
       <r>  -15.4018    1.0000 </r>
       <r>  -15.4018    1.0000 </r>
       <r>  -15.3898    1.0000 </r>
       <r>  -15.3898    1.0000 </r>
       <r>  -15.3871    1.0000 </r>
       <r>  -15.3871    1.0000 </r>
       <r>  -15.3826    1.0000 </r>
       <r>  -15.3826    1.0000 </r>
       <r>  -15.3662    1.0000 </r>
       <r>  -15.3662    1.0000 </r>
       <r>  -15.3548    1.0000 </r>
       <r>  -15.3548    1.0000 </r>
       <r>  -15.3357    1.0000 </r>
       <r>  -15.3357    1.0000 </r>
       <r>  -15.3347    1.0000 </r>
       <r>  -15.3347    1.0000 </r>
       <r>  -15.3123    1.0000 </r>
       <r>  -15.3123    1.0000 </r>
       <r>   -7.0925    1.0000 </r>
       <r>   -7.0925    1.0000 </r>
       <r>   -6.8045    1.0000 </r>
       <r>   -6.8045    1.0000 </r>
       <r>   -2.0835    1.0000 </r>
       <r>   -2.0835    1.0000 </r>
       <r>   -0.8610    1.0000 </r>
       <r>   -0.8610    1.0000 </r>
       <r>    1.7767    1.0000 </r>
       <r>    1.7767    1.0000 </r>
       <r>    2.0076    1.0000 </r>
       <r>    2.0076    1.0000 </r>
       <r>    2.9459    1.0000 </r>
       <r>    2.9459    1.0000 </r>
       <r>    3.6526    1.0000 </r>
       <r>    3.6526    1.0000 </r>
       <r>    4.0260    1.0000 </r>
       <r>    4.0260    1.0000 </r>
       <r>    4.8179    1.0000 </r>
       <r>    4.8179    1.0000 </r>
       <r>    7.7780    0.0000 </r>
       <r>    7.7780    0.0000 </r>
       <r>    8.7676    0.0000 </r>
       <r>    8.7676    0.0000 </r>
       <r>    9.0286    0.0000 </r>
       <r>    9.0286    0.0000 </r>
       <r>    9.9043    0.0000 </r>
       <r>    9.9043    0.0000 </r>
       <r>   10.6429    0.0000 </r>
       <r>   10.6429    0.0000 </r>
       <r>   10.9666    0.0000 </r>
       <r>   10.9666    0.0000 </r>
       <r>   12.2832    0.0000 </r>
       <r>   12.2832    0.0000 </r>
       <r>   13.5006    0.0000 </r>
       <r>   13.5006    0.0000 </r>
       <r>   14.6925    0.0000 </r>
       <r>   14.6925    0.0000 </r>
       <r>   15.8835    0.0000 </r>
       <r>   15.8835    0.0000 </r>
       <r>   16.0263    0.0000 </r>
       <r>   16.0263    0.0000 </r>
       <r>   16.6315    0.0000 </r>
       <r>   16.6315    0.0000 </r>
      </set>
      <set comment="kpoint 50">
       <r>  -15.4076    1.0000 </r>
       <r>  -15.4076    1.0000 </r>
       <r>  -15.4017    1.0000 </r>
       <r>  -15.4017    1.0000 </r>
       <r>  -15.3898    1.0000 </r>
       <r>  -15.3898    1.0000 </r>
       <r>  -15.3872    1.0000 </r>
       <r>  -15.3872    1.0000 </r>
       <r>  -15.3826    1.0000 </r>
       <r>  -15.3826    1.0000 </r>
       <r>  -15.3661    1.0000 </r>
       <r>  -15.3661    1.0000 </r>
       <r>  -15.3548    1.0000 </r>
       <r>  -15.3548    1.0000 </r>
       <r>  -15.3358    1.0000 </r>
       <r>  -15.3358    1.0000 </r>
       <r>  -15.3346    1.0000 </r>
       <r>  -15.3346    1.0000 </r>
       <r>  -15.3123    1.0000 </r>
       <r>  -15.3123    1.0000 </r>
       <r>   -7.0925    1.0000 </r>
       <r>   -7.0925    1.0000 </r>
       <r>   -6.8045    1.0000 </r>
       <r>   -6.8045    1.0000 </r>
       <r>   -2.0838    1.0000 </r>
       <r>   -2.0838    1.0000 </r>
       <r>   -0.8603    1.0000 </r>
       <r>   -0.8603    1.0000 </r>
       <r>    1.7788    1.0000 </r>
       <r>    1.7788    1.0000 </r>
       <r>    2.0044    1.0000 </r>
       <r>    2.0044    1.0000 </r>
       <r>    2.9407    1.0000 </r>
       <r>    2.9407    1.0000 </r>
       <r>    3.6578    1.0000 </r>
       <r>    3.6578    1.0000 </r>
       <r>    4.0290    1.0000 </r>
       <r>    4.0290    1.0000 </r>
       <r>    4.8183    1.0000 </r>
       <r>    4.8183    1.0000 </r>
       <r>    7.7709    0.0000 </r>
       <r>    7.7709    0.0000 </r>
       <r>    8.7697    0.0000 </r>
       <r>    8.7697    0.0000 </r>
       <r>    9.0280    0.0000 </r>
       <r>    9.0280    0.0000 </r>
       <r>    9.9026    0.0000 </r>
       <r>    9.9026    0.0000 </r>
       <r>   10.6408    0.0000 </r>
       <r>   10.6408    0.0000 </r>
       <r>   10.9746    0.0000 </r>
       <r>   10.9746    0.0000 </r>
       <r>   12.2935    0.0000 </r>
       <r>   12.2935    0.0000 </r>
       <r>   13.4906    0.0000 </r>
       <r>   13.4906    0.0000 </r>
       <r>   14.6881    0.0000 </r>
       <r>   14.6881    0.0000 </r>
       <r>   15.8840    0.0000 </r>
       <r>   15.8840    0.0000 </r>
       <r>   16.0251    0.0000 </r>
       <r>   16.0251    0.0000 </r>
       <r>   16.6245    0.0000 </r>
       <r>   16.6245    0.0000 </r>
      </set>
      <set comment="kpoint 51">
       <r>  -15.4021    1.0000 </r>
       <r>  -15.4002    1.0000 </r>
       <r>  -15.3968    1.0000 </r>
       <r>  -15.3949    1.0000 </r>
       <r>  -15.3892    1.0000 </r>
       <r>  -15.3890    1.0000 </r>
       <r>  -15.3884    1.0000 </r>
       <r>  -15.3880    1.0000 </r>
       <r>  -15.3859    1.0000 </r>
       <r>  -15.3819    1.0000 </r>
       <r>  -15.3703    1.0000 </r>
       <r>  -15.3673    1.0000 </r>
       <r>  -15.3588    1.0000 </r>
       <r>  -15.3557    1.0000 </r>
       <r>  -15.3416    1.0000 </r>
       <r>  -15.3408    1.0000 </r>
       <r>  -15.3315    1.0000 </r>
       <r>  -15.3280    1.0000 </r>
       <r>  -15.3163    1.0000 </r>
       <r>  -15.3155    1.0000 </r>
       <r>   -7.5262    1.0000 </r>
       <r>   -7.3893    1.0000 </r>
       <r>   -6.7878    1.0000 </r>
       <r>   -6.6651    1.0000 </r>
       <r>   -2.0068    1.0000 </r>
       <r>   -1.6509    1.0000 </r>
       <r>   -1.1536    1.0000 </r>
       <r>   -0.8489    1.0000 </r>
       <r>    1.7243    1.0000 </r>
       <r>    2.6680    1.0000 </r>
       <r>    2.8484    1.0000 </r>
       <r>    3.0865    1.0000 </r>
       <r>    3.2927    1.0000 </r>
       <r>    3.7203    1.0000 </r>
       <r>    3.9667    1.0000 </r>
       <r>    4.0257    1.0000 </r>
       <r>    4.3099    1.0000 </r>
       <r>    4.5132    1.0000 </r>
       <r>    5.3061    1.0000 </r>
       <r>    5.6068    1.0000 </r>
       <r>    6.5960    0.0000 </r>
       <r>    7.1280    0.0000 </r>
       <r>    7.8370    0.0000 </r>
       <r>    7.8696    0.0000 </r>
       <r>    8.3376    0.0000 </r>
       <r>    8.5476    0.0000 </r>
       <r>    8.5566    0.0000 </r>
       <r>    9.1037    0.0000 </r>
       <r>    9.3377    0.0000 </r>
       <r>    9.9355    0.0000 </r>
       <r>   10.0544    0.0000 </r>
       <r>   10.4953    0.0000 </r>
       <r>   12.4142    0.0000 </r>
       <r>   12.7516    0.0000 </r>
       <r>   12.7550    0.0000 </r>
       <r>   13.4044    0.0000 </r>
       <r>   13.8007    0.0000 </r>
       <r>   14.1175    0.0000 </r>
       <r>   14.4941    0.0000 </r>
       <r>   15.1013    0.0000 </r>
       <r>   15.1909    0.0000 </r>
       <r>   15.4038    0.0000 </r>
       <r>   16.3737    0.0000 </r>
       <r>   16.4839    0.0000 </r>
      </set>
      <set comment="kpoint 52">
       <r>  -15.4019    1.0000 </r>
       <r>  -15.4004    1.0000 </r>
       <r>  -15.3970    1.0000 </r>
       <r>  -15.3948    1.0000 </r>
       <r>  -15.3893    1.0000 </r>
       <r>  -15.3889    1.0000 </r>
       <r>  -15.3883    1.0000 </r>
       <r>  -15.3879    1.0000 </r>
       <r>  -15.3860    1.0000 </r>
       <r>  -15.3819    1.0000 </r>
       <r>  -15.3704    1.0000 </r>
       <r>  -15.3673    1.0000 </r>
       <r>  -15.3586    1.0000 </r>
       <r>  -15.3559    1.0000 </r>
       <r>  -15.3415    1.0000 </r>
       <r>  -15.3410    1.0000 </r>
       <r>  -15.3313    1.0000 </r>
       <r>  -15.3281    1.0000 </r>
       <r>  -15.3163    1.0000 </r>
       <r>  -15.3155    1.0000 </r>
       <r>   -7.5263    1.0000 </r>
       <r>   -7.3892    1.0000 </r>
       <r>   -6.7880    1.0000 </r>
       <r>   -6.6650    1.0000 </r>
       <r>   -2.0114    1.0000 </r>
       <r>   -1.6444    1.0000 </r>
       <r>   -1.1472    1.0000 </r>
       <r>   -0.8578    1.0000 </r>
       <r>    1.7213    1.0000 </r>
       <r>    2.6718    1.0000 </r>
       <r>    2.8511    1.0000 </r>
       <r>    3.0847    1.0000 </r>
       <r>    3.2957    1.0000 </r>
       <r>    3.7194    1.0000 </r>
       <r>    3.9684    1.0000 </r>
       <r>    4.0258    1.0000 </r>
       <r>    4.3159    1.0000 </r>
       <r>    4.5007    1.0000 </r>
       <r>    5.3050    1.0000 </r>
       <r>    5.6060    1.0000 </r>
       <r>    6.6065    0.0000 </r>
       <r>    7.1213    0.0000 </r>
       <r>    7.8349    0.0000 </r>
       <r>    7.8687    0.0000 </r>
       <r>    8.3307    0.0000 </r>
       <r>    8.5492    0.0000 </r>
       <r>    8.5655    0.0000 </r>
       <r>    9.0976    0.0000 </r>
       <r>    9.3333    0.0000 </r>
       <r>    9.9509    0.0000 </r>
       <r>   10.0687    0.0000 </r>
       <r>   10.4741    0.0000 </r>
       <r>   12.4104    0.0000 </r>
       <r>   12.7581    0.0000 </r>
       <r>   12.7587    0.0000 </r>
       <r>   13.4054    0.0000 </r>
       <r>   13.7972    0.0000 </r>
       <r>   14.1154    0.0000 </r>
       <r>   14.4893    0.0000 </r>
       <r>   15.0994    0.0000 </r>
       <r>   15.1846    0.0000 </r>
       <r>   15.4210    0.0000 </r>
       <r>   16.3679    0.0000 </r>
       <r>   16.4845    0.0000 </r>
      </set>
      <set comment="kpoint 53">
       <r>  -15.4045    1.0000 </r>
       <r>  -15.4017    1.0000 </r>
       <r>  -15.3992    1.0000 </r>
       <r>  -15.3966    1.0000 </r>
       <r>  -15.3899    1.0000 </r>
       <r>  -15.3887    1.0000 </r>
       <r>  -15.3869    1.0000 </r>
       <r>  -15.3863    1.0000 </r>
       <r>  -15.3851    1.0000 </r>
       <r>  -15.3813    1.0000 </r>
       <r>  -15.3699    1.0000 </r>
       <r>  -15.3670    1.0000 </r>
       <r>  -15.3579    1.0000 </r>
       <r>  -15.3549    1.0000 </r>
       <r>  -15.3412    1.0000 </r>
       <r>  -15.3404    1.0000 </r>
       <r>  -15.3316    1.0000 </r>
       <r>  -15.3283    1.0000 </r>
       <r>  -15.3162    1.0000 </r>
       <r>  -15.3154    1.0000 </r>
       <r>   -7.4646    1.0000 </r>
       <r>   -7.3319    1.0000 </r>
       <r>   -6.7659    1.0000 </r>
       <r>   -6.6487    1.0000 </r>
       <r>   -1.9540    1.0000 </r>
       <r>   -1.5799    1.0000 </r>
       <r>   -1.1057    1.0000 </r>
       <r>   -0.8526    1.0000 </r>
       <r>    1.7135    1.0000 </r>
       <r>    1.9084    1.0000 </r>
       <r>    2.3665    1.0000 </r>
       <r>    2.8200    1.0000 </r>
       <r>    3.1526    1.0000 </r>
       <r>    3.4080    1.0000 </r>
       <r>    3.8719    1.0000 </r>
       <r>    4.2294    1.0000 </r>
       <r>    4.6048    1.0000 </r>
       <r>    4.6561    1.0000 </r>
       <r>    5.0636    1.0000 </r>
       <r>    5.1914    1.0000 </r>
       <r>    7.1364    0.0000 </r>
       <r>    7.2072    0.0000 </r>
       <r>    7.5583    0.0000 </r>
       <r>    7.7767    0.0000 </r>
       <r>    8.5197    0.0000 </r>
       <r>    8.8074    0.0000 </r>
       <r>    8.9413    0.0000 </r>
       <r>    9.3694    0.0000 </r>
       <r>    9.7478    0.0000 </r>
       <r>   10.2067    0.0000 </r>
       <r>   10.5365    0.0000 </r>
       <r>   10.7531    0.0000 </r>
       <r>   12.2649    0.0000 </r>
       <r>   12.8876    0.0000 </r>
       <r>   13.1854    0.0000 </r>
       <r>   13.5433    0.0000 </r>
       <r>   13.8604    0.0000 </r>
       <r>   13.8965    0.0000 </r>
       <r>   14.2885    0.0000 </r>
       <r>   14.9478    0.0000 </r>
       <r>   15.3003    0.0000 </r>
       <r>   15.4547    0.0000 </r>
       <r>   16.5072    0.0000 </r>
       <r>   16.6890    0.0000 </r>
      </set>
      <set comment="kpoint 54">
       <r>  -15.4044    1.0000 </r>
       <r>  -15.4018    1.0000 </r>
       <r>  -15.3993    1.0000 </r>
       <r>  -15.3965    1.0000 </r>
       <r>  -15.3900    1.0000 </r>
       <r>  -15.3886    1.0000 </r>
       <r>  -15.3869    1.0000 </r>
       <r>  -15.3863    1.0000 </r>
       <r>  -15.3850    1.0000 </r>
       <r>  -15.3813    1.0000 </r>
       <r>  -15.3701    1.0000 </r>
       <r>  -15.3670    1.0000 </r>
       <r>  -15.3577    1.0000 </r>
       <r>  -15.3551    1.0000 </r>
       <r>  -15.3411    1.0000 </r>
       <r>  -15.3406    1.0000 </r>
       <r>  -15.3314    1.0000 </r>
       <r>  -15.3285    1.0000 </r>
       <r>  -15.3161    1.0000 </r>
       <r>  -15.3154    1.0000 </r>
       <r>   -7.4647    1.0000 </r>
       <r>   -7.3317    1.0000 </r>
       <r>   -6.7661    1.0000 </r>
       <r>   -6.6486    1.0000 </r>
       <r>   -1.9585    1.0000 </r>
       <r>   -1.5728    1.0000 </r>
       <r>   -1.0996    1.0000 </r>
       <r>   -0.8618    1.0000 </r>
       <r>    1.7109    1.0000 </r>
       <r>    1.9097    1.0000 </r>
       <r>    2.3655    1.0000 </r>
       <r>    2.8253    1.0000 </r>
       <r>    3.1511    1.0000 </r>
       <r>    3.4088    1.0000 </r>
       <r>    3.8737    1.0000 </r>
       <r>    4.2289    1.0000 </r>
       <r>    4.6020    1.0000 </r>
       <r>    4.6578    1.0000 </r>
       <r>    5.0667    1.0000 </r>
       <r>    5.1848    1.0000 </r>
       <r>    7.1392    0.0000 </r>
       <r>    7.2113    0.0000 </r>
       <r>    7.5601    0.0000 </r>
       <r>    7.7700    0.0000 </r>
       <r>    8.5167    0.0000 </r>
       <r>    8.8068    0.0000 </r>
       <r>    8.9365    0.0000 </r>
       <r>    9.3691    0.0000 </r>
       <r>    9.7580    0.0000 </r>
       <r>   10.2070    0.0000 </r>
       <r>   10.5363    0.0000 </r>
       <r>   10.7523    0.0000 </r>
       <r>   12.2603    0.0000 </r>
       <r>   12.8876    0.0000 </r>
       <r>   13.1925    0.0000 </r>
       <r>   13.5470    0.0000 </r>
       <r>   13.8604    0.0000 </r>
       <r>   13.8993    0.0000 </r>
       <r>   14.2873    0.0000 </r>
       <r>   14.9382    0.0000 </r>
       <r>   15.3048    0.0000 </r>
       <r>   15.4453    0.0000 </r>
       <r>   16.5040    0.0000 </r>
       <r>   16.6848    0.0000 </r>
      </set>
      <set comment="kpoint 55">
       <r>  -15.4094    1.0000 </r>
       <r>  -15.4063    1.0000 </r>
       <r>  -15.4034    1.0000 </r>
       <r>  -15.4009    1.0000 </r>
       <r>  -15.3904    1.0000 </r>
       <r>  -15.3889    1.0000 </r>
       <r>  -15.3841    1.0000 </r>
       <r>  -15.3838    1.0000 </r>
       <r>  -15.3829    1.0000 </r>
       <r>  -15.3801    1.0000 </r>
       <r>  -15.3692    1.0000 </r>
       <r>  -15.3666    1.0000 </r>
       <r>  -15.3551    1.0000 </r>
       <r>  -15.3528    1.0000 </r>
       <r>  -15.3402    1.0000 </r>
       <r>  -15.3395    1.0000 </r>
       <r>  -15.3316    1.0000 </r>
       <r>  -15.3290    1.0000 </r>
       <r>  -15.3157    1.0000 </r>
       <r>  -15.3151    1.0000 </r>
       <r>   -7.2967    1.0000 </r>
       <r>   -7.1766    1.0000 </r>
       <r>   -6.7233    1.0000 </r>
       <r>   -6.6205    1.0000 </r>
       <r>   -1.8415    1.0000 </r>
       <r>   -1.4485    1.0000 </r>
       <r>   -0.9799    1.0000 </r>
       <r>   -0.8576    1.0000 </r>
       <r>    1.1571    1.0000 </r>
       <r>    1.3673    1.0000 </r>
       <r>    2.1128    1.0000 </r>
       <r>    2.2372    1.0000 </r>
       <r>    2.4269    1.0000 </r>
       <r>    3.1034    1.0000 </r>
       <r>    3.6073    1.0000 </r>
       <r>    3.8477    1.0000 </r>
       <r>    3.9744    1.0000 </r>
       <r>    4.2974    1.0000 </r>
       <r>    4.7935    1.0000 </r>
       <r>    5.2173    1.0000 </r>
       <r>    7.3092    0.0000 </r>
       <r>    7.8831    0.0000 </r>
       <r>    8.2283    0.0000 </r>
       <r>    8.4201    0.0000 </r>
       <r>    8.7661    0.0000 </r>
       <r>    8.9568    0.0000 </r>
       <r>    9.7453    0.0000 </r>
       <r>   10.0040    0.0000 </r>
       <r>   10.1997    0.0000 </r>
       <r>   10.4770    0.0000 </r>
       <r>   11.4366    0.0000 </r>
       <r>   11.6640    0.0000 </r>
       <r>   12.1618    0.0000 </r>
       <r>   12.6577    0.0000 </r>
       <r>   13.3274    0.0000 </r>
       <r>   13.9518    0.0000 </r>
       <r>   14.1914    0.0000 </r>
       <r>   14.3009    0.0000 </r>
       <r>   14.6408    0.0000 </r>
       <r>   14.8891    0.0000 </r>
       <r>   15.4094    0.0000 </r>
       <r>   16.0074    0.0000 </r>
       <r>   16.1446    0.0000 </r>
       <r>   16.5300    0.0000 </r>
      </set>
      <set comment="kpoint 56">
       <r>  -15.4093    1.0000 </r>
       <r>  -15.4063    1.0000 </r>
       <r>  -15.4035    1.0000 </r>
       <r>  -15.4009    1.0000 </r>
       <r>  -15.3904    1.0000 </r>
       <r>  -15.3890    1.0000 </r>
       <r>  -15.3843    1.0000 </r>
       <r>  -15.3838    1.0000 </r>
       <r>  -15.3826    1.0000 </r>
       <r>  -15.3801    1.0000 </r>
       <r>  -15.3693    1.0000 </r>
       <r>  -15.3665    1.0000 </r>
       <r>  -15.3550    1.0000 </r>
       <r>  -15.3529    1.0000 </r>
       <r>  -15.3402    1.0000 </r>
       <r>  -15.3396    1.0000 </r>
       <r>  -15.3314    1.0000 </r>
       <r>  -15.3291    1.0000 </r>
       <r>  -15.3157    1.0000 </r>
       <r>  -15.3152    1.0000 </r>
       <r>   -7.2969    1.0000 </r>
       <r>   -7.1763    1.0000 </r>
       <r>   -6.7236    1.0000 </r>
       <r>   -6.6203    1.0000 </r>
       <r>   -1.8453    1.0000 </r>
       <r>   -1.4411    1.0000 </r>
       <r>   -0.9780    1.0000 </r>
       <r>   -0.8632    1.0000 </r>
       <r>    1.1572    1.0000 </r>
       <r>    1.3679    1.0000 </r>
       <r>    2.1105    1.0000 </r>
       <r>    2.2390    1.0000 </r>
       <r>    2.4231    1.0000 </r>
       <r>    3.1060    1.0000 </r>
       <r>    3.6057    1.0000 </r>
       <r>    3.8538    1.0000 </r>
       <r>    3.9732    1.0000 </r>
       <r>    4.2968    1.0000 </r>
       <r>    4.7973    1.0000 </r>
       <r>    5.2139    1.0000 </r>
       <r>    7.3030    0.0000 </r>
       <r>    7.8858    0.0000 </r>
       <r>    8.2301    0.0000 </r>
       <r>    8.4276    0.0000 </r>
       <r>    8.7628    0.0000 </r>
       <r>    8.9448    0.0000 </r>
       <r>    9.7386    0.0000 </r>
       <r>   10.0110    0.0000 </r>
       <r>   10.2015    0.0000 </r>
       <r>   10.4852    0.0000 </r>
       <r>   11.4357    0.0000 </r>
       <r>   11.6658    0.0000 </r>
       <r>   12.1621    0.0000 </r>
       <r>   12.6599    0.0000 </r>
       <r>   13.3289    0.0000 </r>
       <r>   13.9446    0.0000 </r>
       <r>   14.1924    0.0000 </r>
       <r>   14.2979    0.0000 </r>
       <r>   14.6441    0.0000 </r>
       <r>   14.8906    0.0000 </r>
       <r>   15.4083    0.0000 </r>
       <r>   16.0044    0.0000 </r>
       <r>   16.1457    0.0000 </r>
       <r>   16.5247    0.0000 </r>
      </set>
      <set comment="kpoint 57">
       <r>  -15.4135    1.0000 </r>
       <r>  -15.4116    1.0000 </r>
       <r>  -15.4069    1.0000 </r>
       <r>  -15.4055    1.0000 </r>
       <r>  -15.3904    1.0000 </r>
       <r>  -15.3895    1.0000 </r>
       <r>  -15.3821    1.0000 </r>
       <r>  -15.3818    1.0000 </r>
       <r>  -15.3808    1.0000 </r>
       <r>  -15.3795    1.0000 </r>
       <r>  -15.3682    1.0000 </r>
       <r>  -15.3665    1.0000 </r>
       <r>  -15.3517    1.0000 </r>
       <r>  -15.3505    1.0000 </r>
       <r>  -15.3389    1.0000 </r>
       <r>  -15.3384    1.0000 </r>
       <r>  -15.3312    1.0000 </r>
       <r>  -15.3297    1.0000 </r>
       <r>  -15.3152    1.0000 </r>
       <r>  -15.3149    1.0000 </r>
       <r>   -7.0763    1.0000 </r>
       <r>   -6.9802    1.0000 </r>
       <r>   -6.7139    1.0000 </r>
       <r>   -6.6310    1.0000 </r>
       <r>   -1.7621    1.0000 </r>
       <r>   -1.5100    1.0000 </r>
       <r>   -0.7909    1.0000 </r>
       <r>   -0.7665    1.0000 </r>
       <r>    0.8592    1.0000 </r>
       <r>    1.0939    1.0000 </r>
       <r>    1.6587    1.0000 </r>
       <r>    1.8942    1.0000 </r>
       <r>    2.1992    1.0000 </r>
       <r>    2.6231    1.0000 </r>
       <r>    2.8437    1.0000 </r>
       <r>    3.4502    1.0000 </r>
       <r>    3.7081    1.0000 </r>
       <r>    4.0698    1.0000 </r>
       <r>    4.4438    1.0000 </r>
       <r>    4.7817    1.0000 </r>
       <r>    7.6098    0.0000 </r>
       <r>    8.2494    0.0000 </r>
       <r>    8.8530    0.0000 </r>
       <r>    9.0653    0.0000 </r>
       <r>    9.1565    0.0000 </r>
       <r>    9.5630    0.0000 </r>
       <r>   10.5486    0.0000 </r>
       <r>   10.6303    0.0000 </r>
       <r>   10.7480    0.0000 </r>
       <r>   10.9133    0.0000 </r>
       <r>   11.9171    0.0000 </r>
       <r>   11.9911    0.0000 </r>
       <r>   12.1308    0.0000 </r>
       <r>   12.3555    0.0000 </r>
       <r>   13.1494    0.0000 </r>
       <r>   13.4863    0.0000 </r>
       <r>   14.9841    0.0000 </r>
       <r>   15.3663    0.0000 </r>
       <r>   15.5153    0.0000 </r>
       <r>   15.5396    0.0000 </r>
       <r>   16.0145    0.0000 </r>
       <r>   16.1822    0.0000 </r>
       <r>   16.4164    0.0000 </r>
       <r>   16.7563    0.0000 </r>
      </set>
      <set comment="kpoint 58">
       <r>  -15.4134    1.0000 </r>
       <r>  -15.4116    1.0000 </r>
       <r>  -15.4069    1.0000 </r>
       <r>  -15.4055    1.0000 </r>
       <r>  -15.3905    1.0000 </r>
       <r>  -15.3895    1.0000 </r>
       <r>  -15.3825    1.0000 </r>
       <r>  -15.3819    1.0000 </r>
       <r>  -15.3804    1.0000 </r>
       <r>  -15.3794    1.0000 </r>
       <r>  -15.3682    1.0000 </r>
       <r>  -15.3664    1.0000 </r>
       <r>  -15.3516    1.0000 </r>
       <r>  -15.3506    1.0000 </r>
       <r>  -15.3389    1.0000 </r>
       <r>  -15.3385    1.0000 </r>
       <r>  -15.3311    1.0000 </r>
       <r>  -15.3297    1.0000 </r>
       <r>  -15.3152    1.0000 </r>
       <r>  -15.3149    1.0000 </r>
       <r>   -7.0765    1.0000 </r>
       <r>   -6.9799    1.0000 </r>
       <r>   -6.7142    1.0000 </r>
       <r>   -6.6307    1.0000 </r>
       <r>   -1.7642    1.0000 </r>
       <r>   -1.5078    1.0000 </r>
       <r>   -0.7933    1.0000 </r>
       <r>   -0.7636    1.0000 </r>
       <r>    0.8622    1.0000 </r>
       <r>    1.0906    1.0000 </r>
       <r>    1.6607    1.0000 </r>
       <r>    1.8907    1.0000 </r>
       <r>    2.1951    1.0000 </r>
       <r>    2.6246    1.0000 </r>
       <r>    2.8397    1.0000 </r>
       <r>    3.4568    1.0000 </r>
       <r>    3.7107    1.0000 </r>
       <r>    4.0696    1.0000 </r>
       <r>    4.4459    1.0000 </r>
       <r>    4.7820    1.0000 </r>
       <r>    7.6009    0.0000 </r>
       <r>    8.2396    0.0000 </r>
       <r>    8.8626    0.0000 </r>
       <r>    9.0707    0.0000 </r>
       <r>    9.1563    0.0000 </r>
       <r>    9.5584    0.0000 </r>
       <r>   10.5462    0.0000 </r>
       <r>   10.6353    0.0000 </r>
       <r>   10.7481    0.0000 </r>
       <r>   10.9164    0.0000 </r>
       <r>   11.9229    0.0000 </r>
       <r>   11.9935    0.0000 </r>
       <r>   12.1309    0.0000 </r>
       <r>   12.3576    0.0000 </r>
       <r>   13.1444    0.0000 </r>
       <r>   13.4795    0.0000 </r>
       <r>   14.9821    0.0000 </r>
       <r>   15.3626    0.0000 </r>
       <r>   15.5213    0.0000 </r>
       <r>   15.5351    0.0000 </r>
       <r>   16.0152    0.0000 </r>
       <r>   16.1809    0.0000 </r>
       <r>   16.4174    0.0000 </r>
       <r>   16.7554    0.0000 </r>
      </set>
      <set comment="kpoint 59">
       <r>  -15.4144    1.0000 </r>
       <r>  -15.4144    1.0000 </r>
       <r>  -15.4078    1.0000 </r>
       <r>  -15.4078    1.0000 </r>
       <r>  -15.3901    1.0000 </r>
       <r>  -15.3901    1.0000 </r>
       <r>  -15.3813    1.0000 </r>
       <r>  -15.3813    1.0000 </r>
       <r>  -15.3796    1.0000 </r>
       <r>  -15.3796    1.0000 </r>
       <r>  -15.3671    1.0000 </r>
       <r>  -15.3671    1.0000 </r>
       <r>  -15.3499    1.0000 </r>
       <r>  -15.3499    1.0000 </r>
       <r>  -15.3382    1.0000 </r>
       <r>  -15.3382    1.0000 </r>
       <r>  -15.3304    1.0000 </r>
       <r>  -15.3304    1.0000 </r>
       <r>  -15.3149    1.0000 </r>
       <r>  -15.3149    1.0000 </r>
       <r>   -6.9055    1.0000 </r>
       <r>   -6.9055    1.0000 </r>
       <r>   -6.7055    1.0000 </r>
       <r>   -6.7055    1.0000 </r>
       <r>   -1.6760    1.0000 </r>
       <r>   -1.6760    1.0000 </r>
       <r>   -0.6896    1.0000 </r>
       <r>   -0.6896    1.0000 </r>
       <r>    1.0732    1.0000 </r>
       <r>    1.0732    1.0000 </r>
       <r>    1.3561    1.0000 </r>
       <r>    1.3561    1.0000 </r>
       <r>    2.3287    1.0000 </r>
       <r>    2.3287    1.0000 </r>
       <r>    2.9335    1.0000 </r>
       <r>    2.9335    1.0000 </r>
       <r>    3.7739    1.0000 </r>
       <r>    3.7739    1.0000 </r>
       <r>    4.5073    1.0000 </r>
       <r>    4.5073    1.0000 </r>
       <r>    7.8648    0.0000 </r>
       <r>    7.8648    0.0000 </r>
       <r>    9.1473    0.0000 </r>
       <r>    9.1473    0.0000 </r>
       <r>   10.1070    0.0000 </r>
       <r>   10.1070    0.0000 </r>
       <r>   10.3249    0.0000 </r>
       <r>   10.3249    0.0000 </r>
       <r>   11.4597    0.0000 </r>
       <r>   11.4597    0.0000 </r>
       <r>   11.8564    0.0000 </r>
       <r>   11.8564    0.0000 </r>
       <r>   12.2756    0.0000 </r>
       <r>   12.2756    0.0000 </r>
       <r>   13.2063    0.0000 </r>
       <r>   13.2063    0.0000 </r>
       <r>   15.1187    0.0000 </r>
       <r>   15.1187    0.0000 </r>
       <r>   16.3765    0.0000 </r>
       <r>   16.3765    0.0000 </r>
       <r>   16.6371    0.0000 </r>
       <r>   16.6371    0.0000 </r>
       <r>   17.1885    0.0000 </r>
       <r>   17.1885    0.0000 </r>
      </set>
      <set comment="kpoint 60">
       <r>  -15.4144    1.0000 </r>
       <r>  -15.4144    1.0000 </r>
       <r>  -15.4079    1.0000 </r>
       <r>  -15.4079    1.0000 </r>
       <r>  -15.3901    1.0000 </r>
       <r>  -15.3901    1.0000 </r>
       <r>  -15.3815    1.0000 </r>
       <r>  -15.3815    1.0000 </r>
       <r>  -15.3794    1.0000 </r>
       <r>  -15.3794    1.0000 </r>
       <r>  -15.3671    1.0000 </r>
       <r>  -15.3671    1.0000 </r>
       <r>  -15.3499    1.0000 </r>
       <r>  -15.3499    1.0000 </r>
       <r>  -15.3382    1.0000 </r>
       <r>  -15.3382    1.0000 </r>
       <r>  -15.3304    1.0000 </r>
       <r>  -15.3304    1.0000 </r>
       <r>  -15.3149    1.0000 </r>
       <r>  -15.3149    1.0000 </r>
       <r>   -6.9056    1.0000 </r>
       <r>   -6.9056    1.0000 </r>
       <r>   -6.7055    1.0000 </r>
       <r>   -6.7055    1.0000 </r>
       <r>   -1.6765    1.0000 </r>
       <r>   -1.6765    1.0000 </r>
       <r>   -0.6885    1.0000 </r>
       <r>   -0.6885    1.0000 </r>
       <r>    1.0765    1.0000 </r>
       <r>    1.0765    1.0000 </r>
       <r>    1.3519    1.0000 </r>
       <r>    1.3519    1.0000 </r>
       <r>    2.3239    1.0000 </r>
       <r>    2.3239    1.0000 </r>
       <r>    2.9378    1.0000 </r>
       <r>    2.9378    1.0000 </r>
       <r>    3.7748    1.0000 </r>
       <r>    3.7748    1.0000 </r>
       <r>    4.5097    1.0000 </r>
       <r>    4.5097    1.0000 </r>
       <r>    7.8541    0.0000 </r>
       <r>    7.8541    0.0000 </r>
       <r>    9.1575    0.0000 </r>
       <r>    9.1575    0.0000 </r>
       <r>   10.1059    0.0000 </r>
       <r>   10.1059    0.0000 </r>
       <r>   10.3213    0.0000 </r>
       <r>   10.3213    0.0000 </r>
       <r>   11.4663    0.0000 </r>
       <r>   11.4663    0.0000 </r>
       <r>   11.8569    0.0000 </r>
       <r>   11.8569    0.0000 </r>
       <r>   12.2767    0.0000 </r>
       <r>   12.2767    0.0000 </r>
       <r>   13.2021    0.0000 </r>
       <r>   13.2021    0.0000 </r>
       <r>   15.1143    0.0000 </r>
       <r>   15.1143    0.0000 </r>
       <r>   16.3769    0.0000 </r>
       <r>   16.3769    0.0000 </r>
       <r>   16.6365    0.0000 </r>
       <r>   16.6365    0.0000 </r>
       <r>   17.1880    0.0000 </r>
       <r>   17.1880    0.0000 </r>
      </set>
      <set comment="kpoint 61">
       <r>  -15.4034    1.0000 </r>
       <r>  -15.4015    1.0000 </r>
       <r>  -15.4006    1.0000 </r>
       <r>  -15.3987    1.0000 </r>
       <r>  -15.3889    1.0000 </r>
       <r>  -15.3884    1.0000 </r>
       <r>  -15.3881    1.0000 </r>
       <r>  -15.3867    1.0000 </r>
       <r>  -15.3775    1.0000 </r>
       <r>  -15.3744    1.0000 </r>
       <r>  -15.3705    1.0000 </r>
       <r>  -15.3702    1.0000 </r>
       <r>  -15.3538    1.0000 </r>
       <r>  -15.3514    1.0000 </r>
       <r>  -15.3476    1.0000 </r>
       <r>  -15.3467    1.0000 </r>
       <r>  -15.3256    1.0000 </r>
       <r>  -15.3232    1.0000 </r>
       <r>  -15.3200    1.0000 </r>
       <r>  -15.3191    1.0000 </r>
       <r>   -7.1733    1.0000 </r>
       <r>   -7.0956    1.0000 </r>
       <r>   -6.8725    1.0000 </r>
       <r>   -6.8589    1.0000 </r>
       <r>   -2.0592    1.0000 </r>
       <r>   -1.7662    1.0000 </r>
       <r>   -1.7010    1.0000 </r>
       <r>   -1.4042    1.0000 </r>
       <r>    2.2419    1.0000 </r>
       <r>    2.7948    1.0000 </r>
       <r>    3.1687    1.0000 </r>
       <r>    3.4229    1.0000 </r>
       <r>    3.4243    1.0000 </r>
       <r>    3.8382    1.0000 </r>
       <r>    3.8521    1.0000 </r>
       <r>    3.8891    1.0000 </r>
       <r>    4.5628    1.0000 </r>
       <r>    4.7344    1.0000 </r>
       <r>    5.1096    1.0000 </r>
       <r>    5.2367    1.0000 </r>
       <r>    6.8326    0.0000 </r>
       <r>    7.0369    0.0000 </r>
       <r>    7.3333    0.0000 </r>
       <r>    7.5348    0.0000 </r>
       <r>    7.8303    0.0000 </r>
       <r>    8.0230    0.0000 </r>
       <r>    8.0236    0.0000 </r>
       <r>    8.3566    0.0000 </r>
       <r>    8.9700    0.0000 </r>
       <r>    9.3724    0.0000 </r>
       <r>   10.1969    0.0000 </r>
       <r>   10.3828    0.0000 </r>
       <r>   13.2141    0.0000 </r>
       <r>   13.5574    0.0000 </r>
       <r>   13.9515    0.0000 </r>
       <r>   14.0048    0.0000 </r>
       <r>   14.4513    0.0000 </r>
       <r>   14.5304    0.0000 </r>
       <r>   14.7278    0.0000 </r>
       <r>   15.1507    0.0000 </r>
       <r>   15.7867    0.0000 </r>
       <r>   15.8073    0.0000 </r>
       <r>   16.0357    0.0000 </r>
       <r>   16.3302    0.0000 </r>
      </set>
      <set comment="kpoint 62">
       <r>  -15.4033    1.0000 </r>
       <r>  -15.4016    1.0000 </r>
       <r>  -15.4008    1.0000 </r>
       <r>  -15.3986    1.0000 </r>
       <r>  -15.3891    1.0000 </r>
       <r>  -15.3883    1.0000 </r>
       <r>  -15.3879    1.0000 </r>
       <r>  -15.3868    1.0000 </r>
       <r>  -15.3775    1.0000 </r>
       <r>  -15.3744    1.0000 </r>
       <r>  -15.3706    1.0000 </r>
       <r>  -15.3702    1.0000 </r>
       <r>  -15.3537    1.0000 </r>
       <r>  -15.3516    1.0000 </r>
       <r>  -15.3477    1.0000 </r>
       <r>  -15.3466    1.0000 </r>
       <r>  -15.3256    1.0000 </r>
       <r>  -15.3233    1.0000 </r>
       <r>  -15.3200    1.0000 </r>
       <r>  -15.3190    1.0000 </r>
       <r>   -7.1734    1.0000 </r>
       <r>   -7.0955    1.0000 </r>
       <r>   -6.8727    1.0000 </r>
       <r>   -6.8588    1.0000 </r>
       <r>   -2.0644    1.0000 </r>
       <r>   -1.7604    1.0000 </r>
       <r>   -1.6943    1.0000 </r>
       <r>   -1.4116    1.0000 </r>
       <r>    2.2373    1.0000 </r>
       <r>    2.8012    1.0000 </r>
       <r>    3.1743    1.0000 </r>
       <r>    3.4198    1.0000 </r>
       <r>    3.4221    1.0000 </r>
       <r>    3.8381    1.0000 </r>
       <r>    3.8517    1.0000 </r>
       <r>    3.8894    1.0000 </r>
       <r>    4.5539    1.0000 </r>
       <r>    4.7388    1.0000 </r>
       <r>    5.1153    1.0000 </r>
       <r>    5.2340    1.0000 </r>
       <r>    6.8289    0.0000 </r>
       <r>    7.0391    0.0000 </r>
       <r>    7.3336    0.0000 </r>
       <r>    7.5342    0.0000 </r>
       <r>    7.8323    0.0000 </r>
       <r>    8.0210    0.0000 </r>
       <r>    8.0302    0.0000 </r>
       <r>    8.3510    0.0000 </r>
       <r>    8.9573    0.0000 </r>
       <r>    9.3879    0.0000 </r>
       <r>   10.2123    0.0000 </r>
       <r>   10.3646    0.0000 </r>
       <r>   13.2167    0.0000 </r>
       <r>   13.5530    0.0000 </r>
       <r>   13.9534    0.0000 </r>
       <r>   14.0022    0.0000 </r>
       <r>   14.4501    0.0000 </r>
       <r>   14.5346    0.0000 </r>
       <r>   14.7304    0.0000 </r>
       <r>   15.1526    0.0000 </r>
       <r>   15.7863    0.0000 </r>
       <r>   15.7986    0.0000 </r>
       <r>   16.0450    0.0000 </r>
       <r>   16.3220    0.0000 </r>
      </set>
      <set comment="kpoint 63">
       <r>  -15.4060    1.0000 </r>
       <r>  -15.4042    1.0000 </r>
       <r>  -15.4024    1.0000 </r>
       <r>  -15.4007    1.0000 </r>
       <r>  -15.3889    1.0000 </r>
       <r>  -15.3884    1.0000 </r>
       <r>  -15.3867    1.0000 </r>
       <r>  -15.3861    1.0000 </r>
       <r>  -15.3766    1.0000 </r>
       <r>  -15.3741    1.0000 </r>
       <r>  -15.3703    1.0000 </r>
       <r>  -15.3699    1.0000 </r>
       <r>  -15.3529    1.0000 </r>
       <r>  -15.3508    1.0000 </r>
       <r>  -15.3467    1.0000 </r>
       <r>  -15.3459    1.0000 </r>
       <r>  -15.3257    1.0000 </r>
       <r>  -15.3235    1.0000 </r>
       <r>  -15.3198    1.0000 </r>
       <r>  -15.3190    1.0000 </r>
       <r>   -7.1238    1.0000 </r>
       <r>   -7.0496    1.0000 </r>
       <r>   -6.8402    1.0000 </r>
       <r>   -6.8261    1.0000 </r>
       <r>   -1.9642    1.0000 </r>
       <r>   -1.6826    1.0000 </r>
       <r>   -1.6069    1.0000 </r>
       <r>   -1.3422    1.0000 </r>
       <r>    2.1561    1.0000 </r>
       <r>    2.2960    1.0000 </r>
       <r>    2.6108    1.0000 </r>
       <r>    2.8734    1.0000 </r>
       <r>    3.0457    1.0000 </r>
       <r>    3.4541    1.0000 </r>
       <r>    3.6399    1.0000 </r>
       <r>    4.0225    1.0000 </r>
       <r>    4.4394    1.0000 </r>
       <r>    4.7288    1.0000 </r>
       <r>    4.7619    1.0000 </r>
       <r>    5.0328    1.0000 </r>
       <r>    7.1136    0.0000 </r>
       <r>    7.1700    0.0000 </r>
       <r>    7.3387    0.0000 </r>
       <r>    7.6067    0.0000 </r>
       <r>    8.4300    0.0000 </r>
       <r>    8.6955    0.0000 </r>
       <r>    8.8607    0.0000 </r>
       <r>    9.2362    0.0000 </r>
       <r>    9.3243    0.0000 </r>
       <r>    9.9266    0.0000 </r>
       <r>   10.1985    0.0000 </r>
       <r>   10.3019    0.0000 </r>
       <r>   12.4573    0.0000 </r>
       <r>   12.8354    0.0000 </r>
       <r>   13.8554    0.0000 </r>
       <r>   14.2626    0.0000 </r>
       <r>   14.6515    0.0000 </r>
       <r>   14.8506    0.0000 </r>
       <r>   14.9587    0.0000 </r>
       <r>   15.5097    0.0000 </r>
       <r>   15.9005    0.0000 </r>
       <r>   16.0101    0.0000 </r>
       <r>   16.4991    0.0000 </r>
       <r>   16.8093    0.0000 </r>
      </set>
      <set comment="kpoint 64">
       <r>  -15.4058    1.0000 </r>
       <r>  -15.4042    1.0000 </r>
       <r>  -15.4025    1.0000 </r>
       <r>  -15.4007    1.0000 </r>
       <r>  -15.3888    1.0000 </r>
       <r>  -15.3886    1.0000 </r>
       <r>  -15.3866    1.0000 </r>
       <r>  -15.3861    1.0000 </r>
       <r>  -15.3767    1.0000 </r>
       <r>  -15.3740    1.0000 </r>
       <r>  -15.3704    1.0000 </r>
       <r>  -15.3698    1.0000 </r>
       <r>  -15.3528    1.0000 </r>
       <r>  -15.3509    1.0000 </r>
       <r>  -15.3468    1.0000 </r>
       <r>  -15.3458    1.0000 </r>
       <r>  -15.3256    1.0000 </r>
       <r>  -15.3235    1.0000 </r>
       <r>  -15.3198    1.0000 </r>
       <r>  -15.3190    1.0000 </r>
       <r>   -7.1239    1.0000 </r>
       <r>   -7.0494    1.0000 </r>
       <r>   -6.8404    1.0000 </r>
       <r>   -6.8260    1.0000 </r>
       <r>   -1.9694    1.0000 </r>
       <r>   -1.6764    1.0000 </r>
       <r>   -1.6000    1.0000 </r>
       <r>   -1.3502    1.0000 </r>
       <r>    2.1523    1.0000 </r>
       <r>    2.2986    1.0000 </r>
       <r>    2.6126    1.0000 </r>
       <r>    2.8710    1.0000 </r>
       <r>    3.0474    1.0000 </r>
       <r>    3.4570    1.0000 </r>
       <r>    3.6406    1.0000 </r>
       <r>    4.0203    1.0000 </r>
       <r>    4.4357    1.0000 </r>
       <r>    4.7323    1.0000 </r>
       <r>    4.7650    1.0000 </r>
       <r>    5.0276    1.0000 </r>
       <r>    7.1104    0.0000 </r>
       <r>    7.1774    0.0000 </r>
       <r>    7.3427    0.0000 </r>
       <r>    7.6004    0.0000 </r>
       <r>    8.4247    0.0000 </r>
       <r>    8.6913    0.0000 </r>
       <r>    8.8659    0.0000 </r>
       <r>    9.2461    0.0000 </r>
       <r>    9.3170    0.0000 </r>
       <r>    9.9270    0.0000 </r>
       <r>   10.2140    0.0000 </r>
       <r>   10.2875    0.0000 </r>
       <r>   12.4533    0.0000 </r>
       <r>   12.8392    0.0000 </r>
       <r>   13.8599    0.0000 </r>
       <r>   14.2605    0.0000 </r>
       <r>   14.6471    0.0000 </r>
       <r>   14.8535    0.0000 </r>
       <r>   14.9593    0.0000 </r>
       <r>   15.5096    0.0000 </r>
       <r>   15.8989    0.0000 </r>
       <r>   16.0128    0.0000 </r>
       <r>   16.4955    0.0000 </r>
       <r>   16.8070    0.0000 </r>
      </set>
      <set comment="kpoint 65">
       <r>  -15.4116    1.0000 </r>
       <r>  -15.4101    1.0000 </r>
       <r>  -15.4069    1.0000 </r>
       <r>  -15.4056    1.0000 </r>
       <r>  -15.3888    1.0000 </r>
       <r>  -15.3880    1.0000 </r>
       <r>  -15.3850    1.0000 </r>
       <r>  -15.3846    1.0000 </r>
       <r>  -15.3749    1.0000 </r>
       <r>  -15.3732    1.0000 </r>
       <r>  -15.3697    1.0000 </r>
       <r>  -15.3691    1.0000 </r>
       <r>  -15.3503    1.0000 </r>
       <r>  -15.3490    1.0000 </r>
       <r>  -15.3444    1.0000 </r>
       <r>  -15.3439    1.0000 </r>
       <r>  -15.3257    1.0000 </r>
       <r>  -15.3240    1.0000 </r>
       <r>  -15.3193    1.0000 </r>
       <r>  -15.3188    1.0000 </r>
       <r>   -6.9943    1.0000 </r>
       <r>   -6.9304    1.0000 </r>
       <r>   -6.7638    1.0000 </r>
       <r>   -6.7479    1.0000 </r>
       <r>   -1.7030    1.0000 </r>
       <r>   -1.4579    1.0000 </r>
       <r>   -1.3471    1.0000 </r>
       <r>   -1.1805    1.0000 </r>
       <r>    1.3642    1.0000 </r>
       <r>    1.6196    1.0000 </r>
       <r>    1.9210    1.0000 </r>
       <r>    2.1096    1.0000 </r>
       <r>    2.4661    1.0000 </r>
       <r>    2.9425    1.0000 </r>
       <r>    3.1287    1.0000 </r>
       <r>    3.5685    1.0000 </r>
       <r>    3.7576    1.0000 </r>
       <r>    4.1322    1.0000 </r>
       <r>    4.3911    1.0000 </r>
       <r>    4.7894    1.0000 </r>
       <r>    7.5405    0.0000 </r>
       <r>    7.9028    0.0000 </r>
       <r>    8.4593    0.0000 </r>
       <r>    8.7455    0.0000 </r>
       <r>    9.0931    0.0000 </r>
       <r>    9.1913    0.0000 </r>
       <r>    9.6441    0.0000 </r>
       <r>    9.7776    0.0000 </r>
       <r>   10.3968    0.0000 </r>
       <r>   10.6481    0.0000 </r>
       <r>   11.0381    0.0000 </r>
       <r>   11.3946    0.0000 </r>
       <r>   12.0832    0.0000 </r>
       <r>   12.2551    0.0000 </r>
       <r>   13.5117    0.0000 </r>
       <r>   13.6157    0.0000 </r>
       <r>   14.9349    0.0000 </r>
       <r>   15.2706    0.0000 </r>
       <r>   15.4210    0.0000 </r>
       <r>   15.9984    0.0000 </r>
       <r>   16.3539    0.0000 </r>
       <r>   16.5246    0.0000 </r>
       <r>   16.9312    0.0000 </r>
       <r>   17.2142    0.0000 </r>
      </set>
      <set comment="kpoint 66">
       <r>  -15.4115    1.0000 </r>
       <r>  -15.4101    1.0000 </r>
       <r>  -15.4069    1.0000 </r>
       <r>  -15.4057    1.0000 </r>
       <r>  -15.3887    1.0000 </r>
       <r>  -15.3881    1.0000 </r>
       <r>  -15.3850    1.0000 </r>
       <r>  -15.3845    1.0000 </r>
       <r>  -15.3749    1.0000 </r>
       <r>  -15.3732    1.0000 </r>
       <r>  -15.3698    1.0000 </r>
       <r>  -15.3691    1.0000 </r>
       <r>  -15.3502    1.0000 </r>
       <r>  -15.3491    1.0000 </r>
       <r>  -15.3445    1.0000 </r>
       <r>  -15.3439    1.0000 </r>
       <r>  -15.3256    1.0000 </r>
       <r>  -15.3241    1.0000 </r>
       <r>  -15.3193    1.0000 </r>
       <r>  -15.3188    1.0000 </r>
       <r>   -6.9945    1.0000 </r>
       <r>   -6.9301    1.0000 </r>
       <r>   -6.7641    1.0000 </r>
       <r>   -6.7476    1.0000 </r>
       <r>   -1.7083    1.0000 </r>
       <r>   -1.4508    1.0000 </r>
       <r>   -1.3390    1.0000 </r>
       <r>   -1.1905    1.0000 </r>
       <r>    1.3644    1.0000 </r>
       <r>    1.6197    1.0000 </r>
       <r>    1.9196    1.0000 </r>
       <r>    2.1117    1.0000 </r>
       <r>    2.4655    1.0000 </r>
       <r>    2.9400    1.0000 </r>
       <r>    3.1275    1.0000 </r>
       <r>    3.5728    1.0000 </r>
       <r>    3.7553    1.0000 </r>
       <r>    4.1359    1.0000 </r>
       <r>    4.3936    1.0000 </r>
       <r>    4.7852    1.0000 </r>
       <r>    7.5304    0.0000 </r>
       <r>    7.9148    0.0000 </r>
       <r>    8.4634    0.0000 </r>
       <r>    8.7464    0.0000 </r>
       <r>    9.0795    0.0000 </r>
       <r>    9.1862    0.0000 </r>
       <r>    9.6526    0.0000 </r>
       <r>    9.7761    0.0000 </r>
       <r>   10.4067    0.0000 </r>
       <r>   10.6458    0.0000 </r>
       <r>   11.0342    0.0000 </r>
       <r>   11.3964    0.0000 </r>
       <r>   12.0869    0.0000 </r>
       <r>   12.2520    0.0000 </r>
       <r>   13.5116    0.0000 </r>
       <r>   13.6143    0.0000 </r>
       <r>   14.9321    0.0000 </r>
       <r>   15.2713    0.0000 </r>
       <r>   15.4236    0.0000 </r>
       <r>   15.9984    0.0000 </r>
       <r>   16.3542    0.0000 </r>
       <r>   16.5276    0.0000 </r>
       <r>   16.9297    0.0000 </r>
       <r>   17.2058    0.0000 </r>
      </set>
      <set comment="kpoint 67">
       <r>  -15.4167    1.0000 </r>
       <r>  -15.4159    1.0000 </r>
       <r>  -15.4113    1.0000 </r>
       <r>  -15.4106    1.0000 </r>
       <r>  -15.3888    1.0000 </r>
       <r>  -15.3881    1.0000 </r>
       <r>  -15.3839    1.0000 </r>
       <r>  -15.3835    1.0000 </r>
       <r>  -15.3733    1.0000 </r>
       <r>  -15.3725    1.0000 </r>
       <r>  -15.3689    1.0000 </r>
       <r>  -15.3684    1.0000 </r>
       <r>  -15.3474    1.0000 </r>
       <r>  -15.3468    1.0000 </r>
       <r>  -15.3421    1.0000 </r>
       <r>  -15.3418    1.0000 </r>
       <r>  -15.3254    1.0000 </r>
       <r>  -15.3245    1.0000 </r>
       <r>  -15.3188    1.0000 </r>
       <r>  -15.3185    1.0000 </r>
       <r>   -6.8399    1.0000 </r>
       <r>   -6.7939    1.0000 </r>
       <r>   -6.6967    1.0000 </r>
       <r>   -6.6778    1.0000 </r>
       <r>   -1.3846    1.0000 </r>
       <r>   -1.2279    1.0000 </r>
       <r>   -1.0173    1.0000 </r>
       <r>   -0.9423    1.0000 </r>
       <r>    0.7865    1.0000 </r>
       <r>    1.1370    1.0000 </r>
       <r>    1.1960    1.0000 </r>
       <r>    1.6208    1.0000 </r>
       <r>    1.8368    1.0000 </r>
       <r>    2.2166    1.0000 </r>
       <r>    2.3649    1.0000 </r>
       <r>    2.8462    1.0000 </r>
       <r>    3.6688    1.0000 </r>
       <r>    3.9803    1.0000 </r>
       <r>    4.3636    1.0000 </r>
       <r>    4.5336    1.0000 </r>
       <r>    7.8556    0.0000 </r>
       <r>    8.1725    0.0000 </r>
       <r>    8.5993    0.0000 </r>
       <r>    8.8862    0.0000 </r>
       <r>    9.9777    0.0000 </r>
       <r>   10.0347    0.0000 </r>
       <r>   10.4494    0.0000 </r>
       <r>   10.5803    0.0000 </r>
       <r>   11.5539    0.0000 </r>
       <r>   11.8193    0.0000 </r>
       <r>   12.1310    0.0000 </r>
       <r>   12.1570    0.0000 </r>
       <r>   12.2432    0.0000 </r>
       <r>   12.4961    0.0000 </r>
       <r>   13.1569    0.0000 </r>
       <r>   13.2895    0.0000 </r>
       <r>   15.1640    0.0000 </r>
       <r>   15.3676    0.0000 </r>
       <r>   16.1631    0.0000 </r>
       <r>   16.3674    0.0000 </r>
       <r>   16.8176    0.0000 </r>
       <r>   16.9258    0.0000 </r>
       <r>   17.1086    0.0000 </r>
       <r>   17.1562    0.0000 </r>
      </set>
      <set comment="kpoint 68">
       <r>  -15.4167    1.0000 </r>
       <r>  -15.4159    1.0000 </r>
       <r>  -15.4114    1.0000 </r>
       <r>  -15.4107    1.0000 </r>
       <r>  -15.3888    1.0000 </r>
       <r>  -15.3882    1.0000 </r>
       <r>  -15.3839    1.0000 </r>
       <r>  -15.3835    1.0000 </r>
       <r>  -15.3733    1.0000 </r>
       <r>  -15.3724    1.0000 </r>
       <r>  -15.3690    1.0000 </r>
       <r>  -15.3684    1.0000 </r>
       <r>  -15.3474    1.0000 </r>
       <r>  -15.3469    1.0000 </r>
       <r>  -15.3421    1.0000 </r>
       <r>  -15.3418    1.0000 </r>
       <r>  -15.3253    1.0000 </r>
       <r>  -15.3245    1.0000 </r>
       <r>  -15.3188    1.0000 </r>
       <r>  -15.3186    1.0000 </r>
       <r>   -6.8401    1.0000 </r>
       <r>   -6.7934    1.0000 </r>
       <r>   -6.6972    1.0000 </r>
       <r>   -6.6776    1.0000 </r>
       <r>   -1.3885    1.0000 </r>
       <r>   -1.2238    1.0000 </r>
       <r>   -1.0115    1.0000 </r>
       <r>   -0.9480    1.0000 </r>
       <r>    0.7872    1.0000 </r>
       <r>    1.1369    1.0000 </r>
       <r>    1.1960    1.0000 </r>
       <r>    1.6200    1.0000 </r>
       <r>    1.8378    1.0000 </r>
       <r>    2.2122    1.0000 </r>
       <r>    2.3637    1.0000 </r>
       <r>    2.8500    1.0000 </r>
       <r>    3.6690    1.0000 </r>
       <r>    3.9816    1.0000 </r>
       <r>    4.3662    1.0000 </r>
       <r>    4.5318    1.0000 </r>
       <r>    7.8446    0.0000 </r>
       <r>    8.1802    0.0000 </r>
       <r>    8.5893    0.0000 </r>
       <r>    8.8989    0.0000 </r>
       <r>    9.9801    0.0000 </r>
       <r>   10.0279    0.0000 </r>
       <r>   10.4555    0.0000 </r>
       <r>   10.5768    0.0000 </r>
       <r>   11.5599    0.0000 </r>
       <r>   11.8151    0.0000 </r>
       <r>   12.1358    0.0000 </r>
       <r>   12.1531    0.0000 </r>
       <r>   12.2465    0.0000 </r>
       <r>   12.4957    0.0000 </r>
       <r>   13.1584    0.0000 </r>
       <r>   13.2821    0.0000 </r>
       <r>   15.1616    0.0000 </r>
       <r>   15.3705    0.0000 </r>
       <r>   16.1653    0.0000 </r>
       <r>   16.3647    0.0000 </r>
       <r>   16.8111    0.0000 </r>
       <r>   16.9318    0.0000 </r>
       <r>   17.1127    0.0000 </r>
       <r>   17.1551    0.0000 </r>
      </set>
      <set comment="kpoint 69">
       <r>  -15.4185    1.0000 </r>
       <r>  -15.4185    1.0000 </r>
       <r>  -15.4129    1.0000 </r>
       <r>  -15.4129    1.0000 </r>
       <r>  -15.3885    1.0000 </r>
       <r>  -15.3885    1.0000 </r>
       <r>  -15.3834    1.0000 </r>
       <r>  -15.3834    1.0000 </r>
       <r>  -15.3724    1.0000 </r>
       <r>  -15.3724    1.0000 </r>
       <r>  -15.3683    1.0000 </r>
       <r>  -15.3683    1.0000 </r>
       <r>  -15.3460    1.0000 </r>
       <r>  -15.3460    1.0000 </r>
       <r>  -15.3410    1.0000 </r>
       <r>  -15.3410    1.0000 </r>
       <r>  -15.3249    1.0000 </r>
       <r>  -15.3249    1.0000 </r>
       <r>  -15.3185    1.0000 </r>
       <r>  -15.3185    1.0000 </r>
       <r>   -6.7422    1.0000 </r>
       <r>   -6.7422    1.0000 </r>
       <r>   -6.6693    1.0000 </r>
       <r>   -6.6693    1.0000 </r>
       <r>   -1.2034    1.0000 </r>
       <r>   -1.2034    1.0000 </r>
       <r>   -0.7969    1.0000 </r>
       <r>   -0.7969    1.0000 </r>
       <r>    0.7414    1.0000 </r>
       <r>    0.7414    1.0000 </r>
       <r>    1.1664    1.0000 </r>
       <r>    1.1664    1.0000 </r>
       <r>    1.7348    1.0000 </r>
       <r>    1.7348    1.0000 </r>
       <r>    2.2715    1.0000 </r>
       <r>    2.2715    1.0000 </r>
       <r>    3.8723    1.0000 </r>
       <r>    3.8723    1.0000 </r>
       <r>    4.4084    1.0000 </r>
       <r>    4.4084    1.0000 </r>
       <r>    8.0425    0.0000 </r>
       <r>    8.0425    0.0000 </r>
       <r>    8.5813    0.0000 </r>
       <r>    8.5813    0.0000 </r>
       <r>   10.6286    0.0000 </r>
       <r>   10.6286    0.0000 </r>
       <r>   10.8090    0.0000 </r>
       <r>   10.8090    0.0000 </r>
       <r>   12.2046    0.0000 </r>
       <r>   12.2046    0.0000 </r>
       <r>   12.4895    0.0000 </r>
       <r>   12.4895    0.0000 </r>
       <r>   12.6048    0.0000 </r>
       <r>   12.6048    0.0000 </r>
       <r>   13.1780    0.0000 </r>
       <r>   13.1780    0.0000 </r>
       <r>   15.4333    0.0000 </r>
       <r>   15.4333    0.0000 </r>
       <r>   16.3661    0.0000 </r>
       <r>   16.3661    0.0000 </r>
       <r>   16.9481    0.0000 </r>
       <r>   16.9481    0.0000 </r>
       <r>   17.1610    0.0000 </r>
       <r>   17.1610    0.0000 </r>
      </set>
      <set comment="kpoint 70">
       <r>  -15.4185    1.0000 </r>
       <r>  -15.4185    1.0000 </r>
       <r>  -15.4130    1.0000 </r>
       <r>  -15.4130    1.0000 </r>
       <r>  -15.3886    1.0000 </r>
       <r>  -15.3886    1.0000 </r>
       <r>  -15.3834    1.0000 </r>
       <r>  -15.3834    1.0000 </r>
       <r>  -15.3724    1.0000 </r>
       <r>  -15.3724    1.0000 </r>
       <r>  -15.3684    1.0000 </r>
       <r>  -15.3684    1.0000 </r>
       <r>  -15.3460    1.0000 </r>
       <r>  -15.3460    1.0000 </r>
       <r>  -15.3410    1.0000 </r>
       <r>  -15.3410    1.0000 </r>
       <r>  -15.3248    1.0000 </r>
       <r>  -15.3248    1.0000 </r>
       <r>  -15.3185    1.0000 </r>
       <r>  -15.3185    1.0000 </r>
       <r>   -6.7422    1.0000 </r>
       <r>   -6.7422    1.0000 </r>
       <r>   -6.6693    1.0000 </r>
       <r>   -6.6693    1.0000 </r>
       <r>   -1.2042    1.0000 </r>
       <r>   -1.2042    1.0000 </r>
       <r>   -0.7959    1.0000 </r>
       <r>   -0.7959    1.0000 </r>
       <r>    0.7434    1.0000 </r>
       <r>    0.7434    1.0000 </r>
       <r>    1.1639    1.0000 </r>
       <r>    1.1639    1.0000 </r>
       <r>    1.7328    1.0000 </r>
       <r>    1.7328    1.0000 </r>
       <r>    2.2735    1.0000 </r>
       <r>    2.2735    1.0000 </r>
       <r>    3.8720    1.0000 </r>
       <r>    3.8720    1.0000 </r>
       <r>    4.4102    1.0000 </r>
       <r>    4.4102    1.0000 </r>
       <r>    8.0321    0.0000 </r>
       <r>    8.0321    0.0000 </r>
       <r>    8.5909    0.0000 </r>
       <r>    8.5909    0.0000 </r>
       <r>   10.6279    0.0000 </r>
       <r>   10.6279    0.0000 </r>
       <r>   10.8094    0.0000 </r>
       <r>   10.8094    0.0000 </r>
       <r>   12.2082    0.0000 </r>
       <r>   12.2082    0.0000 </r>
       <r>   12.4903    0.0000 </r>
       <r>   12.4903    0.0000 </r>
       <r>   12.5999    0.0000 </r>
       <r>   12.5999    0.0000 </r>
       <r>   13.1788    0.0000 </r>
       <r>   13.1788    0.0000 </r>
       <r>   15.4317    0.0000 </r>
       <r>   15.4317    0.0000 </r>
       <r>   16.3658    0.0000 </r>
       <r>   16.3658    0.0000 </r>
       <r>   16.9470    0.0000 </r>
       <r>   16.9470    0.0000 </r>
       <r>   17.1627    0.0000 </r>
       <r>   17.1627    0.0000 </r>
      </set>
     </set>
    </set>
   </array>
  </eigenvalues>
  <separator name="orbital magnetization" >
   <v name="MAGDIPOLOUT">      0.00000000      0.00000000      0.00000000</v>
  </separator>
  <dos>
   <i name="efermi">      5.96895940 </i>
   <total>
    <array>
     <dimension dim="1">gridpoints</dimension>
     <dimension dim="2">spin</dimension>
     <field>energy</field>
     <field>total</field>
     <field>integrated</field>
     <set>
      <set comment="spin 1">
       <r>   -17.0819     0.0000     0.0000 </r>
       <r>   -16.9601     0.0000     0.0000 </r>
       <r>   -16.8383     0.0000     0.0000 </r>
       <r>   -16.7165     0.0000     0.0000 </r>
       <r>   -16.5947     0.0000     0.0000 </r>
       <r>   -16.4729     0.0000     0.0000 </r>
       <r>   -16.3511     0.0000     0.0000 </r>
       <r>   -16.2293     0.0000     0.0000 </r>
       <r>   -16.1075     0.0000     0.0000 </r>
       <r>   -15.9857     0.0000     0.0000 </r>
       <r>   -15.8639     0.0000     0.0000 </r>
       <r>   -15.7421     0.0000     0.0000 </r>
       <r>   -15.6203     0.0000     0.0000 </r>
       <r>   -15.4985     0.0000     0.0000 </r>
       <r>   -15.3767   155.4026    18.9282 </r>
       <r>   -15.2549    65.4529    40.0000 </r>
       <r>   -15.1331     0.0000    40.0000 </r>
       <r>   -15.0113     0.0000    40.0000 </r>
       <r>   -14.8894     0.0000    40.0000 </r>
       <r>   -14.7676     0.0000    40.0000 </r>
       <r>   -14.6458     0.0000    40.0000 </r>
       <r>   -14.5240     0.0000    40.0000 </r>
       <r>   -14.4022     0.0000    40.0000 </r>
       <r>   -14.2804     0.0000    40.0000 </r>
       <r>   -14.1586     0.0000    40.0000 </r>
       <r>   -14.0368     0.0000    40.0000 </r>
       <r>   -13.9150     0.0000    40.0000 </r>
       <r>   -13.7932     0.0000    40.0000 </r>
       <r>   -13.6714     0.0000    40.0000 </r>
       <r>   -13.5496     0.0000    40.0000 </r>
       <r>   -13.4278     0.0000    40.0000 </r>
       <r>   -13.3060     0.0000    40.0000 </r>
       <r>   -13.1842     0.0000    40.0000 </r>
       <r>   -13.0624     0.0000    40.0000 </r>
       <r>   -12.9406     0.0000    40.0000 </r>
       <r>   -12.8188     0.0000    40.0000 </r>
       <r>   -12.6970     0.0000    40.0000 </r>
       <r>   -12.5752     0.0000    40.0000 </r>
       <r>   -12.4534     0.0000    40.0000 </r>
       <r>   -12.3316     0.0000    40.0000 </r>
       <r>   -12.2098     0.0000    40.0000 </r>
       <r>   -12.0880     0.0000    40.0000 </r>
       <r>   -11.9662     0.0000    40.0000 </r>
       <r>   -11.8444     0.0000    40.0000 </r>
       <r>   -11.7226     0.0000    40.0000 </r>
       <r>   -11.6008     0.0000    40.0000 </r>
       <r>   -11.4790     0.0000    40.0000 </r>
       <r>   -11.3572     0.0000    40.0000 </r>
       <r>   -11.2354     0.0000    40.0000 </r>
       <r>   -11.1136     0.0000    40.0000 </r>
       <r>   -10.9918     0.0000    40.0000 </r>
       <r>   -10.8700     0.0000    40.0000 </r>
       <r>   -10.7482     0.0000    40.0000 </r>
       <r>   -10.6264     0.0000    40.0000 </r>
       <r>   -10.5046     0.0000    40.0000 </r>
       <r>   -10.3828     0.0000    40.0000 </r>
       <r>   -10.2610     0.0000    40.0000 </r>
       <r>   -10.1392     0.0000    40.0000 </r>
       <r>   -10.0174     0.0000    40.0000 </r>
       <r>    -9.8956     0.0000    40.0000 </r>
       <r>    -9.7738     0.0000    40.0000 </r>
       <r>    -9.6520     0.0000    40.0000 </r>
       <r>    -9.5302     0.0000    40.0000 </r>
       <r>    -9.4084     0.0000    40.0000 </r>
       <r>    -9.2866     0.0000    40.0000 </r>
       <r>    -9.1648     0.0000    40.0000 </r>
       <r>    -9.0430     0.0000    40.0000 </r>
       <r>    -8.9212     0.0000    40.0000 </r>
       <r>    -8.7994     0.0000    40.0000 </r>
       <r>    -8.6776     0.0000    40.0000 </r>
       <r>    -8.5558     0.0000    40.0000 </r>
       <r>    -8.4340     0.0000    40.0000 </r>
       <r>    -8.3122     0.0000    40.0000 </r>
       <r>    -8.1904     0.0019    40.0002 </r>
       <r>    -8.0686     0.4561    40.0648 </r>
       <r>    -7.9468     0.5984    40.2488 </r>
       <r>    -7.8250     1.6714    40.4721 </r>
       <r>    -7.7032     1.9701    40.7677 </r>
       <r>    -7.5814     2.3128    41.1150 </r>
       <r>    -7.4596     2.8680    41.5530 </r>
       <r>    -7.3378     1.4249    41.8587 </r>
       <r>    -7.2160     2.2773    42.4070 </r>
       <r>    -7.0942     2.2726    42.8879 </r>
       <r>    -6.9724     3.9494    43.6014 </r>
       <r>    -6.8506     8.1567    44.7250 </r>
       <r>    -6.7288     8.4430    46.1487 </r>
       <r>    -6.6070     7.7655    47.4921 </r>
       <r>    -6.4852     1.8921    47.9990 </r>
       <r>    -6.3634     0.0000    48.0000 </r>
       <r>    -6.2416     0.0000    48.0000 </r>
       <r>    -6.1198     0.0000    48.0000 </r>
       <r>    -5.9980     0.0000    48.0000 </r>
       <r>    -5.8762     0.0000    48.0000 </r>
       <r>    -5.7544     0.0000    48.0000 </r>
       <r>    -5.6326     0.0000    48.0000 </r>
       <r>    -5.5108     0.0000    48.0000 </r>
       <r>    -5.3890     0.0000    48.0000 </r>
       <r>    -5.2672     0.0000    48.0000 </r>
       <r>    -5.1454     0.0000    48.0000 </r>
       <r>    -5.0236     0.0000    48.0000 </r>
       <r>    -4.9018     0.0000    48.0000 </r>
       <r>    -4.7800     0.0000    48.0000 </r>
       <r>    -4.6582     0.0000    48.0000 </r>
       <r>    -4.5364     0.0000    48.0000 </r>
       <r>    -4.4146     0.0000    48.0000 </r>
       <r>    -4.2928     0.0000    48.0000 </r>
       <r>    -4.1710     0.0000    48.0000 </r>
       <r>    -4.0492     0.0000    48.0000 </r>
       <r>    -3.9274     0.0000    48.0000 </r>
       <r>    -3.8056     0.0000    48.0000 </r>
       <r>    -3.6838     0.0000    48.0000 </r>
       <r>    -3.5620     0.0000    48.0000 </r>
       <r>    -3.4402     0.0000    48.0000 </r>
       <r>    -3.3184     0.0000    48.0000 </r>
       <r>    -3.1966     0.0000    48.0000 </r>
       <r>    -3.0748     0.0000    48.0000 </r>
       <r>    -2.9530     0.0000    48.0000 </r>
       <r>    -2.8312     0.0000    48.0000 </r>
       <r>    -2.7094     0.0000    48.0000 </r>
       <r>    -2.5876     0.1253    48.0153 </r>
       <r>    -2.4658     0.4564    48.0741 </r>
       <r>    -2.3440     1.3470    48.3122 </r>
       <r>    -2.2222     0.6399    48.4113 </r>
       <r>    -2.1004     2.1429    48.7054 </r>
       <r>    -1.9786     1.8616    49.0971 </r>
       <r>    -1.8568     1.1519    49.4736 </r>
       <r>    -1.7349     2.2475    49.9404 </r>
       <r>    -1.6131     2.5409    50.4391 </r>
       <r>    -1.4913     1.9386    50.8843 </r>
       <r>    -1.3695     2.4961    51.3688 </r>
       <r>    -1.2477     0.6103    51.7132 </r>
       <r>    -1.1259     3.2438    52.2933 </r>
       <r>    -1.0041     2.5960    52.8069 </r>
       <r>    -0.8823     1.5247    53.2505 </r>
       <r>    -0.7605     3.5097    54.0664 </r>
       <r>    -0.6387     2.1961    54.5545 </r>
       <r>    -0.5169     1.5768    54.7939 </r>
       <r>    -0.3951     1.6304    55.0782 </r>
       <r>    -0.2733     1.3435    55.2840 </r>
       <r>    -0.1515     1.1875    55.4687 </r>
       <r>    -0.0297     0.3041    55.5370 </r>
       <r>     0.0921     0.5362    55.6023 </r>
       <r>     0.2139     0.0000    55.6574 </r>
       <r>     0.3357     1.2163    55.8056 </r>
       <r>     0.4575     0.7337    55.8949 </r>
       <r>     0.5793     0.3041    55.9907 </r>
       <r>     0.7011     0.0026    56.0281 </r>
       <r>     0.8229     1.2337    56.2706 </r>
       <r>     0.9447     0.5291    56.4533 </r>
       <r>     1.0665     0.9880    56.6481 </r>
       <r>     1.1883     2.6707    57.1123 </r>
       <r>     1.3101     2.1135    57.4889 </r>
       <r>     1.4319     4.4424    58.0874 </r>
       <r>     1.5537     2.0993    58.4687 </r>
       <r>     1.6755     1.8163    58.8786 </r>
       <r>     1.7973     2.5895    59.3061 </r>
       <r>     1.9191     3.3288    59.9332 </r>
       <r>     2.0409     2.4760    60.3664 </r>
       <r>     2.1627     3.5180    60.9563 </r>
       <r>     2.2845     5.0143    61.7682 </r>
       <r>     2.4063     3.8086    62.5009 </r>
       <r>     2.5281     2.3250    62.9869 </r>
       <r>     2.6499     4.4677    63.7108 </r>
       <r>     2.7717     1.3707    64.0558 </r>
       <r>     2.8935     4.1799    64.7128 </r>
       <r>     3.0153     4.5812    65.5395 </r>
       <r>     3.1371     3.0210    66.0717 </r>
       <r>     3.2589     3.1332    66.6594 </r>
       <r>     3.3807     3.7419    67.4002 </r>
       <r>     3.5025     6.0320    68.4477 </r>
       <r>     3.6243     3.9705    68.9744 </r>
       <r>     3.7461     4.1340    69.8091 </r>
       <r>     3.8679     2.9969    70.4484 </r>
       <r>     3.9897     4.3558    71.2991 </r>
       <r>     4.1115     5.2515    72.2507 </r>
       <r>     4.2333     2.5265    72.9003 </r>
       <r>     4.3551     3.9995    73.5334 </r>
       <r>     4.4769     2.8598    74.2094 </r>
       <r>     4.5987     1.8956    74.8142 </r>
       <r>     4.7205     1.9928    75.2427 </r>
       <r>     4.8423     4.9094    76.1906 </r>
       <r>     4.9641     2.5399    76.5501 </r>
       <r>     5.0859     4.3997    77.2766 </r>
       <r>     5.2077     4.5305    77.9963 </r>
       <r>     5.3295     5.5264    79.0157 </r>
       <r>     5.4513     4.4112    79.6484 </r>
       <r>     5.5731     0.6203    79.7607 </r>
       <r>     5.6949     0.6095    79.8891 </r>
       <r>     5.8167     0.1733    79.9470 </r>
       <r>     5.9385     0.1520    80.0000 </r>
       <r>     6.0603     0.0000    80.0000 </r>
       <r>     6.1821     0.0000    80.0000 </r>
       <r>     6.3039     0.0121    80.0015 </r>
       <r>     6.4257     0.3042    80.0834 </r>
       <r>     6.5475     0.6079    80.1759 </r>
       <r>     6.6693     1.1205    80.3124 </r>
       <r>     6.7911     1.3468    80.4881 </r>
       <r>     6.9129     1.4124    80.7183 </r>
       <r>     7.0347     0.5546    80.8546 </r>
       <r>     7.1565     3.5070    81.4364 </r>
       <r>     7.2783     2.7725    81.9395 </r>
       <r>     7.4001     2.7009    82.5605 </r>
       <r>     7.5219     1.4532    82.9455 </r>
       <r>     7.6437     3.5426    83.6074 </r>
       <r>     7.7655     1.5717    84.0896 </r>
       <r>     7.8873     4.5065    84.8545 </r>
       <r>     8.0091     1.5887    85.2583 </r>
       <r>     8.1309     0.4598    85.6949 </r>
       <r>     8.2527     4.8284    86.3566 </r>
       <r>     8.3745     2.8773    86.8597 </r>
       <r>     8.4963     4.4974    87.5015 </r>
       <r>     8.6181     2.8969    88.1399 </r>
       <r>     8.7399     2.7763    88.6622 </r>
       <r>     8.8617     3.3008    89.4946 </r>
       <r>     8.9835     5.2862    90.5235 </r>
       <r>     9.1053     5.5177    91.4498 </r>
       <r>     9.2271     4.1954    92.0295 </r>
       <r>     9.3489     5.1186    92.7253 </r>
       <r>     9.4707     3.4646    93.3294 </r>
       <r>     9.5925     1.5962    93.6574 </r>
       <r>     9.7143     2.4327    94.1111 </r>
       <r>     9.8361     2.2960    94.5019 </r>
       <r>     9.9579     5.0467    95.2073 </r>
       <r>    10.0797     3.5266    95.8555 </r>
       <r>    10.2015     2.7161    96.3031 </r>
       <r>    10.3233     4.1806    97.0185 </r>
       <r>    10.4451     3.3499    97.6765 </r>
       <r>    10.5669     3.1678    98.4044 </r>
       <r>    10.6887     4.2746    99.2151 </r>
       <r>    10.8105     5.2221    99.9416 </r>
       <r>    10.9323     3.2315   100.6714 </r>
       <r>    11.0541     4.9542   101.5108 </r>
       <r>    11.1759     1.7959   101.8854 </r>
       <r>    11.2978     1.9270   102.2162 </r>
       <r>    11.4196     2.8385   102.6976 </r>
       <r>    11.5414     2.5406   103.2632 </r>
       <r>    11.6632     1.9192   103.6689 </r>
       <r>    11.7850     2.2941   104.1405 </r>
       <r>    11.9068     2.3799   104.6232 </r>
       <r>    12.0286     2.8719   105.0905 </r>
       <r>    12.1504     4.3850   105.6730 </r>
       <r>    12.2722     4.9654   106.4844 </r>
       <r>    12.3940     1.9742   106.9164 </r>
       <r>    12.5158     2.5824   107.3608 </r>
       <r>    12.6376     2.5249   107.7057 </r>
       <r>    12.7594     3.4617   108.3939 </r>
       <r>    12.8812     2.3708   108.8165 </r>
       <r>    13.0030     3.2689   109.5000 </r>
       <r>    13.1248     2.1012   109.8393 </r>
       <r>    13.2466     4.2143   110.5966 </r>
       <r>    13.3684     2.4740   110.9773 </r>
       <r>    13.4902     1.7262   111.4973 </r>
       <r>    13.6120     2.5463   111.9861 </r>
       <r>    13.7338     0.8937   112.2200 </r>
       <r>    13.8556     2.2210   112.6779 </r>
       <r>    13.9774     4.5822   113.5766 </r>
       <r>    14.0992     1.5264   114.0748 </r>
       <r>    14.2210     4.4216   114.7423 </r>
       <r>    14.3428     3.3712   115.2439 </r>
       <r>    14.4646     1.9533   115.7379 </r>
       <r>    14.5864     2.6956   116.1431 </r>
       <r>    14.7082     4.5421   116.8032 </r>
       <r>    14.8300     1.9025   117.2502 </r>
       <r>    14.9518     3.9123   117.9580 </r>
       <r>    15.0736     1.0643   118.2407 </r>
       <r>    15.1954     4.0410   118.8255 </r>
       <r>    15.3172     4.9240   119.6368 </r>
       <r>    15.4390     5.4858   120.4830 </r>
       <r>    15.5608     4.3781   121.2184 </r>
       <r>    15.6826     1.9371   121.6804 </r>
       <r>    15.8044     4.6036   122.4496 </r>
       <r>    15.9262     3.0132   122.9041 </r>
       <r>    16.0480     5.5781   123.8461 </r>
       <r>    16.1698     2.7775   124.2642 </r>
       <r>    16.2916     1.8935   124.6195 </r>
       <r>    16.4134     4.1133   125.1862 </r>
       <r>    16.5352     3.1219   125.7321 </r>
       <r>    16.6570     2.7735   126.2637 </r>
       <r>    16.7788     1.7424   126.6381 </r>
       <r>    16.9006     0.9017   126.9246 </r>
       <r>    17.0224     2.1261   127.3330 </r>
       <r>    17.1442     0.8751   127.4770 </r>
       <r>    17.2660     1.2163   127.8519 </r>
       <r>    17.3878     0.0000   127.8889 </r>
       <r>    17.5096     0.0000   127.8889 </r>
       <r>    17.6314     0.3773   127.9348 </r>
       <r>    17.7532     0.0000   127.9630 </r>
       <r>    17.8750     0.3041   128.0000 </r>
       <r>    17.9968     0.0000   128.0000 </r>
       <r>    18.1186     0.0000   128.0000 </r>
       <r>    18.2404     0.0000   128.0000 </r>
       <r>    18.3622     0.0000   128.0000 </r>
       <r>    18.4840     0.0000   128.0000 </r>
       <r>    18.6058     0.0000   128.0000 </r>
       <r>    18.7276     0.0000   128.0000 </r>
       <r>    18.8494     0.0000   128.0000 </r>
       <r>    18.9712     0.0000   128.0000 </r>
       <r>    19.0930     0.0000   128.0000 </r>
       <r>    19.2148     0.0000   128.0000 </r>
       <r>    19.3366     0.0000   128.0000 </r>
       <r>    19.4584     0.0000   128.0000 </r>
      </set>
     </set>
    </array>
   </total>
  </dos>
 </calculation>
 <structure name="finalpos" >
  <crystal>
   <varray name="basis" >
    <v>       4.34539863       0.00000000       0.00000000 </v>
    <v>       0.00000000       4.11936655       0.00000000 </v>
    <v>       0.00000000       0.00000000      11.35478920 </v>
   </varray>
   <i name="volume">    203.25401695 </i>
   <varray name="rec_basis" >
    <v>       0.23012848       0.00000000       0.00000000 </v>
    <v>       0.00000000       0.24275577       0.00000000 </v>
    <v>       0.00000000       0.00000000       0.08806857 </v>
   </varray>
  </crystal>
  <varray name="positions" >
   <v>       0.09903631       0.24899417       0.11539711 </v>
   <v>       0.40096369       0.24899417       0.61539711 </v>
   <v>       0.59903631       0.75100583       0.38460289 </v>
   <v>       0.90096369       0.75100583       0.88460289 </v>
   <v>       0.02605052       0.25058722       0.35675466 </v>
   <v>       0.47394948       0.25058722       0.85675466 </v>
   <v>       0.52605052       0.74941278       0.14324534 </v>
   <v>       0.97394948       0.74941278       0.64324534 </v>
  </varray>
 </structure>
</modeling>
