 Si O
   1.0
     4.8734298765874344    0.0000000000000000    0.0000000000000000
    -2.4367149382937172    4.2205140766867792    0.0000000000000000
     0.0000000000000000    0.0000000000000000    5.3741898199510327
 Si O
   3   6
Direct
   0.4646829513869304  0.0000000000000000  0.6666666666666665
   0.0000000000000000  0.4646829513869304  0.3333333333333332
   0.5353170486130696  0.5353170486130696  0.0000000000000000
   0.1354878706338397  0.7239825119918450  0.5541887729328305
   0.2760174880081550  0.4115053586419948  0.2208554395994970
   0.5884946413580052  0.8645121293661603  0.8875221062661638
   0.4115053586419948  0.2760174880081550  0.7791445604005027
   0.8645121293661603  0.5884946413580052  0.1124778937338361
   0.7239825119918450  0.1354878706338397  0.4458112270671694