Energy:      11.4521440                 
   1.00000000000000     
    19.3731200000000001    0.0000000000000000    0.0000000000000000
     0.0000000000000000   21.9172100000000007    0.0000000000000000
     0.0000000000000000    0.0000000000000000   15.0000000000000000
   C    H    O 
     7     6     2
Direct
  0.4365167455901888  0.4853689609955276  0.5000000000000000
  0.4386141899578123  0.4218449724390441  0.5000000000000000
  0.4981317295283716  0.5190493211558228  0.5000000000000000
  0.5618237566270443  0.4885247527529063  0.5000000000000000
  0.5636287816205072  0.4249193225177887  0.5000000000000000
  0.5021535520845211  0.3915401143249403  0.5000000000000000
  0.4930894860234862  0.5867052997859133  0.5000000000000000
  0.5462609370630069  0.6586977175233142  0.5000000000000000
  0.3876229557720433  0.5099693873733330  0.5000000000000000
  0.3906582500751829  0.3957979493319526  0.5000000000000000
  0.6095097343492071  0.5148109208527955  0.5000000000000000
  0.5037556433685196  0.3417888375452018  0.5000000000000000
  0.6131707863073703  0.4013041869256100  0.5000000000000000
  0.4391471008652092  0.6157238316150069  0.5000000000000000
  0.5561700631277546  0.6148889553051935  0.5000000000000000
 
  0.00000000E+00  0.00000000E+00  0.00000000E+00
  0.00000000E+00  0.00000000E+00  0.00000000E+00
  0.00000000E+00  0.00000000E+00  0.00000000E+00
  0.00000000E+00  0.00000000E+00  0.00000000E+00
  0.00000000E+00  0.00000000E+00  0.00000000E+00
  0.00000000E+00  0.00000000E+00  0.00000000E+00
  0.00000000E+00  0.00000000E+00  0.00000000E+00
  0.00000000E+00  0.00000000E+00  0.00000000E+00
  0.00000000E+00  0.00000000E+00  0.00000000E+00
  0.00000000E+00  0.00000000E+00  0.00000000E+00
  0.00000000E+00  0.00000000E+00  0.00000000E+00
  0.00000000E+00  0.00000000E+00  0.00000000E+00
  0.00000000E+00  0.00000000E+00  0.00000000E+00
  0.00000000E+00  0.00000000E+00  0.00000000E+00
  0.00000000E+00  0.00000000E+00  0.00000000E+00
