Anisole                                 
   1.00000000000000     
    19.3645700000000005    0.0000000000000000    0.0000000000000000
     0.0000000000000000   22.4550899999999984    0.0000000000000000
     0.0000000000000000    0.0000000000000000   16.8017600000000016
   C    H    O 
     7     8     1
Direct
  0.4382008229682608  0.4847083859833361  0.5000000000000000
  0.4374863032727642  0.4227742058769691  0.5000000000000000
  0.5013661112128239  0.5154138231126588  0.5000000000000000
  0.5636256417054352  0.4835598432625086  0.5000000000000000
  0.5619287535373529  0.4212229031829258  0.5000000000000000
  0.4993783034054217  0.3905070518503222  0.5000000000000000
  0.5589448683336338  0.6099291781821561  0.5000000000000000
  0.3904863815632139  0.5104659777359157  0.5000000000000000
  0.3880962825116017  0.3994057729853004  0.5000000000000000
  0.6131656585924888  0.5064763490816385  0.5000000000000000
  0.4986235990660307  0.3419772024618196  0.5000000000000000
  0.6105492661440234  0.3966684037244869  0.5000000000000000
  0.5431310694176293  0.6567647132611464  0.5000000000000000
  0.5901728172179826  0.6008437940212203  0.4464908176118927
  0.5901728172179826  0.6008437940212203  0.5535091823881073
  0.4964741014167840  0.5763275965799418  0.5000000000000000
 
  0.00000000E+00  0.00000000E+00  0.00000000E+00
  0.00000000E+00  0.00000000E+00  0.00000000E+00
  0.00000000E+00  0.00000000E+00  0.00000000E+00
  0.00000000E+00  0.00000000E+00  0.00000000E+00
  0.00000000E+00  0.00000000E+00  0.00000000E+00
  0.00000000E+00  0.00000000E+00  0.00000000E+00
  0.00000000E+00  0.00000000E+00  0.00000000E+00
  0.00000000E+00  0.00000000E+00  0.00000000E+00
  0.00000000E+00  0.00000000E+00  0.00000000E+00
  0.00000000E+00  0.00000000E+00  0.00000000E+00
  0.00000000E+00  0.00000000E+00  0.00000000E+00
  0.00000000E+00  0.00000000E+00  0.00000000E+00
  0.00000000E+00  0.00000000E+00  0.00000000E+00
  0.00000000E+00  0.00000000E+00  0.00000000E+00
  0.00000000E+00  0.00000000E+00  0.00000000E+00
  0.00000000E+00  0.00000000E+00  0.00000000E+00
