ALGO = Fast
EDIFF = 1e-8
ENCUT = 800
ISIF = 2
ISMEAR = 0
IVDW = 11
LCHARG = .FALSE.
LEPSILON = .TRUE.
LREAL = .FALSE.
LWAVE = .FALSE.
NELM = 250
NSW = 0
PREC = Accurate
SIGMA = 0.01
SYSTEM = Benzene

