Toluene                                 
   1.00000000000000     
    19.3328899999999990    0.0000000000000000    0.0000000000000000
     0.0000000000000000   20.8133300000000006    0.0000000000000000
     0.0000000000000000    0.0000000000000000   16.7850199999999994
   C    H 
     7     8
Direct
  0.4380289323908168  0.5134886830065494  0.5002087542785785
  0.4369584990734314  0.4463571157559401  0.5004681556013002
  0.5007096080646330  0.5473315923334259  0.4997988564685877
  0.5624959043378596  0.5119546699484621  0.4993220573826543
  0.5617283068492391  0.4449261002256469  0.4996078255415269
  0.4988481844882633  0.4117917645226141  0.5002489816428880
  0.5022338615528171  0.6196675858227282  0.5010421597607561
  0.4516365604663596  0.6400956921300658  0.4856196394301625
  0.5407106358634663  0.6386648400687464  0.4589836162530305
  0.5163090089118684  0.6376559096324116  0.5605620996677975
  0.3893364629979087  0.5401139196189237  0.5001859920164536
  0.3875669812269840  0.4210183503283848  0.5006725678482267
  0.4981762875612417  0.3594038289965611  0.5003348609848888
  0.6118699421435516  0.5374735777402547  0.4985918612993833
  0.6104169334633690  0.4184454935703074  0.4991593185702757
 
  0.00000000E+00  0.00000000E+00  0.00000000E+00
  0.00000000E+00  0.00000000E+00  0.00000000E+00
  0.00000000E+00  0.00000000E+00  0.00000000E+00
  0.00000000E+00  0.00000000E+00  0.00000000E+00
  0.00000000E+00  0.00000000E+00  0.00000000E+00
  0.00000000E+00  0.00000000E+00  0.00000000E+00
  0.00000000E+00  0.00000000E+00  0.00000000E+00
  0.00000000E+00  0.00000000E+00  0.00000000E+00
  0.00000000E+00  0.00000000E+00  0.00000000E+00
  0.00000000E+00  0.00000000E+00  0.00000000E+00
  0.00000000E+00  0.00000000E+00  0.00000000E+00
  0.00000000E+00  0.00000000E+00  0.00000000E+00
  0.00000000E+00  0.00000000E+00  0.00000000E+00
  0.00000000E+00  0.00000000E+00  0.00000000E+00
  0.00000000E+00  0.00000000E+00  0.00000000E+00
